14
 energy: -13.664175995165 gnorm: 0.000053693844 xtb: 6.7.1 (edcfbbe)
C           -0.46971149673054        0.94020571411560        1.20438741599638
H           -0.20355908912676       -0.11139782721565        1.12279234054809
H            0.00692554496009        1.34065238181225        2.09520498771381
H           -0.07289292957595        1.46240170957347        0.33615389702695
C           -1.98407871584903        1.09864720822329        1.27517064410018
H           -2.35876000464673        0.60273830669116        2.17370418480168
H           -2.43142586984862        0.59939481515212        0.41205275449627
C           -2.43672443445699        2.55918291213595        1.28148190421949
H           -2.02276346047662        3.06721383206071        0.40728074090341
H           -3.52573316333685        2.58639572690104        1.19384406986324
C           -2.02618480522020        3.30893707818280        2.54353293617497
H           -2.39425169249888        2.79384629096949        3.42850314826423
H           -0.94477973752036        3.38900242501291        2.61597517355796
H           -2.43947676567255        4.31515586638487        2.53620598233331
