      -----------------------------------------------------------      
     |                   =====================                   |     
     |                           x T B                           |     
     |                   =====================                   |     
     |                         S. Grimme                         |     
     |          Mulliken Center for Theoretical Chemistry        |     
     |                    University of Bonn                     |     
      -----------------------------------------------------------      

   * xtb version 6.7.1 (edcfbbe) compiled by 'conda@5dfe00f5fb80' on 2026-06-10

   xtb is free software: you can redistribute it and/or modify it under
   the terms of the GNU Lesser General Public License as published by
   the Free Software Foundation, either version 3 of the License, or
   (at your option) any later version.
   
   xtb is distributed in the hope that it will be useful,
   but WITHOUT ANY WARRANTY; without even the implied warranty of
   MERCHANTABILITY or FITNESS FOR A PARTICULAR PURPOSE.  See the
   GNU Lesser General Public License for more details.
   
   Cite this work as:
   * C. Bannwarth, E. Caldeweyher, S. Ehlert, A. Hansen, P. Pracht,
     J. Seibert, S. Spicher, S. Grimme, WIREs Comput. Mol. Sci., 2020, 11,
     e01493. DOI: 10.1002/wcms.1493
   
   for GFN2-xTB:
   * C. Bannwarth, S. Ehlert and S. Grimme., J. Chem. Theory Comput., 2019,
     15, 1652-1671. DOI: 10.1021/acs.jctc.8b01176
   for GFN1-xTB:
   * S. Grimme, C. Bannwarth, P. Shushkov, J. Chem. Theory Comput., 2017,
     13, 1989-2009. DOI: 10.1021/acs.jctc.7b00118
   for GFN0-xTB:
   * P. Pracht, E. Caldeweyher, S. Ehlert, S. Grimme, ChemRxiv, 2019, preprint.
     DOI: 10.26434/chemrxiv.8326202.v1
   for GFN-FF:
   * S. Spicher and S. Grimme, Angew. Chem. Int. Ed., 2020, 59, 15665-15673.
     DOI: 10.1002/anie.202004239
   
   for ALPB and GBSA implicit solvation:
   * S. Ehlert, M. Stahn, S. Spicher, S. Grimme, J. Chem. Theory Comput.,
     2021, 17, 4250-4261. DOI: 10.1021/acs.jctc.1c00471
   
   for ddCOSMO and CPCM-X implicit solvation:
   * M. Stahn, S. Ehlert, S. Grimme, J. Phys. Chem. A,
     2023, XX, XXXX-XXXX. DOI: 10.1021/acs.jpca.3c04382
   
   for DFT-D4:
   * E. Caldeweyher, C. Bannwarth and S. Grimme, J. Chem. Phys., 2017,
     147, 034112. DOI: 10.1063/1.4993215
   * E. Caldeweyher, S. Ehlert, A. Hansen, H. Neugebauer, S. Spicher,
     C. Bannwarth and S. Grimme, J. Chem. Phys., 2019, 150, 154122.
     DOI: 10.1063/1.5090222
   * E. Caldeweyher, J.-M. Mewes, S. Ehlert and S. Grimme, Phys. Chem. Chem. Phys.
     2020, 22, 8499-8512. DOI: 10.1039/D0CP00502A
   
   for sTDA-xTB:
   * S. Grimme and C. Bannwarth, J. Chem. Phys., 2016, 145, 054103.
     DOI: 10.1063/1.4959605
   
   in the mass-spec context:
   * V. Asgeirsson, C. Bauer and S. Grimme, Chem. Sci., 2017, 8, 4879.
     DOI: 10.1039/c7sc00601b
   * J. Koopman and S. Grimme, ACS Omega 2019, 4, 12, 15120-15133.
     DOI: 10.1021/acsomega.9b02011
   
   for metadynamics refer to:
   * S. Grimme, J. Chem. Theory Comput., 2019, 155, 2847-2862
     DOI: 10.1021/acs.jctc.9b00143
   
   for SPH calculations refer to:
   * S. Spicher and S. Grimme, J. Chem. Theory Comput., 2021, 17, 1701-1714
     DOI: 10.1021/acs.jctc.0c01306
   
   for ONIOM refer to:
   * C. Plett, A. Katbashev, S. Ehlert, S. Grimme, M. Bursch,
     Phys. Chem. Chem. Phys., 2023, 25, 17860-17868. DOI: 10.1039/D3CP02178E
   
   for DIPRO refer to:
   * J. Kohn, N. Gildemeister, S. Grimme, D. Fazzi, A. Hansen,
     J. Chem. Phys., 2023, just accepted.
   
   for PTB refer to:
   * S. Grimme, M. Mueller, A. Hansen, J. Chem. Phys., 2023, 158, 124111.
     DOI: 10.1063/5.0137838
   
   with help from (in alphabetical order)
   P. Atkinson, C. Bannwarth, F. Bohle, G. Brandenburg, E. Caldeweyher
   M. Checinski, S. Dohm, S. Ehlert, S. Ehrlich, I. Gerasimov, C. Hölzer
   A. Katbashev, J. Kohn, J. Koopman, C. Lavigne, S. Lehtola, F. März, M. Müller,
   F. Musil, H. Neugebauer, J. Pisarek, C. Plett, P. Pracht, F. Pultar,
   J. Seibert, P. Shushkov, S. Spicher, M. Stahn, M. Steiner, T. Strunk,
   J. Stückrath, T. Rose, and J. Unsleber
   
 * started run on 2026/08/11 at 11:11:56.158     
   ID    Z sym.   atoms
    1    6 C      1, 5, 8, 11
    2    1 H      2-4, 6, 7, 9, 10, 12-14

           -------------------------------------------------
          |                Calculation Setup                |
           -------------------------------------------------

          program call               : xtb input.xyz --gfn2 --opt tight --chrg 0 --uhf 0 --iterations 250
          coordinate file            : input.xyz
          omp threads                :                     4


           -------------------------------------------------
          |                 G F N 2 - x T B                 |
           -------------------------------------------------

        Reference                      10.1021/acs.jctc.8b01176
      * Hamiltonian:
        H0-scaling (s, p, d)           1.850000    2.230000    2.230000
        zeta-weighting                 0.500000
      * Dispersion:
        s8                             2.700000
        a1                             0.520000
        a2                             5.000000
        s9                             5.000000
      * Repulsion:
        kExp                           1.500000    1.000000
        rExp                           1.000000
      * Coulomb:
        alpha                          2.000000
        third order                    shell-resolved
        anisotropic                    true
        a3                             3.000000
        a5                             4.000000
        cn-shift                       1.200000
        cn-exp                         4.000000
        max-rad                        5.000000


          ...................................................
          :                      SETUP                      :
          :.................................................:
          :  # basis functions                  26          :
          :  # atomic orbitals                  26          :
          :  # shells                           18          :
          :  # electrons                        26          :
          :  max. iterations                   250          :
          :  Hamiltonian                  GFN2-xTB          :
          :  restarted?                      false          :
          :  GBSA solvation                  false          :
          :  PC potential                    false          :
          :  electronic temp.          300.0000000     K    :
          :  accuracy                    1.0000000          :
          :  -> integral cutoff          0.2500000E+02      :
          :  -> integral neglect         0.1000000E-07      :
          :  -> SCF convergence          0.1000000E-05 Eh   :
          :  -> wf. convergence          0.1000000E-03 e    :
          :  Broyden damping             0.4000000          :
          :  net charge                          0          :
          :  unpaired electrons                  0          :
          ...................................................

 iter      E             dE          RMSdq      gap      omega  full diag
   1    -13.8281492 -0.138281E+02  0.252E+00   13.72       0.0  T
   2    -13.8674530 -0.393039E-01  0.128E+00   13.33       1.0  T
   3    -13.8678911 -0.438111E-03  0.689E-01   13.31       1.0  T
   4    -13.8680049 -0.113715E-03  0.915E-02   13.33       1.0  T
   5    -13.8680113 -0.646521E-05  0.506E-02   13.33       1.0  T
   6    -13.8680117 -0.332949E-06  0.182E-03   13.33      14.7  T
   7    -13.8680117 -0.432122E-08  0.747E-04   13.33      35.8  T
   8    -13.8680117 -0.544846E-09  0.128E-04   13.33     208.2  T

   *** convergence criteria satisfied after 8 iterations ***

         #    Occupation            Energy/Eh            Energy/eV
      -------------------------------------------------------------
         1        2.0000           -0.6167664             -16.7831
       ...           ...                  ...                  ...
         7        2.0000           -0.4886123             -13.2958
         8        2.0000           -0.4793254             -13.0431
         9        2.0000           -0.4535287             -12.3411
        10        2.0000           -0.4401191             -11.9762
        11        2.0000           -0.4383447             -11.9280
        12        2.0000           -0.4265426             -11.6068
        13        2.0000           -0.4158935             -11.3170 (HOMO)
        14                          0.0738864               2.0106 (LUMO)
        15                          0.1183054               3.2193
        16                          0.1223774               3.3301
        17                          0.1515609               4.1242
        18                          0.1629364               4.4337
       ...                                ...                  ...
        26                          0.3150772               8.5737
      -------------------------------------------------------------
                  HL-Gap            0.4897799 Eh           13.3276 eV
             Fermi-level           -0.1710036 Eh           -4.6532 eV

 SCC (total)                   0 d,  0 h,  0 min,  0.093 sec
 SCC setup                      ...        0 min,  0.003 sec (  3.010%)
 Dispersion                     ...        0 min,  0.006 sec (  6.434%)
 classical contributions        ...        0 min,  0.003 sec (  3.108%)
 integral evaluation            ...        0 min,  0.009 sec (  9.749%)
 iterations                     ...        0 min,  0.070 sec ( 75.082%)
 molecular gradient             ...        0 min,  0.002 sec (  2.297%)
 printout                       ...        0 min,  0.000 sec (  0.292%)

         :::::::::::::::::::::::::::::::::::::::::::::::::::::
         ::                     SUMMARY                     ::
         :::::::::::::::::::::::::::::::::::::::::::::::::::::
         :: total energy             -13.661978132011 Eh    ::
         :: gradient norm              0.013179118101 Eh/a0 ::
         :: HOMO-LUMO gap             13.327589496241 eV    ::
         ::.................................................::
         :: SCC energy               -13.868007811751 Eh    ::
         :: -> isotropic ES            0.002922036384 Eh    ::
         :: -> anisotropic ES          0.005110102179 Eh    ::
         :: -> anisotropic XC          0.009065968404 Eh    ::
         :: -> dispersion             -0.006016198705 Eh    ::
         :: repulsion energy           0.206029679740 Eh    ::
         :: add. restraining           0.000000000000 Eh    ::
         :: total charge               0.000000000000 e     ::
         :::::::::::::::::::::::::::::::::::::::::::::::::::::

      ----------------------------------------------------------- 
     |                   =====================                   |
     |                        A N C O P T                        |
     |                   =====================                   |
     |               Approximate Normal Coordinate               |
     |                Rational Function Optimizer                |
      ----------------------------------------------------------- 
      ----------------------------------------------------------- 
     |                   =====================                   |
     |                        A N C O P T                        |
     |                   =====================                   |
     |               Approximate Normal Coordinate               |
     |                Rational Function Optimizer                |
      ----------------------------------------------------------- 

          ...................................................
          :                      SETUP                      :
          :.................................................:
          :   optimization level             tight          :
          :   max. optcycles                   200          :
          :   ANC micro-cycles                  20          :
          :   degrees of freedom                36          :
          :.................................................:
          :   RF solver                   davidson          :
          :   write xtbopt.log                true          :
          :   linear?                        false          :
          :   energy convergence         0.1000000E-05 Eh   :
          :   grad. convergence          0.8000000E-03 Eh/α :
          :   maxmium RF displ.          1.0000000          :
          :   Hlow (freq-cutoff)         0.1000000E-01      :
          :   Hmax (freq-cutoff)         5.0000000          :
          :   S6 in model hess.         20.0000000          :
          ...................................................

generating ANC from exact Hessian ...
Using Lindh-Hessian (1995)
 Shifting diagonal of input Hessian by    5.9023706360500292E-003
 Lowest  eigenvalues of input Hessian
    0.000000    0.000000    0.000000    0.000000    0.000000    0.000000
    0.010000    0.013118    0.013575    0.017955    0.022061    0.044673
    0.046857    0.056939    0.059120    0.059948    0.061335    0.069984
 Highest eigenvalues
    1.108550    1.128761    1.173832    1.192384    1.212062    1.289314


........................................................................
.............................. CYCLE    1 ..............................
........................................................................

 iter      E             dE          RMSdq      gap      omega  full diag
   1    -13.8680117 -0.138680E+02  0.620E-05   13.33       0.0  T
   2    -13.8680117 -0.235900E-11  0.348E-05   13.33     767.3  T
   3    -13.8680117 -0.255795E-12  0.759E-06   13.33    3521.0  T
     SCC iter.                  ...        0 min,  0.002 sec
     gradient                   ...        0 min,  0.002 sec
 * total energy  :   -13.6619781 Eh     change       -0.3038458E-10 Eh
   gradient norm :     0.0131789 Eh/α   predicted     0.0000000E+00 (-100.00%)
   displ. norm   :     0.1729493 α      lambda       -0.9694567E-03
   maximum displ.:     0.1096306 α      in ANC's #5, #4, #3, ...

........................................................................
.............................. CYCLE    2 ..............................
........................................................................

 iter      E             dE          RMSdq      gap      omega  full diag
   1    -13.8714549 -0.138715E+02  0.116E-01   13.64       0.0  T
   2    -13.8714562 -0.129037E-05  0.676E-02   13.64       1.0  T
   3    -13.8714563 -0.148681E-06  0.345E-03   13.64       7.7  T
   4    -13.8714564 -0.261642E-07  0.125E-03   13.64      21.3  T
   5    -13.8714564 -0.714339E-09  0.571E-04   13.64      46.8  T
   6    -13.8714564 -0.152271E-09  0.755E-05   13.64     354.1  T
     SCC iter.                  ...        0 min,  0.003 sec
     gradient                   ...        0 min,  0.002 sec
 * total energy  :   -13.6626133 Eh     change       -0.6351654E-03 Eh
   gradient norm :     0.0051187 Eh/α   predicted    -0.4992276E-03 ( -21.40%)
   displ. norm   :     0.2241758 α      lambda       -0.5349616E-03
   maximum displ.:     0.1502924 α      in ANC's #3, #4, #5, ...

........................................................................
.............................. CYCLE    3 ..............................
........................................................................

 iter      E             dE          RMSdq      gap      omega  full diag
   1    -13.8734768 -0.138735E+02  0.822E-02   13.72       0.0  T
   2    -13.8734776 -0.804321E-06  0.485E-02   13.72       1.0  T
   3    -13.8734777 -0.934222E-07  0.333E-03   13.72       8.0  T
   4    -13.8734778 -0.246069E-07  0.121E-03   13.72      22.1  T
   5    -13.8734778 -0.613340E-09  0.447E-04   13.72      59.7  T
   6    -13.8734778 -0.886029E-10  0.727E-05   13.72     367.8  T
     SCC iter.                  ...        0 min,  0.003 sec
     gradient                   ...        0 min,  0.002 sec
 * total energy  :   -13.6630539 Eh     change       -0.4406431E-03 Eh
   gradient norm :     0.0044271 Eh/α   predicted    -0.2809247E-03 ( -36.25%)
   displ. norm   :     0.5295380 α      lambda       -0.1008884E-02
   maximum displ.:     0.3674211 α      in ANC's #4, #3, #6, ...

........................................................................
.............................. CYCLE    4 ..............................
........................................................................

 iter      E             dE          RMSdq      gap      omega  full diag
   1    -13.8707129 -0.138707E+02  0.172E-01   13.77       0.0  T
   2    -13.8707246 -0.117127E-04  0.101E-01   13.76       1.0  T
   3    -13.8707252 -0.598552E-06  0.168E-02   13.76       1.6  T
   4    -13.8707256 -0.369652E-06  0.392E-03   13.76       6.8  T
   5    -13.8707256 -0.258101E-08  0.146E-03   13.76      18.3  T
   6    -13.8707256 -0.179819E-08  0.175E-04   13.76     152.6  T
   7    -13.8707256 -0.328519E-10  0.815E-05   13.76     327.9  T
     SCC iter.                  ...        0 min,  0.003 sec
     gradient                   ...        0 min,  0.002 sec
 * total energy  :   -13.6634964 Eh     change       -0.4424716E-03 Eh
   gradient norm :     0.0187948 Eh/α   predicted    -0.6458884E-03 (  45.97%)
   displ. norm   :     0.0696759 α      lambda       -0.6968912E-03
   maximum displ.:     0.0392476 α      in ANC's #3, #5, #14, ...

........................................................................
.............................. CYCLE    5 ..............................
........................................................................

 iter      E             dE          RMSdq      gap      omega  full diag
   1    -13.8745458 -0.138745E+02  0.694E-02   13.74       0.0  T
   2    -13.8745504 -0.459614E-05  0.385E-02   13.74       1.0  T
   3    -13.8745507 -0.289251E-06  0.110E-02   13.74       2.4  T
   4    -13.8745508 -0.885234E-07  0.254E-03   13.74      10.5  T
   5    -13.8745508 -0.143283E-08  0.114E-03   13.74      23.4  T
   6    -13.8745508 -0.800870E-09  0.121E-04   13.74     220.1  T
   7    -13.8745508 -0.280860E-10  0.514E-05   13.74     519.6  T
     SCC iter.                  ...        0 min,  0.003 sec
     gradient                   ...        0 min,  0.002 sec
 * total energy  :   -13.6639613 Eh     change       -0.4649027E-03 Eh
   gradient norm :     0.0084878 Eh/α   predicted    -0.3501389E-03 ( -24.69%)
   displ. norm   :     0.3043271 α      lambda       -0.7396484E-03
   maximum displ.:     0.2191108 α      in ANC's #4, #3, #5, ...

........................................................................
.............................. CYCLE    6 ..............................
........................................................................

 iter      E             dE          RMSdq      gap      omega  full diag
   1    -13.8749052 -0.138749E+02  0.100E-01   13.72       0.0  T
   2    -13.8749057 -0.499619E-06  0.597E-02   13.72       1.0  T
   3    -13.8749058 -0.108952E-06  0.293E-03   13.72       9.1  T
   4    -13.8749058 -0.296705E-07  0.141E-03   13.72      18.9  T
   5    -13.8749058 -0.133440E-08  0.408E-04   13.72      65.5  T
   6    -13.8749058 -0.719833E-10  0.867E-05   13.72     308.3  T
     SCC iter.                  ...        0 min,  0.005 sec
     gradient                   ...        0 min,  0.002 sec
 * total energy  :   -13.6645157 Eh     change       -0.5543820E-03 Eh
   gradient norm :     0.0055546 Eh/α   predicted    -0.4040728E-03 ( -27.11%)
   displ. norm   :     0.3424265 α      lambda       -0.4833285E-03
   maximum displ.:     0.2368877 α      in ANC's #4, #3, #25, ...

........................................................................
.............................. CYCLE    7 ..............................
........................................................................

 iter      E             dE          RMSdq      gap      omega  full diag
   1    -13.8719081 -0.138719E+02  0.102E-01   13.72       0.0  T
   2    -13.8719112 -0.303586E-05  0.606E-02   13.72       1.0  T
   3    -13.8719113 -0.151631E-06  0.670E-03   13.72       4.0  T
   4    -13.8719114 -0.286441E-07  0.160E-03   13.72      16.7  T
   5    -13.8719114 -0.817806E-09  0.733E-04   13.72      36.5  T
   6    -13.8719114 -0.240171E-09  0.972E-05   13.72     274.9  T
     SCC iter.                  ...        0 min,  0.003 sec
     gradient                   ...        0 min,  0.002 sec
 * total energy  :   -13.6647539 Eh     change       -0.2381720E-03 Eh
   gradient norm :     0.0106940 Eh/α   predicted    -0.2700023E-03 (  13.36%)
   displ. norm   :     0.0464703 α      lambda       -0.2657600E-03
   maximum displ.:     0.0187749 α      in ANC's #25, #24, #6, ...

........................................................................
.............................. CYCLE    8 ..............................
........................................................................

 iter      E             dE          RMSdq      gap      omega  full diag
   1    -13.8746745 -0.138747E+02  0.477E-02   13.78       0.0  T
   2    -13.8746775 -0.297480E-05  0.258E-02   13.78       1.0  T
   3    -13.8746777 -0.147440E-06  0.869E-03   13.78       3.1  T
   4    -13.8746777 -0.378438E-07  0.177E-03   13.78      15.1  T
   5    -13.8746777 -0.482901E-09  0.729E-04   13.78      36.6  T
   6    -13.8746777 -0.275826E-09  0.854E-05   13.78     313.1  T
     SCC iter.                  ...        0 min,  0.003 sec
     gradient                   ...        0 min,  0.002 sec
 * total energy  :   -13.6648850 Eh     change       -0.1311751E-03 Eh
   gradient norm :     0.0042313 Eh/α   predicted    -0.1331679E-03 (   1.52%)
   displ. norm   :     0.1124202 α      lambda       -0.9663167E-04
   maximum displ.:     0.0822988 α      in ANC's #3, #4, #24, ...

........................................................................
.............................. CYCLE    9 ..............................
........................................................................

 iter      E             dE          RMSdq      gap      omega  full diag
   1    -13.8747332 -0.138747E+02  0.366E-02   13.79       0.0  T
   2    -13.8747333 -0.789937E-07  0.218E-02   13.79       1.2  T
   3    -13.8747333 -0.159442E-07  0.103E-03   13.79      25.9  T
   4    -13.8747333 -0.187892E-08  0.490E-04   13.79      54.6  T
   5    -13.8747333 -0.869598E-10  0.110E-04   13.79     242.6  T
     SCC iter.                  ...        0 min,  0.002 sec
     gradient                   ...        0 min,  0.002 sec
 * total energy  :   -13.6649596 Eh     change       -0.7452370E-04 Eh
   gradient norm :     0.0039554 Eh/α   predicted    -0.4892690E-04 ( -34.35%)
   displ. norm   :     0.1665136 α      lambda       -0.1128162E-03
   maximum displ.:     0.1312804 α      in ANC's #3, #4, #24, ...

........................................................................
.............................. CYCLE   10 ..............................
........................................................................

 iter      E             dE          RMSdq      gap      omega  full diag
   1    -13.8751437 -0.138751E+02  0.499E-02   13.80       0.0  T
   2    -13.8751439 -0.192832E-06  0.298E-02   13.80       1.0  T
   3    -13.8751439 -0.305699E-07  0.160E-03   13.80      16.7  T
   4    -13.8751439 -0.693634E-08  0.689E-04   13.80      38.8  T
   5    -13.8751439 -0.143498E-09  0.190E-04   13.80     140.7  T
     SCC iter.                  ...        0 min,  0.002 sec
     gradient                   ...        0 min,  0.002 sec
 * total energy  :   -13.6650242 Eh     change       -0.6464013E-04 Eh
   gradient norm :     0.0030738 Eh/α   predicted    -0.5797423E-04 ( -10.31%)
   displ. norm   :     0.0613928 α      lambda       -0.4562813E-04
   maximum displ.:     0.0409199 α      in ANC's #1, #3, #4, ...

........................................................................
.............................. CYCLE   11 ..............................
........................................................................

 iter      E             dE          RMSdq      gap      omega  full diag
   1    -13.8763747 -0.138764E+02  0.222E-02   13.81       0.0  T
   2    -13.8763751 -0.327054E-06  0.128E-02   13.82       2.1  T
   3    -13.8763751 -0.108379E-07  0.255E-03   13.81      10.5  T
   4    -13.8763751 -0.198025E-08  0.439E-04   13.81      60.8  T
   5    -13.8763751 -0.838405E-10  0.216E-04   13.81     123.8  T
     SCC iter.                  ...        0 min,  0.002 sec
     gradient                   ...        0 min,  0.002 sec
 * total energy  :   -13.6650530 Eh     change       -0.2876779E-04 Eh
   gradient norm :     0.0017359 Eh/α   predicted    -0.2290059E-04 ( -20.40%)
   displ. norm   :     0.1471883 α      lambda       -0.3411176E-04
   maximum displ.:     0.1054349 α      in ANC's #3, #1, #24, ...

........................................................................
.............................. CYCLE   12 ..............................
........................................................................

 iter      E             dE          RMSdq      gap      omega  full diag
   1    -13.8762049 -0.138762E+02  0.439E-02   13.81       0.0  T
   2    -13.8762049 -0.572968E-07  0.263E-02   13.81       1.0  T
   3    -13.8762049 -0.164271E-07  0.904E-04   13.81      29.6  T
   4    -13.8762049 -0.140908E-08  0.474E-04   13.81      56.4  T
     SCC iter.                  ...        0 min,  0.002 sec
     gradient                   ...        0 min,  0.002 sec
 * total energy  :   -13.6650851 Eh     change       -0.3215133E-04 Eh
   gradient norm :     0.0025674 Eh/α   predicted    -0.1721891E-04 ( -46.44%)
   displ. norm   :     0.0569478 α      lambda       -0.2053342E-04
   maximum displ.:     0.0444409 α      in ANC's #1, #3, #4, ...

........................................................................
.............................. CYCLE   13 ..............................
........................................................................

 iter      E             dE          RMSdq      gap      omega  full diag
   1    -13.8761973 -0.138762E+02  0.181E-02   13.80       0.0  T
   2    -13.8761974 -0.296588E-07  0.107E-02   13.80       2.5  T
   3    -13.8761974 -0.324558E-08  0.768E-04   13.80      34.8  T
   4    -13.8761974 -0.253849E-08  0.301E-04   13.80      88.7  T
     SCC iter.                  ...        0 min,  0.002 sec
     gradient                   ...        0 min,  0.002 sec
 * total energy  :   -13.6651015 Eh     change       -0.1634348E-04 Eh
   gradient norm :     0.0019806 Eh/α   predicted    -0.1029907E-04 ( -36.98%)
   displ. norm   :     0.1259472 α      lambda       -0.2178514E-04
   maximum displ.:     0.1008705 α      in ANC's #1, #3, #4, ...

........................................................................
.............................. CYCLE   14 ..............................
........................................................................

 iter      E             dE          RMSdq      gap      omega  full diag
   1    -13.8755779 -0.138756E+02  0.381E-02   13.79       0.0  T
   2    -13.8755781 -0.146604E-06  0.227E-02   13.79       1.2  T
   3    -13.8755781 -0.122971E-07  0.107E-03   13.79      25.0  T
   4    -13.8755781 -0.187767E-08  0.438E-04   13.79      61.0  T
   5    -13.8755781 -0.811298E-10  0.180E-04   13.79     148.7  T
     SCC iter.                  ...        0 min,  0.003 sec
     gradient                   ...        0 min,  0.002 sec
 * total energy  :   -13.6651183 Eh     change       -0.1686349E-04 Eh
   gradient norm :     0.0011294 Eh/α   predicted    -0.1096951E-04 ( -34.95%)
   displ. norm   :     0.0470281 α      lambda       -0.6283885E-05
   maximum displ.:     0.0281999 α      in ANC's #1, #4, #3, ...

........................................................................
.............................. CYCLE   15 ..............................
........................................................................

 iter      E             dE          RMSdq      gap      omega  full diag
   1    -13.8762787 -0.138763E+02  0.156E-02   13.80       0.0  T
   2    -13.8762787 -0.661976E-07  0.918E-03   13.80       2.9  T
   3    -13.8762787 -0.451406E-08  0.979E-04   13.80      27.3  T
   4    -13.8762787 -0.492406E-09  0.285E-04   13.80      93.7  T
     SCC iter.                  ...        0 min,  0.002 sec
     gradient                   ...        0 min,  0.002 sec
 * total energy  :   -13.6651218 Eh     change       -0.3473759E-05 Eh
   gradient norm :     0.0011871 Eh/α   predicted    -0.3146451E-05 (  -9.42%)
   displ. norm   :     0.0241622 α      lambda       -0.3785530E-05
   maximum displ.:     0.0228307 α      in ANC's #1, #5, #3, ...

........................................................................
.............................. CYCLE   16 ..............................
........................................................................

 iter      E             dE          RMSdq      gap      omega  full diag
   1    -13.8762016 -0.138762E+02  0.966E-03   13.81       0.0  T
   2    -13.8762016 -0.263840E-07  0.560E-03   13.81       4.8  T
   3    -13.8762016 -0.201081E-08  0.825E-04   13.81      32.4  T
   4    -13.8762016 -0.169191E-08  0.243E-04   13.81     109.8  T
     SCC iter.                  ...        0 min,  0.002 sec
     gradient                   ...        0 min,  0.002 sec
 * total energy  :   -13.6651248 Eh     change       -0.3016559E-05 Eh
   gradient norm :     0.0004917 Eh/α   predicted    -0.1892793E-05 ( -37.25%)
   displ. norm   :     0.0114347 α      lambda       -0.1073731E-05
   maximum displ.:     0.0081965 α      in ANC's #1, #4, #6, ...

........................................................................
.............................. CYCLE   17 ..............................
........................................................................

 iter      E             dE          RMSdq      gap      omega  full diag
   1    -13.8760061 -0.138760E+02  0.472E-03   13.80       0.0  T
   2    -13.8760061 -0.502279E-08  0.277E-03   13.80       9.7  T
   3    -13.8760061 -0.399929E-09  0.252E-04   13.80     106.1  T
   4    -13.8760061 -0.383285E-10  0.834E-05   13.80     320.5  T
     SCC iter.                  ...        0 min,  0.002 sec
     gradient                   ...        0 min,  0.002 sec
 * total energy  :   -13.6651259 Eh     change       -0.1072854E-05 Eh
   gradient norm :     0.0003877 Eh/α   predicted    -0.5392949E-06 ( -49.73%)
   displ. norm   :     0.0222131 α      lambda       -0.1341877E-05
   maximum displ.:     0.0141417 α      in ANC's #1, #3, #4, ...

........................................................................
.............................. CYCLE   18 ..............................
........................................................................

 iter      E             dE          RMSdq      gap      omega  full diag
   1    -13.8758471 -0.138758E+02  0.716E-03   13.80       0.0  T
   2    -13.8758471 -0.405397E-08  0.425E-03   13.80       6.3  T
   3    -13.8758471 -0.496236E-09  0.225E-04   13.80     118.8  T
   4    -13.8758471 -0.134023E-09  0.980E-05   13.80     272.8  T
     SCC iter.                  ...        0 min,  0.002 sec
     gradient                   ...        0 min,  0.002 sec
 * total energy  :   -13.6651270 Eh     change       -0.1108562E-05 Eh
   gradient norm :     0.0005012 Eh/α   predicted    -0.6702174E-06 ( -39.54%)
   displ. norm   :     0.0180128 α      lambda       -0.7176598E-06
   maximum displ.:     0.0134666 α      in ANC's #1, #3, #4, ...

........................................................................
.............................. CYCLE   19 ..............................
........................................................................

 iter      E             dE          RMSdq      gap      omega  full diag
   1    -13.8759719 -0.138760E+02  0.563E-03   13.80       0.0  T
   2    -13.8759719 -0.330357E-08  0.332E-03   13.80       8.0  T
   3    -13.8759719 -0.412729E-09  0.193E-04   13.80     138.6  T
   4    -13.8759719 -0.421725E-10  0.831E-05   13.80     321.8  T
     SCC iter.                  ...        0 min,  0.002 sec
     gradient                   ...        0 min,  0.002 sec
 * total energy  :   -13.6651274 Eh     change       -0.4340373E-06 Eh
   gradient norm :     0.0002887 Eh/α   predicted    -0.3582944E-06 ( -17.45%)
   displ. norm   :     0.0075191 α      lambda       -0.2654949E-06
   maximum displ.:     0.0061127 α      in ANC's #1, #3, #2, ...

   *** GEOMETRY OPTIMIZATION CONVERGED AFTER 19 ITERATIONS ***

------------------------------------------------------------------------
 total energy gain   :        -0.0031493 Eh       -1.9762 kcal/mol
 total RMSD          :         0.4976322 a0        0.2633 Å
 total power (kW/mol):        -0.4351845 (step)  -68.7817 (real)
------------------------------------------------------------------------

 ANCopt (total)                0 d,  0 h,  0 min,  0.120 sec
 optimizer setup                ...        0 min,  0.000 sec (  0.147%)
 model hessian                  ...        0 min,  0.005 sec (  3.968%)
 ANC generation                 ...        0 min,  0.001 sec (  0.445%)
 coordinate transformation      ...        0 min,  0.000 sec (  0.137%)
 single point calculation       ...        0 min,  0.105 sec ( 87.485%)
 optimization log               ...        0 min,  0.003 sec (  2.503%)
 hessian update                 ...        0 min,  0.001 sec (  0.969%)
 rational function              ...        0 min,  0.003 sec (  2.736%)

================
 final structure:
================
14
 xtb: 6.7.1 (edcfbbe)
C           -2.47858525037323        0.36940672825222       -0.00890933232740
H           -3.55996720774314        0.26889641915042        0.05357355738990
H           -2.04444491586457       -0.62632986384655       -0.06694022194253
H           -2.23856361080929        0.90305879269681       -0.92627707331250
C           -1.94153026191379        1.12104027325563        1.20279874780846
H           -0.85349307849460        1.19208479253691        1.13311672002005
H           -2.17833987782976        0.56144697648227        2.11097140083691
C           -2.53099613674966        2.52538477957309        1.31028264763391
H           -2.29196080856792        3.08576073026385        0.40324143809393
H           -3.61920906903841        2.45442474455490        1.37731820340782
C           -1.99720470336877        3.27558654776190        2.52436312579280
H           -0.91487684069635        3.37237241693674        2.46783471160014
H           -2.42823768733166        4.27270802675292        2.57980012399734
H           -2.24449529121881        2.74350615562887        3.44072803100114

 Bond Distances (Angstroems)
 ---------------------------
C1-H2=1.0878         C1-H3=1.0878         C1-H4=1.0881         C1-C5=1.5237         H2-C1=1.0878         H3-C1=1.0878         
H4-C1=1.0881         C5-C1=1.5237         C5-H6=1.0926         C5-H7=1.0927         C5-C8=1.5268         H6-C5=1.0926         
H7-C5=1.0927         C8-C5=1.5268         C8-H9=1.0926         C8-H10=1.0926        C8-C11=1.5237        H9-C8=1.0926         
H10-C8=1.0926        C11-C8=1.5237        C11-H12=1.0881       C11-H13=1.0877       C11-H14=1.0881       H12-C11=1.0881       
H13-C11=1.0877       H14-C11=1.0881       
 C  H  Rav=1.0898 sigma=0.0023  Rmin=1.0877  Rmax=1.0927    10
 C  C  Rav=1.5247 sigma=0.0015  Rmin=1.5237  Rmax=1.5268     3

 selected bond angles (degree)
 --------------------
H3-C1-H2=108.37                H4-C1-H2=108.24                H4-C1-H3=108.42                C5-C1-H2=110.50                
C5-C1-H3=110.69                C5-C1-H4=110.54                H6-C5-C1=109.41                H7-C5-C1=109.39                
H7-C5-H6=107.59                C8-C5-C1=111.94                C8-C5-H6=109.22                C8-C5-H7=109.20                
H9-C8-C5=109.20                H10-C8-C5=109.21               H10-C8-H9=107.59               C11-C8-C5=111.94               
C11-C8-H9=109.41               C11-C8-H10=109.39              

 selected dihedral angles (degree)
 ---------------------------------
H6-C5-C1-H2=178.74            H6-C5-C1-H3= 58.67            H6-C5-C1-H4=298.54            H7-C5-C1-H2= 61.12            
H7-C5-C1-H3=301.05            H7-C5-C1-H4=180.92            C8-C5-C1-H2=299.95            C8-C5-C1-H3=179.88            
C8-C5-C1-H4= 59.75            H9-C8-C5-C1=301.13            H9-C8-C5-H6= 62.46            H9-C8-C5-H7=179.85            
H10-C8-C5-C1= 58.53           H10-C8-C5-H6=179.85           H10-C8-C5-H7=297.25           C11-C8-C5-C1=179.83           
C11-C8-C5-H6=301.15           C11-C8-C5-H7= 58.55           
           -------------------------------------------------
          |                Final Singlepoint                |
           -------------------------------------------------

          ...................................................
          :                      SETUP                      :
          :.................................................:
          :  # basis functions                  26          :
          :  # atomic orbitals                  26          :
          :  # shells                           18          :
          :  # electrons                        26          :
          :  max. iterations                   250          :
          :  Hamiltonian                  GFN2-xTB          :
          :  restarted?                      false          :
          :  GBSA solvation                  false          :
          :  PC potential                    false          :
          :  electronic temp.          300.0000000     K    :
          :  accuracy                    1.0000000          :
          :  -> integral cutoff          0.2500000E+02      :
          :  -> integral neglect         0.1000000E-07      :
          :  -> SCF convergence          0.1000000E-05 Eh   :
          :  -> wf. convergence          0.1000000E-03 e    :
          :  Broyden damping             0.4000000          :
          :  net charge                          0          :
          :  unpaired electrons                  0          :
          ...................................................

 iter      E             dE          RMSdq      gap      omega  full diag
   1    -13.8759719 -0.138760E+02  0.233E-05   13.80       0.0  T
   2    -13.8759719 -0.328626E-12  0.132E-05   13.80    2017.7  T
   3    -13.8759719  0.230926E-13  0.316E-06   13.80    8449.6  T

   *** convergence criteria satisfied after 3 iterations ***

         #    Occupation            Energy/Eh            Energy/eV
      -------------------------------------------------------------
         1        2.0000           -0.6179629             -16.8156
       ...           ...                  ...                  ...
         7        2.0000           -0.4878874             -13.2761
         8        2.0000           -0.4789723             -13.0335
         9        2.0000           -0.4546571             -12.3718
        10        2.0000           -0.4395032             -11.9595
        11        2.0000           -0.4367420             -11.8844
        12        2.0000           -0.4258208             -11.5872
        13        2.0000           -0.4195518             -11.4166 (HOMO)
        14                          0.0875529               2.3824 (LUMO)
        15                          0.1267132               3.4480
        16                          0.1277264               3.4756
        17                          0.1525444               4.1509
        18                          0.1628679               4.4319
       ...                                ...                  ...
        26                          0.3113157               8.4713
      -------------------------------------------------------------
                  HL-Gap            0.5071047 Eh           13.7990 eV
             Fermi-level           -0.1659995 Eh           -4.5171 eV

 SCC (total)                   0 d,  0 h,  0 min,  0.014 sec
 SCC setup                      ...        0 min,  0.000 sec (  1.023%)
 Dispersion                     ...        0 min,  0.000 sec (  0.757%)
 classical contributions        ...        0 min,  0.000 sec (  0.326%)
 integral evaluation            ...        0 min,  0.001 sec (  4.685%)
 iterations                     ...        0 min,  0.001 sec ( 10.924%)
 molecular gradient             ...        0 min,  0.011 sec ( 78.955%)
 printout                       ...        0 min,  0.000 sec (  2.525%)

         :::::::::::::::::::::::::::::::::::::::::::::::::::::
         ::                     SUMMARY                     ::
         :::::::::::::::::::::::::::::::::::::::::::::::::::::
         :: total energy             -13.665127439547 Eh    ::
         :: gradient norm              0.000288672328 Eh/a0 ::
         :: HOMO-LUMO gap             13.799021597155 eV    ::
         ::.................................................::
         :: SCC energy               -13.875968064257 Eh    ::
         :: -> isotropic ES            0.002997272969 Eh    ::
         :: -> anisotropic ES          0.004911370784 Eh    ::
         :: -> anisotropic XC          0.009060699170 Eh    ::
         :: -> dispersion             -0.006048917227 Eh    ::
         :: repulsion energy           0.210840624711 Eh    ::
         :: add. restraining           0.000000000000 Eh    ::
         :: total charge               0.000000000000 e     ::
         :::::::::::::::::::::::::::::::::::::::::::::::::::::

           -------------------------------------------------
          |                Property Printout                |
           -------------------------------------------------

    * Orbital Energies and Occupations

         #    Occupation            Energy/Eh            Energy/eV
      -------------------------------------------------------------
         1        2.0000           -0.6179629             -16.8156
         2        2.0000           -0.5989673             -16.2987
         3        2.0000           -0.5679164             -15.4538
         4        2.0000           -0.5524003             -15.0316
         5        2.0000           -0.5138300             -13.9820
         6        2.0000           -0.4918495             -13.3839
         7        2.0000           -0.4878874             -13.2761
         8        2.0000           -0.4789723             -13.0335
         9        2.0000           -0.4546571             -12.3718
        10        2.0000           -0.4395032             -11.9595
        11        2.0000           -0.4367420             -11.8844
        12        2.0000           -0.4258208             -11.5872
        13        2.0000           -0.4195518             -11.4166 (HOMO)
        14                          0.0875529               2.3824 (LUMO)
        15                          0.1267132               3.4480
        16                          0.1277264               3.4756
        17                          0.1525444               4.1509
        18                          0.1628679               4.4319
        19                          0.1836589               4.9976
        20                          0.1936650               5.2699
        21                          0.1970686               5.3625
        22                          0.2244685               6.1081
        23                          0.2548287               6.9342
        24                          0.2644787               7.1968
       ...                                ...                  ...
        26                          0.3113157               8.4713
      -------------------------------------------------------------
                  HL-Gap            0.5071047 Eh           13.7990 eV
             Fermi-level           -0.1659995 Eh           -4.5171 eV

     #   Z          covCN         q      C6AA      α(0)
     1   6 C        3.752    -0.102    22.510     6.766
     2   1 H        0.925     0.033     2.550     2.497
     3   1 H        0.925     0.032     2.554     2.499
     4   1 H        0.925     0.033     2.550     2.497
     5   6 C        3.801    -0.053    21.534     6.607
     6   1 H        0.924     0.029     2.600     2.522
     7   1 H        0.924     0.029     2.600     2.522
     8   6 C        3.801    -0.053    21.534     6.607
     9   1 H        0.924     0.029     2.601     2.522
    10   1 H        0.924     0.029     2.600     2.522
    11   6 C        3.752    -0.102    22.510     6.766
    12   1 H        0.925     0.033     2.550     2.497
    13   1 H        0.925     0.032     2.554     2.499
    14   1 H        0.925     0.033     2.550     2.497

 Mol. C6AA /au·bohr⁶  :       1207.511856
 Mol. C8AA /au·bohr⁸  :      24480.662839
 Mol. α(0) /au        :         51.819755


Wiberg/Mayer (AO) data.
largest (>0.10) Wiberg bond orders for each atom

 ---------------------------------------------------------------------------
     #   Z sym  total        # sym  WBO       # sym  WBO       # sym  WBO
 ---------------------------------------------------------------------------
     1   6 C    3.997 --     5 C    1.019     2 H    0.988     4 H    0.988
                             3 H    0.988
     2   1 H    0.999 --     1 C    0.988
     3   1 H    0.999 --     1 C    0.988
     4   1 H    0.999 --     1 C    0.988
     5   6 C    3.998 --     1 C    1.019     8 C    1.009     6 H    0.979
                             7 H    0.979
     6   1 H    0.999 --     5 C    0.979
     7   1 H    0.999 --     5 C    0.979
     8   6 C    3.998 --    11 C    1.019     5 C    1.009     9 H    0.979
                            10 H    0.979
     9   1 H    0.999 --     8 C    0.979
    10   1 H    0.999 --     8 C    0.979
    11   6 C    3.997 --     8 C    1.019    14 H    0.988    12 H    0.988
                            13 H    0.988
    12   1 H    0.999 --    11 C    0.988
    13   1 H    0.999 --    11 C    0.988
    14   1 H    0.999 --    11 C    0.988
 ---------------------------------------------------------------------------

Topologies differ in total number of bonds
Writing topology from bond orders to xtbtopo.mol

molecular dipole:
                 x           y           z       tot (Debye)
 q only:       -0.000      -0.000       0.000
   full:       -0.000       0.000       0.000       0.001
molecular quadrupole (traceless):
                xx          xy          yy          xz          yz          zz
 q only:       -0.092      -0.006       0.039       0.104       0.131       0.053
  q+dip:        0.562       0.021      -0.305      -0.517      -0.781      -0.257
   full:        0.245       0.010      -0.130      -0.231      -0.337      -0.114

           -------------------------------------------------
          |                Geometry Summary                 |
           -------------------------------------------------

      molecular mass/u    :       58.1223511
   center of mass at/Å    :       -2.2371278       1.8228441       1.2571691
Note: The following floating-point exceptions are signalling: IEEE_DENORMAL
normal termination of xtb
  moments of inertia/u·Å² :        0.2162908E+02   0.1370017E+03   0.1460955E+03
rotational constants/cm⁻¹ :        0.7793968E+00   0.1230469E+00   0.1153878E+00

 * 13 selected distances

     #   Z          #   Z                                           value/Å
     1   6 C        2   1 H                                       1.0878390
     1   6 C        3   1 H                                       1.0878129
     1   6 C        4   1 H                                       1.0880987
     1   6 C        5   6 C                                       1.5236856
     5   6 C        6   1 H                                       1.0925786
     5   6 C        7   1 H                                       1.0927036
     5   6 C        8   6 C                                       1.5268290 (max)
     8   6 C        9   1 H                                       1.0926496
     8   6 C       10   1 H                                       1.0925826
     8   6 C       11   6 C                                       1.5237217
    11   6 C       12   1 H                                       1.0881162
    11   6 C       13   1 H                                       1.0877105 (min)
    11   6 C       14   1 H                                       1.0881117

 * 2 distinct bonds (by element types)

   Z      Z             #   av. dist./Å        max./Å        min./Å
   1 H    6 C          10     1.0898203     1.0927036     1.0877105
   6 C    6 C           3     1.5247454     1.5268290     1.5236856


optimized geometry written to: xtbopt.xyz


           -------------------------------------------------
          | TOTAL ENERGY              -13.665127439547 Eh   |
          | GRADIENT NORM               0.000288672328 Eh/α |
          | HOMO-LUMO GAP              13.799021597155 eV   |
           -------------------------------------------------

------------------------------------------------------------------------
 * finished run on 2026/08/11 at 11:11:56.424     
------------------------------------------------------------------------
 total:
 * wall-time:     0 d,  0 h,  0 min,  0.266 sec
 *  cpu-time:     0 d,  0 h,  0 min,  1.012 sec
 * ratio c/w:     3.807 speedup
 SCF:
 * wall-time:     0 d,  0 h,  0 min,  0.093 sec
 *  cpu-time:     0 d,  0 h,  0 min,  0.357 sec
 * ratio c/w:     3.826 speedup
 ANC optimizer:
 * wall-time:     0 d,  0 h,  0 min,  0.135 sec
 *  cpu-time:     0 d,  0 h,  0 min,  0.510 sec
 * ratio c/w:     3.784 speedup

