14
 energy: -13.665127439547 gnorm: 0.000288672328 xtb: 6.7.1 (edcfbbe)
C           -2.47858525037323        0.36940672825222       -0.00890933232740
H           -3.55996720774314        0.26889641915042        0.05357355738990
H           -2.04444491586457       -0.62632986384655       -0.06694022194253
H           -2.23856361080929        0.90305879269681       -0.92627707331250
C           -1.94153026191379        1.12104027325563        1.20279874780846
H           -0.85349307849460        1.19208479253691        1.13311672002005
H           -2.17833987782976        0.56144697648227        2.11097140083691
C           -2.53099613674966        2.52538477957309        1.31028264763391
H           -2.29196080856792        3.08576073026385        0.40324143809393
H           -3.61920906903841        2.45442474455490        1.37731820340782
C           -1.99720470336877        3.27558654776190        2.52436312579280
H           -0.91487684069635        3.37237241693674        2.46783471160014
H           -2.42823768733166        4.27270802675292        2.57980012399734
H           -2.24449529121881        2.74350615562887        3.44072803100114
