%mem=1GB
%nprocshared=4
%chk=0_qm.chk
#p nosymm geom=nocrowd opt=(modredundant,maxcycle=100) 
  PM6

Title

0 1
C  -2.493413 0.349454 -0.010333
H  -2.137221 -0.681753 -0.023381
H  -2.146079 0.831347 -0.926886
H  -3.584715 0.323285 -0.046458
C  -2.000239 1.097073 1.226945
H  -0.906178 1.076799 1.254250
H  -2.333815 0.572622 2.127947
C  -2.475736 2.549065 1.287865
H  -2.142160 3.073517 0.386863
H  -3.569797 2.569339 1.260559
C  -1.982563 3.296684 2.525143
H  -0.891260 3.322853 2.561269
H  -2.338754 4.327891 2.538191
H  -2.329897 2.814791 3.441696

D 2 1 5 8 S 10 36.0

