%mem=1GB
%nprocshared=1
%chk=2_mm_42.chk
#p Amber=(SoftFirst,Print) geom=nocrowd nosymm

Title

0 1
C-CT--0.267532 -1.858015 0.712216 0.149120
H-HC-+0.083821 -1.616645 -0.344427 -0.008606
H-HC-+0.077363 -0.909889 1.257353 0.240948
H-HC-+0.077360 -2.357393 1.076703 -0.757190
C-CT--0.092257 -2.733546 0.901016 1.388346
H-HC-+0.060623 -1.998734 0.474708 2.099834
H-HC-+0.060622 -3.688326 0.363939 1.558141
C-CT--0.092258 -2.955796 2.389495 1.700504
H-HC-+0.060627 -3.837104 2.649654 1.072346
H-HC-+0.060618 -3.554758 2.375281 2.633311
C-CT--0.267532 -1.701829 3.248111 1.852586
H-HC-+0.077330 -1.139340 3.305109 0.912628
H-HC-+0.083821 -1.955848 4.272147 2.148433
H-HC-+0.077394 -1.024605 2.841661 2.613269

NonBon 3 1 0 0 0.000 0.000 0.500 0.000 0.000 -1.2
!SMARTFIELD FF
!Bonds
HrmStr1 CT CT 302.209 1.528
HrmStr1 CT HC 368.267 1.093
!Angles
HrmBnd1 CT CT CT 52.040 113.369
HrmBnd1 CT CT HC 40.031 110.156
HrmBnd1 HC CT HC 33.873 110.156
!Torsions
AmbTrs CT CT CT CT 0 0 0 0 0.00 0.00 2.30 0. 9.0
AmbTrs CT CT CT HC 0 0 0 0 0.00 0.00 2.16 0. 9.0
AmbTrs HC CT CT HC 0 0 0 0 0.0 0.0 0.0 0.0 9.0

