%mem=4GB
%nprocshared=1
%chk=smartfield4gau.chk
#p Amber=(SoftFirst,Print) nosymm geom=nocrowd opt
 
Title

0 1
O-OW1  0.000000  0.729012  -0.103191 
H-HW2  0.000000  0.984051  0.825531 
O-OW3  -0.000000  -0.729012  -0.103191 
H-HW4  -0.000000  -0.984051  0.825531 


! Master function
NonBon 3 1 0 0 0.000 0.000 0.500 0.000 0.000 -1.2

! SMARTFIELD FF
!Bonds
HrmStr1 OW1 HW2  582.296  0.963
HrmStr1 OW1 OW3  338.172  1.458
HrmStr1 OW3 HW4  582.296  0.963
!Angles
HrmBnd1 HW2 OW1 OW3  70.232  105.356
HrmBnd1 OW1 OW3 HW4  70.232  105.356

