      -----------------------------------------------------------      
     |                   =====================                   |     
     |                           x T B                           |     
     |                   =====================                   |     
     |                         S. Grimme                         |     
     |          Mulliken Center for Theoretical Chemistry        |     
     |                    University of Bonn                     |     
      -----------------------------------------------------------      

   * xtb version 6.7.1 (edcfbbe) compiled by 'conda@5dfe00f5fb80' on 2026-06-10

   xtb is free software: you can redistribute it and/or modify it under
   the terms of the GNU Lesser General Public License as published by
   the Free Software Foundation, either version 3 of the License, or
   (at your option) any later version.
   
   xtb is distributed in the hope that it will be useful,
   but WITHOUT ANY WARRANTY; without even the implied warranty of
   MERCHANTABILITY or FITNESS FOR A PARTICULAR PURPOSE.  See the
   GNU Lesser General Public License for more details.
   
   Cite this work as:
   * C. Bannwarth, E. Caldeweyher, S. Ehlert, A. Hansen, P. Pracht,
     J. Seibert, S. Spicher, S. Grimme, WIREs Comput. Mol. Sci., 2020, 11,
     e01493. DOI: 10.1002/wcms.1493
   
   for GFN2-xTB:
   * C. Bannwarth, S. Ehlert and S. Grimme., J. Chem. Theory Comput., 2019,
     15, 1652-1671. DOI: 10.1021/acs.jctc.8b01176
   for GFN1-xTB:
   * S. Grimme, C. Bannwarth, P. Shushkov, J. Chem. Theory Comput., 2017,
     13, 1989-2009. DOI: 10.1021/acs.jctc.7b00118
   for GFN0-xTB:
   * P. Pracht, E. Caldeweyher, S. Ehlert, S. Grimme, ChemRxiv, 2019, preprint.
     DOI: 10.26434/chemrxiv.8326202.v1
   for GFN-FF:
   * S. Spicher and S. Grimme, Angew. Chem. Int. Ed., 2020, 59, 15665-15673.
     DOI: 10.1002/anie.202004239
   
   for ALPB and GBSA implicit solvation:
   * S. Ehlert, M. Stahn, S. Spicher, S. Grimme, J. Chem. Theory Comput.,
     2021, 17, 4250-4261. DOI: 10.1021/acs.jctc.1c00471
   
   for ddCOSMO and CPCM-X implicit solvation:
   * M. Stahn, S. Ehlert, S. Grimme, J. Phys. Chem. A,
     2023, XX, XXXX-XXXX. DOI: 10.1021/acs.jpca.3c04382
   
   for DFT-D4:
   * E. Caldeweyher, C. Bannwarth and S. Grimme, J. Chem. Phys., 2017,
     147, 034112. DOI: 10.1063/1.4993215
   * E. Caldeweyher, S. Ehlert, A. Hansen, H. Neugebauer, S. Spicher,
     C. Bannwarth and S. Grimme, J. Chem. Phys., 2019, 150, 154122.
     DOI: 10.1063/1.5090222
   * E. Caldeweyher, J.-M. Mewes, S. Ehlert and S. Grimme, Phys. Chem. Chem. Phys.
     2020, 22, 8499-8512. DOI: 10.1039/D0CP00502A
   
   for sTDA-xTB:
   * S. Grimme and C. Bannwarth, J. Chem. Phys., 2016, 145, 054103.
     DOI: 10.1063/1.4959605
   
   in the mass-spec context:
   * V. Asgeirsson, C. Bauer and S. Grimme, Chem. Sci., 2017, 8, 4879.
     DOI: 10.1039/c7sc00601b
   * J. Koopman and S. Grimme, ACS Omega 2019, 4, 12, 15120-15133.
     DOI: 10.1021/acsomega.9b02011
   
   for metadynamics refer to:
   * S. Grimme, J. Chem. Theory Comput., 2019, 155, 2847-2862
     DOI: 10.1021/acs.jctc.9b00143
   
   for SPH calculations refer to:
   * S. Spicher and S. Grimme, J. Chem. Theory Comput., 2021, 17, 1701-1714
     DOI: 10.1021/acs.jctc.0c01306
   
   for ONIOM refer to:
   * C. Plett, A. Katbashev, S. Ehlert, S. Grimme, M. Bursch,
     Phys. Chem. Chem. Phys., 2023, 25, 17860-17868. DOI: 10.1039/D3CP02178E
   
   for DIPRO refer to:
   * J. Kohn, N. Gildemeister, S. Grimme, D. Fazzi, A. Hansen,
     J. Chem. Phys., 2023, just accepted.
   
   for PTB refer to:
   * S. Grimme, M. Mueller, A. Hansen, J. Chem. Phys., 2023, 158, 124111.
     DOI: 10.1063/5.0137838
   
   with help from (in alphabetical order)
   P. Atkinson, C. Bannwarth, F. Bohle, G. Brandenburg, E. Caldeweyher
   M. Checinski, S. Dohm, S. Ehlert, S. Ehrlich, I. Gerasimov, C. Hölzer
   A. Katbashev, J. Kohn, J. Koopman, C. Lavigne, S. Lehtola, F. März, M. Müller,
   F. Musil, H. Neugebauer, J. Pisarek, C. Plett, P. Pracht, F. Pultar,
   J. Seibert, P. Shushkov, S. Spicher, M. Stahn, M. Steiner, T. Strunk,
   J. Stückrath, T. Rose, and J. Unsleber
   
 * started run on 2026/08/11 at 11:12:00.566     
   ID    Z sym.   atoms
    1    6 C      1, 5, 8, 11
    2    1 H      2-4, 6, 7, 9, 10, 12-14

           -------------------------------------------------
          |                Calculation Setup                |
           -------------------------------------------------

          program call               : xtb input.xyz --gfn2 --opt tight --chrg 0 --uhf 0 --iterations 250
          coordinate file            : input.xyz
          omp threads                :                     4


           -------------------------------------------------
          |                 G F N 2 - x T B                 |
           -------------------------------------------------

        Reference                      10.1021/acs.jctc.8b01176
      * Hamiltonian:
        H0-scaling (s, p, d)           1.850000    2.230000    2.230000
        zeta-weighting                 0.500000
      * Dispersion:
        s8                             2.700000
        a1                             0.520000
        a2                             5.000000
        s9                             5.000000
      * Repulsion:
        kExp                           1.500000    1.000000
        rExp                           1.000000
      * Coulomb:
        alpha                          2.000000
        third order                    shell-resolved
        anisotropic                    true
        a3                             3.000000
        a5                             4.000000
        cn-shift                       1.200000
        cn-exp                         4.000000
        max-rad                        5.000000


          ...................................................
          :                      SETUP                      :
          :.................................................:
          :  # basis functions                  26          :
          :  # atomic orbitals                  26          :
          :  # shells                           18          :
          :  # electrons                        26          :
          :  max. iterations                   250          :
          :  Hamiltonian                  GFN2-xTB          :
          :  restarted?                      false          :
          :  GBSA solvation                  false          :
          :  PC potential                    false          :
          :  electronic temp.          300.0000000     K    :
          :  accuracy                    1.0000000          :
          :  -> integral cutoff          0.2500000E+02      :
          :  -> integral neglect         0.1000000E-07      :
          :  -> SCF convergence          0.1000000E-05 Eh   :
          :  -> wf. convergence          0.1000000E-03 e    :
          :  Broyden damping             0.4000000          :
          :  net charge                          0          :
          :  unpaired electrons                  0          :
          ...................................................

 iter      E             dE          RMSdq      gap      omega  full diag
   1    -13.8218972 -0.138219E+02  0.249E+00   13.79       0.0  T
   2    -13.8608139 -0.389167E-01  0.129E+00   13.52       1.0  T
   3    -13.8612121 -0.398239E-03  0.691E-01   13.51       1.0  T
   4    -13.8613292 -0.117044E-03  0.904E-02   13.50       1.0  T
   5    -13.8613339 -0.472497E-05  0.485E-02   13.50       1.0  T
   6    -13.8613344 -0.536891E-06  0.293E-03   13.50       9.1  T
   7    -13.8613344 -0.117080E-07  0.691E-04   13.50      38.7  T
   8    -13.8613344 -0.714888E-09  0.172E-04   13.50     155.5  T

   *** convergence criteria satisfied after 8 iterations ***

         #    Occupation            Energy/Eh            Energy/eV
      -------------------------------------------------------------
         1        2.0000           -0.6170245             -16.7901
       ...           ...                  ...                  ...
         7        2.0000           -0.4863137             -13.2333
         8        2.0000           -0.4672189             -12.7137
         9        2.0000           -0.4593494             -12.4995
        10        2.0000           -0.4499183             -12.2429
        11        2.0000           -0.4263087             -11.6004
        12        2.0000           -0.4206573             -11.4467
        13        2.0000           -0.4185189             -11.3885 (HOMO)
        14                          0.0775301               2.1097 (LUMO)
        15                          0.0977550               2.6600
        16                          0.1256318               3.4186
        17                          0.1463557               3.9825
        18                          0.1503078               4.0901
       ...                                ...                  ...
        26                          0.3226215               8.7790
      -------------------------------------------------------------
                  HL-Gap            0.4960490 Eh           13.4982 eV
             Fermi-level           -0.1704944 Eh           -4.6394 eV

 SCC (total)                   0 d,  0 h,  0 min,  0.085 sec
 SCC setup                      ...        0 min,  0.003 sec (  3.270%)
 Dispersion                     ...        0 min,  0.003 sec (  3.507%)
 classical contributions        ...        0 min,  0.003 sec (  3.426%)
 integral evaluation            ...        0 min,  0.004 sec (  4.787%)
 iterations                     ...        0 min,  0.051 sec ( 60.016%)
 molecular gradient             ...        0 min,  0.021 sec ( 24.678%)
 printout                       ...        0 min,  0.000 sec (  0.288%)

         :::::::::::::::::::::::::::::::::::::::::::::::::::::
         ::                     SUMMARY                     ::
         :::::::::::::::::::::::::::::::::::::::::::::::::::::
         :: total energy             -13.655253697274 Eh    ::
         :: gradient norm              0.015672245164 Eh/a0 ::
         :: HOMO-LUMO gap             13.498181561022 eV    ::
         ::.................................................::
         :: SCC energy               -13.861327387685 Eh    ::
         :: -> isotropic ES            0.002996767564 Eh    ::
         :: -> anisotropic ES          0.005176921716 Eh    ::
         :: -> anisotropic XC          0.009191028444 Eh    ::
         :: -> dispersion             -0.006177442462 Eh    ::
         :: repulsion energy           0.206073690411 Eh    ::
         :: add. restraining           0.000000000000 Eh    ::
         :: total charge              -0.000000000000 e     ::
         :::::::::::::::::::::::::::::::::::::::::::::::::::::

      ----------------------------------------------------------- 
     |                   =====================                   |
     |                        A N C O P T                        |
     |                   =====================                   |
     |               Approximate Normal Coordinate               |
     |                Rational Function Optimizer                |
      ----------------------------------------------------------- 
      ----------------------------------------------------------- 
     |                   =====================                   |
     |                        A N C O P T                        |
     |                   =====================                   |
     |               Approximate Normal Coordinate               |
     |                Rational Function Optimizer                |
      ----------------------------------------------------------- 

          ...................................................
          :                      SETUP                      :
          :.................................................:
          :   optimization level             tight          :
          :   max. optcycles                   200          :
          :   ANC micro-cycles                  20          :
          :   degrees of freedom                36          :
          :.................................................:
          :   RF solver                   davidson          :
          :   write xtbopt.log                true          :
          :   linear?                        false          :
          :   energy convergence         0.1000000E-05 Eh   :
          :   grad. convergence          0.8000000E-03 Eh/α :
          :   maxmium RF displ.          1.0000000          :
          :   Hlow (freq-cutoff)         0.1000000E-01      :
          :   Hmax (freq-cutoff)         5.0000000          :
          :   S6 in model hess.         20.0000000          :
          ...................................................

generating ANC from exact Hessian ...
Using Lindh-Hessian (1995)
 Shifting diagonal of input Hessian by    6.1831818566446140E-003
 Lowest  eigenvalues of input Hessian
    0.000000    0.000000    0.000000    0.000000    0.000000    0.000000
    0.010000    0.013007    0.013647    0.020960    0.022572    0.046602
    0.049397    0.058502    0.058571    0.060242    0.064187    0.064493
 Highest eigenvalues
    1.107021    1.137111    1.143315    1.205438    1.232822    1.278912


........................................................................
.............................. CYCLE    1 ..............................
........................................................................

 iter      E             dE          RMSdq      gap      omega  full diag
   1    -13.8613344 -0.138613E+02  0.249E-05   13.50       0.0  T
   2    -13.8613344 -0.276401E-11  0.110E-05   13.50    2430.4  T
   3    -13.8613344 -0.124345E-12  0.579E-06   13.50    4617.1  T
     SCC iter.                  ...        0 min,  0.002 sec
     gradient                   ...        0 min,  0.004 sec
 * total energy  :   -13.6552537 Eh     change       -0.8956391E-11 Eh
   gradient norm :     0.0156710 Eh/α   predicted     0.0000000E+00 (-100.00%)
   displ. norm   :     0.2093482 α      lambda       -0.8803465E-03
   maximum displ.:     0.1537114 α      in ANC's #1, #2, #4, ...

........................................................................
.............................. CYCLE    2 ..............................
........................................................................

 iter      E             dE          RMSdq      gap      omega  full diag
   1    -13.8639105 -0.138639E+02  0.748E-02   13.50       0.0  T
   2    -13.8639118 -0.131191E-05  0.445E-02   13.50       1.0  T
   3    -13.8639119 -0.843755E-07  0.338E-03   13.50       7.9  T
   4    -13.8639119 -0.183577E-08  0.120E-03   13.50      22.2  T
   5    -13.8639119 -0.161581E-09  0.171E-04   13.50     156.6  T
   6    -13.8639119 -0.101034E-09  0.494E-05   13.50     541.5  T
     SCC iter.                  ...        0 min,  0.004 sec
     gradient                   ...        0 min,  0.002 sec
 * total energy  :   -13.6560267 Eh     change       -0.7729764E-03 Eh
   gradient norm :     0.0069817 Eh/α   predicted    -0.4594627E-03 ( -40.56%)
   displ. norm   :     0.5595100 α      lambda       -0.1760727E-02
   maximum displ.:     0.3732303 α      in ANC's #1, #2, #4, ...

........................................................................
.............................. CYCLE    3 ..............................
........................................................................

 iter      E             dE          RMSdq      gap      omega  full diag
   1    -13.8628227 -0.138628E+02  0.177E-01   13.57       0.0  T
   2    -13.8628251 -0.246939E-05  0.106E-01   13.57       1.0  T
   3    -13.8628254 -0.221221E-06  0.691E-03   13.57       3.9  T
   4    -13.8628256 -0.231300E-06  0.281E-03   13.57       9.5  T
   5    -13.8628256 -0.808054E-09  0.557E-04   13.57      48.0  T
   6    -13.8628256 -0.254261E-09  0.120E-04   13.57     223.3  T
     SCC iter.                  ...        0 min,  0.004 sec
     gradient                   ...        0 min,  0.002 sec
 * total energy  :   -13.6575082 Eh     change       -0.1481538E-02 Eh
   gradient norm :     0.0110937 Eh/α   predicted    -0.1155950E-02 ( -21.98%)
   displ. norm   :     0.6129383 α      lambda       -0.1565259E-02
   maximum displ.:     0.4116312 α      in ANC's #1, #2, #4, ...

........................................................................
.............................. CYCLE    4 ..............................
........................................................................

 iter      E             dE          RMSdq      gap      omega  full diag
   1    -13.8565542 -0.138566E+02  0.187E-01   13.70       0.0  T
   2    -13.8565654 -0.111523E-04  0.110E-01   13.70       1.0  T
   3    -13.8565658 -0.460555E-06  0.155E-02   13.69       1.7  T
   4    -13.8565663 -0.458406E-06  0.388E-03   13.70       6.9  T
   5    -13.8565663 -0.626017E-08  0.204E-03   13.70      13.1  T
   6    -13.8565663 -0.120703E-08  0.157E-04   13.70     170.3  T
   7    -13.8565663 -0.157812E-10  0.350E-05   13.70     762.8  T
     SCC iter.                  ...        0 min,  0.004 sec
     gradient                   ...        0 min,  0.002 sec
 * total energy  :   -13.6583595 Eh     change       -0.8513006E-03 Eh
   gradient norm :     0.0260967 Eh/α   predicted    -0.1076664E-02 (  26.47%)
   displ. norm   :     0.1647258 α      lambda       -0.1342144E-02
   maximum displ.:     0.1268219 α      in ANC's #1, #4, #24, ...

........................................................................
.............................. CYCLE    5 ..............................
........................................................................

 iter      E             dE          RMSdq      gap      omega  full diag
   1    -13.8637170 -0.138637E+02  0.772E-02   13.89       0.0  T
   2    -13.8637227 -0.571040E-05  0.429E-02   13.89       1.0  T
   3    -13.8637230 -0.285517E-06  0.129E-02   13.90       2.1  T
   4    -13.8637231 -0.164865E-06  0.277E-03   13.90       9.6  T
   5    -13.8637231 -0.255772E-08  0.132E-03   13.90      20.2  T
   6    -13.8637231 -0.576879E-09  0.156E-04   13.90     171.6  T
   7    -13.8637231 -0.260485E-10  0.639E-05   13.90     418.2  T
     SCC iter.                  ...        0 min,  0.004 sec
     gradient                   ...        0 min,  0.002 sec
 * total energy  :   -13.6593950 Eh     change       -0.1035537E-02 Eh
   gradient norm :     0.0158719 Eh/α   predicted    -0.6892806E-03 ( -33.44%)
   displ. norm   :     0.4461040 α      lambda       -0.1711642E-02
   maximum displ.:     0.2977082 α      in ANC's #1, #2, #4, ...

........................................................................
.............................. CYCLE    6 ..............................
........................................................................

 iter      E             dE          RMSdq      gap      omega  full diag
   1    -13.8685973 -0.138686E+02  0.126E-01   14.12       0.0  T
   2    -13.8685998 -0.257657E-05  0.753E-02   14.12       1.0  T
   3    -13.8686000 -0.184199E-06  0.657E-03   14.12       4.1  T
   4    -13.8686002 -0.145632E-06  0.232E-03   14.12      11.5  T
   5    -13.8686002 -0.210449E-08  0.696E-04   14.12      38.4  T
   6    -13.8686002 -0.315740E-09  0.154E-04   14.12     173.1  T
     SCC iter.                  ...        0 min,  0.004 sec
     gradient                   ...        0 min,  0.002 sec
 * total energy  :   -13.6606072 Eh     change       -0.1212154E-02 Eh
   gradient norm :     0.0100360 Eh/α   predicted    -0.1026140E-02 ( -15.35%)
   displ. norm   :     0.4721049 α      lambda       -0.1119317E-02
   maximum displ.:     0.3170530 α      in ANC's #2, #1, #4, ...

........................................................................
.............................. CYCLE    7 ..............................
........................................................................

 iter      E             dE          RMSdq      gap      omega  full diag
   1    -13.8650196 -0.138650E+02  0.142E-01   14.15       0.0  T
   2    -13.8650332 -0.135813E-04  0.821E-02   14.15       1.0  T
   3    -13.8650337 -0.506228E-06  0.178E-02   14.15       1.5  T
   4    -13.8650338 -0.124146E-06  0.314E-03   14.15       8.5  T
   5    -13.8650338 -0.267396E-08  0.138E-03   14.15      19.4  T
   6    -13.8650338 -0.107521E-08  0.173E-04   14.15     154.6  T
   7    -13.8650338 -0.582681E-10  0.754E-05   14.15     354.5  T
     SCC iter.                  ...        0 min,  0.004 sec
     gradient                   ...        0 min,  0.002 sec
 * total energy  :   -13.6610886 Eh     change       -0.4813641E-03 Eh
   gradient norm :     0.0220920 Eh/α   predicted    -0.6843989E-03 (  42.18%)
   displ. norm   :     0.1945584 α      lambda       -0.1417454E-02
   maximum displ.:     0.1291361 α      in ANC's #2, #24, #26, ...

........................................................................
.............................. CYCLE    8 ..............................
........................................................................

 iter      E             dE          RMSdq      gap      omega  full diag
   1    -13.8748702 -0.138749E+02  0.125E-01   14.12       0.0  T
   2    -13.8748833 -0.130708E-04  0.692E-02   14.12       1.0  T
   3    -13.8748841 -0.849115E-06  0.193E-02   14.12       1.4  T
   4    -13.8748844 -0.316515E-06  0.454E-03   14.12       5.9  T
   5    -13.8748844 -0.468451E-08  0.206E-03   14.12      13.0  T
   6    -13.8748844 -0.132447E-08  0.181E-04   14.12     147.5  T
   7    -13.8748844 -0.345164E-10  0.844E-05   14.12     316.7  T
     SCC iter.                  ...        0 min,  0.004 sec
     gradient                   ...        0 min,  0.002 sec
 * total energy  :   -13.6616484 Eh     change       -0.5597859E-03 Eh
   gradient norm :     0.0185132 Eh/α   predicted    -0.7355558E-03 (  31.40%)
   displ. norm   :     0.4137577 α      lambda       -0.1154429E-02
   maximum displ.:     0.2723413 α      in ANC's #2, #1, #4, ...

........................................................................
.............................. CYCLE    9 ..............................
........................................................................

 iter      E             dE          RMSdq      gap      omega  full diag
   1    -13.8665043 -0.138665E+02  0.169E-01   14.14       0.0  T
   2    -13.8665282 -0.239122E-04  0.957E-02   14.13       1.0  T
   3    -13.8665293 -0.102915E-05  0.250E-02   14.13       1.1  T
   4    -13.8665296 -0.325257E-06  0.488E-03   14.13       5.5  T
   5    -13.8665296 -0.565149E-08  0.221E-03   14.13      12.1  T
   6    -13.8665296 -0.263520E-08  0.235E-04   14.13     113.6  T
   7    -13.8665296 -0.754063E-10  0.104E-04   14.13     256.9  T
     SCC iter.                  ...        0 min,  0.004 sec
     gradient                   ...        0 min,  0.002 sec
 * total energy  :   -13.6618606 Eh     change       -0.2122821E-03 Eh
   gradient norm :     0.0250283 Eh/α   predicted    -0.6760304E-03 ( 218.46%)
   displ. norm   :     0.1155925 α      lambda       -0.1097421E-02
   maximum displ.:     0.1009104 α      in ANC's #3, #5, #2, ...

........................................................................
.............................. CYCLE   10 ..............................
........................................................................

 iter      E             dE          RMSdq      gap      omega  full diag
   1    -13.8689469 -0.138689E+02  0.893E-02   14.14       0.0  T
   2    -13.8689594 -0.125661E-04  0.478E-02   14.14       1.0  T
   3    -13.8689600 -0.527633E-06  0.179E-02   14.14       1.5  T
   4    -13.8689601 -0.115780E-06  0.334E-03   14.14       8.0  T
   5    -13.8689601 -0.183921E-08  0.137E-03   14.14      19.5  T
   6    -13.8689601 -0.215574E-08  0.158E-04   14.14     169.7  T
   7    -13.8689601 -0.248477E-10  0.670E-05   14.14     399.0  T
     SCC iter.                  ...        0 min,  0.004 sec
     gradient                   ...        0 min,  0.002 sec
 * total energy  :   -13.6624811 Eh     change       -0.6204401E-03 Eh
   gradient norm :     0.0132872 Eh/α   predicted    -0.5560424E-03 ( -10.38%)
   displ. norm   :     0.1580770 α      lambda       -0.4546040E-03
   maximum displ.:     0.1220724 α      in ANC's #2, #24, #4, ...

........................................................................
.............................. CYCLE   11 ..............................
........................................................................

 iter      E             dE          RMSdq      gap      omega  full diag
   1    -13.8713271 -0.138713E+02  0.551E-02   14.10       0.0  T
   2    -13.8713280 -0.916095E-06  0.328E-02   14.10       1.0  T
   3    -13.8713281 -0.375153E-07  0.317E-03   14.10       8.4  T
   4    -13.8713281 -0.694438E-08  0.830E-04   14.10      32.2  T
   5    -13.8713281 -0.556517E-09  0.377E-04   14.10      70.9  T
     SCC iter.                  ...        0 min,  0.003 sec
     gradient                   ...        0 min,  0.002 sec
 * total energy  :   -13.6628297 Eh     change       -0.3486126E-03 Eh
   gradient norm :     0.0095731 Eh/α   predicted    -0.2329817E-03 ( -33.17%)
   displ. norm   :     0.4098017 α      lambda       -0.7451603E-03
   maximum displ.:     0.3063491 α      in ANC's #2, #24, #4, ...

........................................................................
.............................. CYCLE   12 ..............................
........................................................................

 iter      E             dE          RMSdq      gap      omega  full diag
   1    -13.8708878 -0.138709E+02  0.121E-01   14.02       0.0  T
   2    -13.8708893 -0.143898E-05  0.727E-02   14.02       1.0  T
   3    -13.8708894 -0.988694E-07  0.529E-03   14.02       5.1  T
   4    -13.8708895 -0.149597E-06  0.191E-03   14.02      14.0  T
   5    -13.8708895 -0.201967E-08  0.317E-04   14.02      84.3  T
   6    -13.8708895 -0.293419E-10  0.114E-04   14.02     234.0  T
     SCC iter.                  ...        0 min,  0.003 sec
     gradient                   ...        0 min,  0.002 sec
 * total energy  :   -13.6632990 Eh     change       -0.4693339E-03 Eh
   gradient norm :     0.0102587 Eh/α   predicted    -0.4351532E-03 (  -7.28%)
   displ. norm   :     0.1796842 α      lambda       -0.5433646E-03
   maximum displ.:     0.1012271 α      in ANC's #2, #24, #26, ...

........................................................................
.............................. CYCLE   13 ..............................
........................................................................

 iter      E             dE          RMSdq      gap      omega  full diag
   1    -13.8773772 -0.138774E+02  0.895E-02   14.04       0.0  T
   2    -13.8773875 -0.103628E-04  0.496E-02   14.04       1.0  T
   3    -13.8773879 -0.404428E-06  0.160E-02   14.04       1.7  T
   4    -13.8773880 -0.983953E-07  0.289E-03   14.04       9.3  T
   5    -13.8773881 -0.467148E-08  0.151E-03   14.04      17.7  T
   6    -13.8773881 -0.901123E-09  0.132E-04   14.04     202.4  T
   7    -13.8773881 -0.246168E-10  0.612E-05   14.04     436.6  T
     SCC iter.                  ...        0 min,  0.004 sec
     gradient                   ...        0 min,  0.002 sec
 * total energy  :   -13.6633812 Eh     change       -0.8219344E-04 Eh
   gradient norm :     0.0149055 Eh/α   predicted    -0.2804543E-03 ( 241.21%)
   displ. norm   :     0.4004504 α      lambda       -0.7387425E-03
   maximum displ.:     0.2906971 α      in ANC's #2, #24, #4, ...

........................................................................
.............................. CYCLE   14 ..............................
........................................................................

 iter      E             dE          RMSdq      gap      omega  full diag
   1    -13.8682463 -0.138682E+02  0.141E-01   14.02       0.0  T
   2    -13.8682638 -0.174592E-04  0.809E-02   14.02       1.0  T
   3    -13.8682645 -0.703438E-06  0.203E-02   14.02       1.3  T
   4    -13.8682647 -0.196200E-06  0.394E-03   14.02       6.8  T
   5    -13.8682647 -0.125293E-07  0.202E-03   14.02      13.2  T
   6    -13.8682647 -0.183553E-08  0.244E-04   14.02     109.4  T
   7    -13.8682647 -0.575184E-10  0.379E-05   14.02     704.7  T
     SCC iter.                  ...        0 min,  0.004 sec
     gradient                   ...        0 min,  0.002 sec
 * total energy  :   -13.6635334 Eh     change       -0.1521867E-03 Eh
   gradient norm :     0.0142719 Eh/α   predicted    -0.4286025E-03 ( 181.63%)
   displ. norm   :     0.1774055 α      lambda       -0.6265982E-03
   maximum displ.:     0.1312044 α      in ANC's #2, #4, #24, ...

........................................................................
.............................. CYCLE   15 ..............................
........................................................................

 iter      E             dE          RMSdq      gap      omega  full diag
   1    -13.8736168 -0.138736E+02  0.882E-02   14.12       0.0  T
   2    -13.8736244 -0.757140E-05  0.491E-02   14.12       1.0  T
   3    -13.8736248 -0.412126E-06  0.144E-02   14.12       1.9  T
   4    -13.8736250 -0.140188E-06  0.313E-03   14.12       8.5  T
   5    -13.8736250 -0.287734E-08  0.139E-03   14.12      19.2  T
   6    -13.8736250 -0.100050E-08  0.168E-04   14.12     159.0  T
   7    -13.8736250 -0.256026E-10  0.714E-05   14.12     374.1  T
     SCC iter.                  ...        0 min,  0.004 sec
     gradient                   ...        0 min,  0.002 sec
 * total energy  :   -13.6637336 Eh     change       -0.2002302E-03 Eh
   gradient norm :     0.0065343 Eh/α   predicted    -0.3231601E-03 (  61.39%)
   displ. norm   :     0.0943080 α      lambda       -0.1374479E-03
   maximum displ.:     0.0525172 α      in ANC's #2, #24, #1, ...

........................................................................
.............................. CYCLE   16 ..............................
........................................................................

 iter      E             dE          RMSdq      gap      omega  full diag
   1    -13.8738862 -0.138739E+02  0.365E-02   14.13       0.0  T
   2    -13.8738872 -0.104645E-05  0.207E-02   14.13       1.3  T
   3    -13.8738873 -0.491261E-07  0.521E-03   14.13       5.1  T
   4    -13.8738873 -0.108310E-07  0.102E-03   14.13      26.3  T
   5    -13.8738873 -0.438973E-10  0.337E-04   14.13      79.2  T
   6    -13.8738873 -0.248429E-09  0.388E-05   14.13     689.4  T
     SCC iter.                  ...        0 min,  0.003 sec
     gradient                   ...        0 min,  0.002 sec
 * total energy  :   -13.6638206 Eh     change       -0.8697740E-04 Eh
   gradient norm :     0.0021287 Eh/α   predicted    -0.6933658E-04 ( -20.28%)
   displ. norm   :     0.1914368 α      lambda       -0.9880884E-04
   maximum displ.:     0.1218363 α      in ANC's #2, #24, #26, ...

........................................................................
.............................. CYCLE   17 ..............................
........................................................................

 iter      E             dE          RMSdq      gap      omega  full diag
   1    -13.8726754 -0.138727E+02  0.556E-02   14.14       0.0  T
   2    -13.8726759 -0.503840E-06  0.332E-02   14.14       1.0  T
   3    -13.8726759 -0.464240E-07  0.250E-03   14.14      10.7  T
   4    -13.8726759 -0.919807E-08  0.906E-04   14.14      29.5  T
   5    -13.8726759 -0.517547E-09  0.355E-04   14.14      75.3  T
     SCC iter.                  ...        0 min,  0.003 sec
     gradient                   ...        0 min,  0.002 sec
 * total energy  :   -13.6638730 Eh     change       -0.5239416E-04 Eh
   gradient norm :     0.0040564 Eh/α   predicted    -0.5121452E-04 (  -2.25%)
   displ. norm   :     0.0864459 α      lambda       -0.5786092E-04
   maximum displ.:     0.0459893 α      in ANC's #1, #24, #2, ...

........................................................................
.............................. CYCLE   18 ..............................
........................................................................

 iter      E             dE          RMSdq      gap      omega  full diag
   1    -13.8732042 -0.138732E+02  0.268E-02   14.17       0.0  T
   2    -13.8732043 -0.806526E-07  0.160E-02   14.17       1.7  T
   3    -13.8732043 -0.754381E-08  0.122E-03   14.17      22.0  T
   4    -13.8732043 -0.553474E-08  0.462E-04   14.17      57.8  T
   5    -13.8732043 -0.120185E-09  0.111E-04   14.17     240.4  T
     SCC iter.                  ...        0 min,  0.003 sec
     gradient                   ...        0 min,  0.002 sec
 * total energy  :   -13.6639124 Eh     change       -0.3936544E-04 Eh
   gradient norm :     0.0038305 Eh/α   predicted    -0.2914530E-04 ( -25.96%)
   displ. norm   :     0.1186956 α      lambda       -0.8610083E-04
   maximum displ.:     0.0683659 α      in ANC's #1, #24, #2, ...

........................................................................
.............................. CYCLE   19 ..............................
........................................................................

 iter      E             dE          RMSdq      gap      omega  full diag
   1    -13.8754432 -0.138754E+02  0.396E-02   14.20       0.0  T
   2    -13.8754438 -0.638866E-06  0.229E-02   14.20       1.2  T
   3    -13.8754439 -0.324339E-07  0.399E-03   14.20       6.7  T
   4    -13.8754439 -0.236498E-07  0.980E-04   14.20      27.3  T
   5    -13.8754439 -0.276536E-09  0.464E-04   14.20      57.6  T
     SCC iter.                  ...        0 min,  0.002 sec
     gradient                   ...        0 min,  0.002 sec
 * total energy  :   -13.6639546 Eh     change       -0.4219760E-04 Eh
   gradient norm :     0.0038522 Eh/α   predicted    -0.4365558E-04 (   3.46%)
   displ. norm   :     0.2200212 α      lambda       -0.7147572E-04
   maximum displ.:     0.1212349 α      in ANC's #1, #2, #24, ...

........................................................................
.............................. CYCLE   20 ..............................
........................................................................

 iter      E             dE          RMSdq      gap      omega  full diag
   1    -13.8737843 -0.138738E+02  0.616E-02   14.21       0.0  T
   2    -13.8737849 -0.632149E-06  0.368E-02   14.21       1.0  T
   3    -13.8737850 -0.544554E-07  0.288E-03   14.21       9.3  T
   4    -13.8737850 -0.134317E-07  0.102E-03   14.21      26.2  T
   5    -13.8737850 -0.571687E-09  0.405E-04   14.21      66.1  T
   6    -13.8737850 -0.108846E-09  0.758E-05   14.21     352.7  T
     SCC iter.                  ...        0 min,  0.003 sec
     gradient                   ...        0 min,  0.002 sec
 * total energy  :   -13.6639854 Eh     change       -0.3083429E-04 Eh
   gradient norm :     0.0057533 Eh/α   predicted    -0.3746557E-04 (  21.51%)
   displ. norm   :     0.0456443 α      lambda       -0.5185166E-04
   maximum displ.:     0.0375840 α      in ANC's #1, #7, #24, ...
 * RMSD in coord.:     1.1718273 α      energy gain  -0.8731704E-02 Eh

generating ANC from exact Hessian ...
Using Lindh-Hessian (1995)
 Shifting diagonal of input Hessian by    5.8840169647335749E-003
 Lowest  eigenvalues of input Hessian
    0.000000    0.000000    0.000000    0.000000    0.000000    0.000000
    0.010000    0.012752    0.013885    0.020900    0.024054    0.046399
    0.050980    0.058814    0.059097    0.061299    0.062701    0.066924
 Highest eigenvalues
    1.131665    1.155150    1.161853    1.210191    1.244214    1.279759


........................................................................
.............................. CYCLE   21 ..............................
........................................................................

 iter      E             dE          RMSdq      gap      omega  full diag
   1    -13.8745153 -0.138745E+02  0.191E-02   14.21       0.0  T
   2    -13.8745155 -0.165188E-06  0.111E-02   14.21       2.4  T
   3    -13.8745155 -0.943099E-08  0.164E-03   14.21      16.3  T
   4    -13.8745155 -0.108957E-08  0.425E-04   14.21      62.9  T
   5    -13.8745155 -0.688694E-10  0.142E-04   14.21     188.2  T
     SCC iter.                  ...        0 min,  0.002 sec
     gradient                   ...        0 min,  0.002 sec
 * total energy  :   -13.6640273 Eh     change       -0.4189117E-04 Eh
   gradient norm :     0.0041041 Eh/α   predicted     0.0000000E+00 (-100.00%)
   displ. norm   :     0.0534609 α      lambda       -0.6686679E-04
   maximum displ.:     0.0387996 α      in ANC's #1, #3, #2, ...

........................................................................
.............................. CYCLE   22 ..............................
........................................................................

 iter      E             dE          RMSdq      gap      omega  full diag
   1    -13.8747331 -0.138747E+02  0.273E-02   14.19       0.0  T
   2    -13.8747331 -0.765430E-07  0.162E-02   14.19       1.7  T
   3    -13.8747332 -0.161512E-07  0.108E-03   14.19      24.8  T
   4    -13.8747332 -0.142395E-08  0.475E-04   14.19      56.2  T
   5    -13.8747332 -0.219540E-09  0.910E-05   14.19     293.5  T
     SCC iter.                  ...        0 min,  0.003 sec
     gradient                   ...        0 min,  0.002 sec
 * total energy  :   -13.6640767 Eh     change       -0.4942085E-04 Eh
   gradient norm :     0.0014872 Eh/α   predicted    -0.3352987E-04 ( -32.15%)
   displ. norm   :     0.1234565 α      lambda       -0.4827601E-04
   maximum displ.:     0.0854140 α      in ANC's #1, #3, #2, ...

........................................................................
.............................. CYCLE   23 ..............................
........................................................................

 iter      E             dE          RMSdq      gap      omega  full diag
   1    -13.8748062 -0.138748E+02  0.390E-02   14.19       0.0  T
   2    -13.8748063 -0.112004E-06  0.232E-02   14.19       1.2  T
   3    -13.8748063 -0.284400E-07  0.142E-03   14.19      18.8  T
   4    -13.8748063 -0.208587E-08  0.610E-04   14.19      43.8  T
   5    -13.8748063 -0.330616E-09  0.114E-04   14.19     235.4  T
     SCC iter.                  ...        0 min,  0.002 sec
     gradient                   ...        0 min,  0.002 sec
 * total energy  :   -13.6641167 Eh     change       -0.3996393E-04 Eh
   gradient norm :     0.0026224 Eh/α   predicted    -0.2430255E-04 ( -39.19%)
   displ. norm   :     0.0439613 α      lambda       -0.1855935E-04
   maximum displ.:     0.0293039 α      in ANC's #1, #3, #4, ...

........................................................................
.............................. CYCLE   24 ..............................
........................................................................

 iter      E             dE          RMSdq      gap      omega  full diag
   1    -13.8748577 -0.138749E+02  0.126E-02   14.20       0.0  T
   2    -13.8748577 -0.720464E-08  0.750E-03   14.20       3.6  T
   3    -13.8748577 -0.202747E-08  0.353E-04   14.20      75.7  T
   4    -13.8748577 -0.144871E-09  0.179E-04   14.20     149.6  T
     SCC iter.                  ...        0 min,  0.002 sec
     gradient                   ...        0 min,  0.009 sec
 * total energy  :   -13.6641329 Eh     change       -0.1625139E-04 Eh
   gradient norm :     0.0019543 Eh/α   predicted    -0.9298610E-05 ( -42.78%)
   displ. norm   :     0.1537612 α      lambda       -0.3571846E-04
   maximum displ.:     0.1009768 α      in ANC's #1, #3, #5, ...

........................................................................
.............................. CYCLE   25 ..............................
........................................................................

 iter      E             dE          RMSdq      gap      omega  full diag
   1    -13.8746826 -0.138747E+02  0.443E-02   14.23       0.0  T
   2    -13.8746827 -0.128317E-06  0.265E-02   14.23       1.0  T
   3    -13.8746828 -0.246286E-07  0.133E-03   14.23      20.1  T
   4    -13.8746828 -0.275650E-08  0.630E-04   14.23      42.4  T
   5    -13.8746828 -0.210552E-09  0.153E-04   14.23     174.2  T
     SCC iter.                  ...        0 min,  0.004 sec
     gradient                   ...        0 min,  0.002 sec
 * total energy  :   -13.6641569 Eh     change       -0.2399615E-04 Eh
   gradient norm :     0.0012845 Eh/α   predicted    -0.1804653E-04 ( -24.79%)
   displ. norm   :     0.0129999 α      lambda       -0.3680558E-05
   maximum displ.:     0.0082299 α      in ANC's #2, #1, #4, ...

........................................................................
.............................. CYCLE   26 ..............................
........................................................................

 iter      E             dE          RMSdq      gap      omega  full diag
   1    -13.8749900 -0.138750E+02  0.619E-03   14.23       0.0  T
   2    -13.8749900 -0.185095E-07  0.358E-03   14.23       7.5  T
   3    -13.8749900 -0.100256E-08  0.619E-04   14.23      43.2  T
   4    -13.8749900 -0.453120E-09  0.152E-04   14.23     176.3  T
     SCC iter.                  ...        0 min,  0.002 sec
     gradient                   ...        0 min,  0.002 sec
 * total energy  :   -13.6641610 Eh     change       -0.4056803E-05 Eh
   gradient norm :     0.0005433 Eh/α   predicted    -0.1841753E-05 ( -54.60%)
   displ. norm   :     0.0442525 α      lambda       -0.5027167E-05
   maximum displ.:     0.0298966 α      in ANC's #1, #2, #4, ...

........................................................................
.............................. CYCLE   27 ..............................
........................................................................

 iter      E             dE          RMSdq      gap      omega  full diag
   1    -13.8751209 -0.138751E+02  0.128E-02   14.23       0.0  T
   2    -13.8751209 -0.807733E-08  0.766E-03   14.23       3.5  T
   3    -13.8751209 -0.179362E-08  0.303E-04   14.23      88.3  T
   4    -13.8751209 -0.135962E-09  0.150E-04   14.23     178.3  T
     SCC iter.                  ...        0 min,  0.002 sec
     gradient                   ...        0 min,  0.002 sec
 * total energy  :   -13.6641665 Eh     change       -0.5479760E-05 Eh
   gradient norm :     0.0004592 Eh/α   predicted    -0.2517261E-05 ( -54.06%)
   displ. norm   :     0.0568604 α      lambda       -0.4047462E-05
   maximum displ.:     0.0405208 α      in ANC's #1, #2, #4, ...

........................................................................
.............................. CYCLE   28 ..............................
........................................................................

 iter      E             dE          RMSdq      gap      omega  full diag
   1    -13.8750520 -0.138751E+02  0.148E-02   14.23       0.0  T
   2    -13.8750520 -0.429343E-08  0.889E-03   14.23       3.0  T
   3    -13.8750520 -0.190821E-08  0.236E-04   14.23     113.4  T
   4    -13.8750520 -0.376730E-10  0.128E-04   14.23     209.5  T
     SCC iter.                  ...        0 min,  0.002 sec
     gradient                   ...        0 min,  0.002 sec
 * total energy  :   -13.6641709 Eh     change       -0.4420404E-05 Eh
   gradient norm :     0.0005167 Eh/α   predicted    -0.2026413E-05 ( -54.16%)
   displ. norm   :     0.0353960 α      lambda       -0.1988532E-05
   maximum displ.:     0.0275097 α      in ANC's #1, #2, #4, ...

........................................................................
.............................. CYCLE   29 ..............................
........................................................................

 iter      E             dE          RMSdq      gap      omega  full diag
   1    -13.8750236 -0.138750E+02  0.105E-02   14.24       0.0  T
   2    -13.8750236 -0.286751E-08  0.626E-03   14.24       4.3  T
   3    -13.8750236 -0.828367E-09  0.221E-04   14.24     121.0  T
   4    -13.8750236 -0.141549E-09  0.114E-04   14.24     233.8  T
     SCC iter.                  ...        0 min,  0.002 sec
     gradient                   ...        0 min,  0.002 sec
 * total energy  :   -13.6641730 Eh     change       -0.2143726E-05 Eh
   gradient norm :     0.0002844 Eh/α   predicted    -0.9944954E-06 ( -53.61%)
   displ. norm   :     0.0164582 α      lambda       -0.8634245E-06
   maximum displ.:     0.0149352 α      in ANC's #1, #2, #3, ...

........................................................................
.............................. CYCLE   30 ..............................
........................................................................

 iter      E             dE          RMSdq      gap      omega  full diag
   1    -13.8749777 -0.138750E+02  0.437E-03   14.24       0.0  T
   2    -13.8749777 -0.110016E-08  0.261E-03   14.24      10.2  T
   3    -13.8749777 -0.215447E-09  0.117E-04   14.24     227.5  T
   4    -13.8749777 -0.173639E-10  0.589E-05   14.24     453.5  T
     SCC iter.                  ...        0 min,  0.002 sec
     gradient                   ...        0 min,  0.002 sec
 * total energy  :   -13.6641741 Eh     change       -0.1091023E-05 Eh
   gradient norm :     0.0001355 Eh/α   predicted    -0.4329058E-06 ( -60.32%)
   displ. norm   :     0.0131163 α      lambda       -0.6991314E-06
   maximum displ.:     0.0109201 α      in ANC's #1, #3, #5, ...

........................................................................
.............................. CYCLE   31 ..............................
........................................................................

 iter      E             dE          RMSdq      gap      omega  full diag
   1    -13.8749722 -0.138750E+02  0.366E-03   14.24       0.0  T
   2    -13.8749722 -0.410754E-09  0.219E-03   14.24      12.2  T
   3    -13.8749722 -0.140595E-09  0.911E-05   14.24     293.3  T
   4    -13.8749722 -0.988365E-11  0.444E-05   14.24     601.4  T
     SCC iter.                  ...        0 min,  0.002 sec
     gradient                   ...        0 min,  0.002 sec
 * total energy  :   -13.6641750 Eh     change       -0.9250068E-06 Eh
   gradient norm :     0.0001842 Eh/α   predicted    -0.3501420E-06 ( -62.15%)
   displ. norm   :     0.0176116 α      lambda       -0.7767105E-06
   maximum displ.:     0.0135005 α      in ANC's #1, #3, #5, ...

   *** GEOMETRY OPTIMIZATION CONVERGED AFTER 31 ITERATIONS ***

------------------------------------------------------------------------
 total energy gain   :        -0.0089213 Eh       -5.5982 kcal/mol
 total RMSD          :         1.2482513 a0        0.6605 Å
 total power (kW/mol):        -0.7555802 (step)  -97.6610 (real)
------------------------------------------------------------------------

 ANCopt (total)                0 d,  0 h,  0 min,  0.240 sec
 optimizer setup                ...        0 min,  0.000 sec (  0.052%)
 model hessian                  ...        0 min,  0.019 sec (  8.003%)
 ANC generation                 ...        0 min,  0.001 sec (  0.446%)
 coordinate transformation      ...        0 min,  0.000 sec (  0.117%)
 single point calculation       ...        0 min,  0.203 sec ( 84.668%)
 optimization log               ...        0 min,  0.005 sec (  2.211%)
 hessian update                 ...        0 min,  0.003 sec (  1.297%)
 rational function              ...        0 min,  0.006 sec (  2.333%)

================
 final structure:
================
14
 xtb: 6.7.1 (edcfbbe)
C           -2.83534225072823        0.17568860614006        1.97283086530097
H           -3.88045139382302        0.25237861763028        1.67968747489048
H           -2.75460795130442        0.42262375521509        3.02811176068990
H           -2.51808536948595       -0.85649097906611        1.84194264523085
C           -1.97524606184948        1.10523114621887        1.12445598739559
H           -2.01308400965750        0.76875309432810        0.08533896730300
H           -0.93577318708403        1.03990700181814        1.45454197099464
C           -2.42974843198937        2.56416287799823        1.18204998883999
H           -1.87743006891082        3.13181191392085        0.42891606410482
H           -3.49019241665530        2.62001427261599        0.92487838035357
C           -2.20452222534912        3.20859053447673        2.54486651756058
H           -2.80187290458587        2.72170895655227        3.31117539547863
H           -1.15637573756418        3.13987659290323        2.82900752868516
H           -2.48294433101289        4.25968615924805        2.51612355317190

 Bond Distances (Angstroems)
 ---------------------------
C1-H2=1.0881         C1-H3=1.0868         C1-H4=1.0877         C1-C5=1.5243         H2-C1=1.0881         H3-C1=1.0868         
H4-C1=1.0877         C5-C1=1.5243         C5-H6=1.0929         C5-H7=1.0926         C5-C8=1.5292         H6-C5=1.0929         
H7-C5=1.0926         C8-C5=1.5292         C8-H9=1.0929         C8-H10=1.0926        C8-C11=1.5242        H9-C8=1.0929         
H10-C8=1.0926        C11-C8=1.5242        C11-H12=1.0868       C11-H13=1.0881       C11-H14=1.0877       H12-C11=1.0868       
H13-C11=1.0881       H14-C11=1.0877       
 C  H  Rav=1.0896 sigma=0.0026  Rmin=1.0868  Rmax=1.0929    10
 C  C  Rav=1.5259 sigma=0.0023  Rmin=1.5242  Rmax=1.5292     3

 selected bond angles (degree)
 --------------------
H3-C1-H2=108.48                H4-C1-H2=108.34                H4-C1-H3=108.11                C5-C1-H2=110.43                
C5-C1-H3=111.10                C5-C1-H4=110.31                H6-C5-C1=108.78                H7-C5-C1=109.40                
H7-C5-H6=107.56                C8-C5-C1=113.15                C8-C5-H6=108.62                C8-C5-H7=109.17                
H9-C8-C5=108.62                H10-C8-C5=109.17               H10-C8-H9=107.56               C11-C8-C5=113.15               
C11-C8-H9=108.78               C11-C8-H10=109.41              

 selected dihedral angles (degree)
 ---------------------------------
H6-C5-C1-H2=295.36            H6-C5-C1-H3=174.95            H6-C5-C1-H4= 55.09            H7-C5-C1-H2=178.12            
H7-C5-C1-H3= 57.71            H7-C5-C1-H4=297.85            C8-C5-C1-H2= 56.17            C8-C5-C1-H3=295.76            
C8-C5-C1-H4=175.89            H9-C8-C5-C1=189.31            H9-C8-C5-H6=310.21            H9-C8-C5-H7= 67.23            
H10-C8-C5-C1=306.33           H10-C8-C5-H6= 67.23           H10-C8-C5-H7=184.25           C11-C8-C5-C1= 68.42           
C11-C8-C5-H6=189.31           C11-C8-C5-H7=306.33           
           -------------------------------------------------
          |                Final Singlepoint                |
           -------------------------------------------------

          ...................................................
          :                      SETUP                      :
          :.................................................:
          :  # basis functions                  26          :
          :  # atomic orbitals                  26          :
          :  # shells                           18          :
          :  # electrons                        26          :
          :  max. iterations                   250          :
          :  Hamiltonian                  GFN2-xTB          :
          :  restarted?                      false          :
          :  GBSA solvation                  false          :
          :  PC potential                    false          :
          :  electronic temp.          300.0000000     K    :
          :  accuracy                    1.0000000          :
          :  -> integral cutoff          0.2500000E+02      :
          :  -> integral neglect         0.1000000E-07      :
          :  -> SCF convergence          0.1000000E-05 Eh   :
          :  -> wf. convergence          0.1000000E-03 e    :
          :  Broyden damping             0.4000000          :
          :  net charge                          0          :
          :  unpaired electrons                  0          :
          ...................................................

 iter      E             dE          RMSdq      gap      omega  full diag
   1    -13.8749722 -0.138750E+02  0.762E-06   14.24       0.0  T
   2    -13.8749722 -0.408562E-13  0.440E-06   14.24    6078.5  T
   3    -13.8749722  0.177636E-13  0.117E-06   14.24   22906.9  T

   *** convergence criteria satisfied after 3 iterations ***

         #    Occupation            Energy/Eh            Energy/eV
      -------------------------------------------------------------
         1        2.0000           -0.6178021             -16.8113
       ...           ...                  ...                  ...
         7        2.0000           -0.4850723             -13.1995
         8        2.0000           -0.4661355             -12.6842
         9        2.0000           -0.4620661             -12.5735
        10        2.0000           -0.4482107             -12.1964
        11        2.0000           -0.4258370             -11.5876
        12        2.0000           -0.4236947             -11.5293
        13        2.0000           -0.4219659             -11.4823 (HOMO)
        14                          0.1013790               2.7587 (LUMO)
        15                          0.1115436               3.0353
        16                          0.1370909               3.7304
        17                          0.1487355               4.0473
        18                          0.1496827               4.0731
       ...                                ...                  ...
        26                          0.3010767               8.1927
      -------------------------------------------------------------
                  HL-Gap            0.5233449 Eh           14.2409 eV
             Fermi-level           -0.1602935 Eh           -4.3618 eV

 SCC (total)                   0 d,  0 h,  0 min,  0.005 sec
 SCC setup                      ...        0 min,  0.000 sec (  4.493%)
 Dispersion                     ...        0 min,  0.000 sec (  2.091%)
 classical contributions        ...        0 min,  0.000 sec (  0.881%)
 integral evaluation            ...        0 min,  0.001 sec ( 14.646%)
 iterations                     ...        0 min,  0.002 sec ( 32.648%)
 molecular gradient             ...        0 min,  0.002 sec ( 38.992%)
 printout                       ...        0 min,  0.000 sec (  5.849%)

         :::::::::::::::::::::::::::::::::::::::::::::::::::::
         ::                     SUMMARY                     ::
         :::::::::::::::::::::::::::::::::::::::::::::::::::::
         :: total energy             -13.664175041136 Eh    ::
         :: gradient norm              0.000184154555 Eh/a0 ::
         :: HOMO-LUMO gap             14.240940006548 eV    ::
         ::.................................................::
         :: SCC energy               -13.874965110025 Eh    ::
         :: -> isotropic ES            0.002971014136 Eh    ::
         :: -> anisotropic ES          0.004974692547 Eh    ::
         :: -> anisotropic XC          0.008993249702 Eh    ::
         :: -> dispersion             -0.006299102522 Eh    ::
         :: repulsion energy           0.210790068889 Eh    ::
         :: add. restraining           0.000000000000 Eh    ::
         :: total charge               0.000000000000 e     ::
         :::::::::::::::::::::::::::::::::::::::::::::::::::::

           -------------------------------------------------
          |                Property Printout                |
           -------------------------------------------------

    * Orbital Energies and Occupations

         #    Occupation            Energy/Eh            Energy/eV
      -------------------------------------------------------------
         1        2.0000           -0.6178021             -16.8113
         2        2.0000           -0.5961005             -16.2207
         3        2.0000           -0.5730767             -15.5942
         4        2.0000           -0.5476092             -14.9012
         5        2.0000           -0.5065501             -13.7839
         6        2.0000           -0.5057522             -13.7622
         7        2.0000           -0.4850723             -13.1995
         8        2.0000           -0.4661355             -12.6842
         9        2.0000           -0.4620661             -12.5735
        10        2.0000           -0.4482107             -12.1964
        11        2.0000           -0.4258370             -11.5876
        12        2.0000           -0.4236947             -11.5293
        13        2.0000           -0.4219659             -11.4823 (HOMO)
        14                          0.1013790               2.7587 (LUMO)
        15                          0.1115436               3.0353
        16                          0.1370909               3.7304
        17                          0.1487355               4.0473
        18                          0.1496827               4.0731
        19                          0.1575417               4.2869
        20                          0.2025830               5.5126
        21                          0.2068170               5.6278
        22                          0.2344631               6.3801
        23                          0.2488758               6.7723
        24                          0.2784105               7.5759
       ...                                ...                  ...
        26                          0.3010767               8.1927
      -------------------------------------------------------------
                  HL-Gap            0.5233449 Eh           14.2409 eV
             Fermi-level           -0.1602935 Eh           -4.3618 eV

     #   Z          covCN         q      C6AA      α(0)
     1   6 C        3.751    -0.101    22.492     6.763
     2   1 H        0.925     0.033     2.551     2.498
     3   1 H        0.925     0.035     2.513     2.479
     4   1 H        0.925     0.030     2.585     2.514
     5   6 C        3.800    -0.053    21.519     6.605
     6   1 H        0.924     0.026     2.643     2.543
     7   1 H        0.924     0.030     2.590     2.517
     8   6 C        3.800    -0.053    21.519     6.605
     9   1 H        0.924     0.026     2.644     2.543
    10   1 H        0.924     0.030     2.591     2.517
    11   6 C        3.751    -0.101    22.492     6.763
    12   1 H        0.925     0.035     2.512     2.478
    13   1 H        0.925     0.032     2.552     2.498
    14   1 H        0.925     0.030     2.585     2.514

 Mol. C6AA /au·bohr⁶  :       1208.191076
 Mol. C8AA /au·bohr⁸  :      24487.142834
 Mol. α(0) /au        :         51.836702


Wiberg/Mayer (AO) data.
largest (>0.10) Wiberg bond orders for each atom

 ---------------------------------------------------------------------------
     #   Z sym  total        # sym  WBO       # sym  WBO       # sym  WBO
 ---------------------------------------------------------------------------
     1   6 C    3.997 --     5 C    1.020     2 H    0.988     4 H    0.988
                             3 H    0.986
     2   1 H    0.999 --     1 C    0.988
     3   1 H    0.999 --     1 C    0.986
     4   1 H    0.999 --     1 C    0.988
     5   6 C    3.998 --     1 C    1.020     8 C    1.008     6 H    0.979
                             7 H    0.978
     6   1 H    0.999 --     5 C    0.979
     7   1 H    0.999 --     5 C    0.978
     8   6 C    3.998 --    11 C    1.020     5 C    1.008     9 H    0.979
                            10 H    0.978
     9   1 H    0.999 --     8 C    0.979
    10   1 H    0.999 --     8 C    0.978
    11   6 C    3.997 --     8 C    1.020    13 H    0.988    14 H    0.988
                            12 H    0.986
    12   1 H    0.999 --    11 C    0.986
    13   1 H    0.999 --    11 C    0.988
    14   1 H    0.999 --    11 C    0.988
 ---------------------------------------------------------------------------

Topologies differ in total number of bonds
Writing topology from bond orders to xtbtopo.mol

molecular dipole:
                 x           y           z       tot (Debye)
 q only:       -0.004      -0.002       0.014
   full:       -0.003      -0.002       0.011       0.031
molecular quadrupole (traceless):
                xx          xy          yy          xz          yz          zz
 q only:       -0.056      -0.000      -0.103      -0.158       0.050       0.158
  q+dip:        0.561      -0.124      -0.539       0.090      -0.029      -0.022
   full:        0.249      -0.061      -0.286      -0.015       0.011       0.037

           -------------------------------------------------
          |                Geometry Summary                 |
           -------------------------------------------------

      molecular mass/u    :       58.1223511
   center of mass at/Å    :       -2.3663944       1.7610962       1.7240728
Note: The following floating-point exceptions are signalling: IEEE_UNDERFLOW_FLAG IEEE_DENORMAL
normal termination of xtb
  moments of inertia/u·Å² :        0.3748122E+02   0.1059431E+03   0.1229860E+03
rotational constants/cm⁻¹ :        0.4497621E+00   0.1591196E+00   0.1370695E+00

 * 13 selected distances

     #   Z          #   Z                                           value/Å
     1   6 C        2   1 H                                       1.0881488
     1   6 C        3   1 H                                       1.0867902
     1   6 C        4   1 H                                       1.0877401
     1   6 C        5   6 C                                       1.5243212
     5   6 C        6   1 H                                       1.0928923
     5   6 C        7   1 H                                       1.0925786
     5   6 C        8   6 C                                       1.5291735 (max)
     8   6 C        9   1 H                                       1.0929281
     8   6 C       10   1 H                                       1.0926108
     8   6 C       11   6 C                                       1.5242320
    11   6 C       12   1 H                                       1.0867893 (min)
    11   6 C       13   1 H                                       1.0881493
    11   6 C       14   1 H                                       1.0877257

 * 2 distinct bonds (by element types)

   Z      Z             #   av. dist./Å        max./Å        min./Å
   1 H    6 C          10     1.0896353     1.0929281     1.0867893
   6 C    6 C           3     1.5259089     1.5291735     1.5242320


optimized geometry written to: xtbopt.xyz


           -------------------------------------------------
          | TOTAL ENERGY              -13.664175041136 Eh   |
          | GRADIENT NORM               0.000184154555 Eh/α |
          | HOMO-LUMO GAP              14.240940006548 eV   |
           -------------------------------------------------

------------------------------------------------------------------------
 * finished run on 2026/08/11 at 11:12:00.922     
------------------------------------------------------------------------
 total:
 * wall-time:     0 d,  0 h,  0 min,  0.356 sec
 *  cpu-time:     0 d,  0 h,  0 min,  1.365 sec
 * ratio c/w:     3.836 speedup
 SCF:
 * wall-time:     0 d,  0 h,  0 min,  0.085 sec
 *  cpu-time:     0 d,  0 h,  0 min,  0.331 sec
 * ratio c/w:     3.890 speedup
 ANC optimizer:
 * wall-time:     0 d,  0 h,  0 min,  0.246 sec
 *  cpu-time:     0 d,  0 h,  0 min,  0.939 sec
 * ratio c/w:     3.820 speedup

