14
 energy: -13.664175041136 gnorm: 0.000184154555 xtb: 6.7.1 (edcfbbe)
C           -2.83534225072823        0.17568860614006        1.97283086530097
H           -3.88045139382302        0.25237861763028        1.67968747489048
H           -2.75460795130442        0.42262375521509        3.02811176068990
H           -2.51808536948595       -0.85649097906611        1.84194264523085
C           -1.97524606184948        1.10523114621887        1.12445598739559
H           -2.01308400965750        0.76875309432810        0.08533896730300
H           -0.93577318708403        1.03990700181814        1.45454197099464
C           -2.42974843198937        2.56416287799823        1.18204998883999
H           -1.87743006891082        3.13181191392085        0.42891606410482
H           -3.49019241665530        2.62001427261599        0.92487838035357
C           -2.20452222534912        3.20859053447673        2.54486651756058
H           -2.80187290458587        2.72170895655227        3.31117539547863
H           -1.15637573756418        3.13987659290323        2.82900752868516
H           -2.48294433101289        4.25968615924805        2.51612355317190
