%mem=1GB
%nprocshared=1
%chk=GauNonBon.chk
#p Amber=(SoftOnly,Print) nosymm Freq=intmodes
 
Title

0 1
H-HA-+0.093932  -1.009677  2.505917  0.000000
H-HA-+0.093275  -0.917442  -2.495849  -0.000000
H-HA-+0.090619  -3.061910  -1.262584  0.000000
H-HA-+0.111621  3.453102  -0.082375  0.000001
H-HA-+0.096456  1.993210  2.173240  0.000000
C-CA--0.131647  1.620451  1.163136  -0.000000
C-CA--0.001193  2.382297  0.030455  0.000000
C-CA--0.026843  0.248141  0.748383  -0.000000
N-NA--0.412282  1.561959  -1.077509  0.000000
C-CA-+0.087766  0.247035  -0.670140  -0.000000
C-CA--0.096803  -0.979704  1.423874  -0.000000
C-CA--0.109301  -0.932234  -1.413394  -0.000000
C-CA--0.111902  -2.151543  0.689333  0.000000
C-CA--0.106243  -2.128208  -0.716107  0.000000
H-HA-+0.089583  -3.104872  1.200941  0.000001
H-HA-+0.332999  1.876463  -2.029966  0.000000

! Master function
NonBon 3 1 0 0 0.000 0.000 0.500 0.000 0.000 -1.2
! SMARTFIELD FF
!Bonds
HrmStr1 CA CA  0.0 1.398
HrmStr1 CA HA  0.0 1.082
HrmStr1 CA NA  0.0 1.379
HrmStr1 NA HA  0.0 1.080
!Angles
HrmBnd1 CA CA CA  0.0 1.000
HrmBnd1 CA CA HA  0.0 1.000
HrmBnd1 CA CA NA  0.0 1.000
HrmBnd1 CA NA CA  0.0 1.000
HrmBnd1 CA NA HA  0.0 1.000
HrmBnd1 HA CA NA  0.0 1.000
!Torsions
AmbTrs CA CA CA CA 0 180 0 0  0. 0. 0. 0. 4.0
AmbTrs CA CA CA HA 0 180 0 0  0. 0. 0. 0. 4.0
AmbTrs CA CA CA NA 0 180 0 0  0. 0. 0. 0. 4.0
AmbTrs CA CA NA HA 0 180 0 0  0. 0. 0. 0. 4.0
AmbTrs CA NA CA CA 0 180 0 0  0. 0. 0. 0. 4.0
AmbTrs HA CA CA HA 0 180 0 0  0. 0. 0. 0. 4.0
AmbTrs HA CA CA NA 0 180 0 0  0. 0. 0. 0. 4.0
AmbTrs HA CA NA CA 0 180 0 0  0. 0. 0. 0. 4.0
AmbTrs HA NA CA CA 0 180 0 0  0. 0. 0. 0. 4.0
!VDW
VDW HA 1.4590 0.0150
VDW CA 1.9080 0.0860
VDW NA 1.8240 0.1700

