      -----------------------------------------------------------      
     |                   =====================                   |     
     |                           x T B                           |     
     |                   =====================                   |     
     |                         S. Grimme                         |     
     |          Mulliken Center for Theoretical Chemistry        |     
     |                    University of Bonn                     |     
      -----------------------------------------------------------      

   * xtb version 6.7.1 (edcfbbe) compiled by 'conda@5dfe00f5fb80' on 2026-06-10

   xtb is free software: you can redistribute it and/or modify it under
   the terms of the GNU Lesser General Public License as published by
   the Free Software Foundation, either version 3 of the License, or
   (at your option) any later version.
   
   xtb is distributed in the hope that it will be useful,
   but WITHOUT ANY WARRANTY; without even the implied warranty of
   MERCHANTABILITY or FITNESS FOR A PARTICULAR PURPOSE.  See the
   GNU Lesser General Public License for more details.
   
   Cite this work as:
   * C. Bannwarth, E. Caldeweyher, S. Ehlert, A. Hansen, P. Pracht,
     J. Seibert, S. Spicher, S. Grimme, WIREs Comput. Mol. Sci., 2020, 11,
     e01493. DOI: 10.1002/wcms.1493
   
   for GFN2-xTB:
   * C. Bannwarth, S. Ehlert and S. Grimme., J. Chem. Theory Comput., 2019,
     15, 1652-1671. DOI: 10.1021/acs.jctc.8b01176
   for GFN1-xTB:
   * S. Grimme, C. Bannwarth, P. Shushkov, J. Chem. Theory Comput., 2017,
     13, 1989-2009. DOI: 10.1021/acs.jctc.7b00118
   for GFN0-xTB:
   * P. Pracht, E. Caldeweyher, S. Ehlert, S. Grimme, ChemRxiv, 2019, preprint.
     DOI: 10.26434/chemrxiv.8326202.v1
   for GFN-FF:
   * S. Spicher and S. Grimme, Angew. Chem. Int. Ed., 2020, 59, 15665-15673.
     DOI: 10.1002/anie.202004239
   
   for ALPB and GBSA implicit solvation:
   * S. Ehlert, M. Stahn, S. Spicher, S. Grimme, J. Chem. Theory Comput.,
     2021, 17, 4250-4261. DOI: 10.1021/acs.jctc.1c00471
   
   for ddCOSMO and CPCM-X implicit solvation:
   * M. Stahn, S. Ehlert, S. Grimme, J. Phys. Chem. A,
     2023, XX, XXXX-XXXX. DOI: 10.1021/acs.jpca.3c04382
   
   for DFT-D4:
   * E. Caldeweyher, C. Bannwarth and S. Grimme, J. Chem. Phys., 2017,
     147, 034112. DOI: 10.1063/1.4993215
   * E. Caldeweyher, S. Ehlert, A. Hansen, H. Neugebauer, S. Spicher,
     C. Bannwarth and S. Grimme, J. Chem. Phys., 2019, 150, 154122.
     DOI: 10.1063/1.5090222
   * E. Caldeweyher, J.-M. Mewes, S. Ehlert and S. Grimme, Phys. Chem. Chem. Phys.
     2020, 22, 8499-8512. DOI: 10.1039/D0CP00502A
   
   for sTDA-xTB:
   * S. Grimme and C. Bannwarth, J. Chem. Phys., 2016, 145, 054103.
     DOI: 10.1063/1.4959605
   
   in the mass-spec context:
   * V. Asgeirsson, C. Bauer and S. Grimme, Chem. Sci., 2017, 8, 4879.
     DOI: 10.1039/c7sc00601b
   * J. Koopman and S. Grimme, ACS Omega 2019, 4, 12, 15120-15133.
     DOI: 10.1021/acsomega.9b02011
   
   for metadynamics refer to:
   * S. Grimme, J. Chem. Theory Comput., 2019, 155, 2847-2862
     DOI: 10.1021/acs.jctc.9b00143
   
   for SPH calculations refer to:
   * S. Spicher and S. Grimme, J. Chem. Theory Comput., 2021, 17, 1701-1714
     DOI: 10.1021/acs.jctc.0c01306
   
   for ONIOM refer to:
   * C. Plett, A. Katbashev, S. Ehlert, S. Grimme, M. Bursch,
     Phys. Chem. Chem. Phys., 2023, 25, 17860-17868. DOI: 10.1039/D3CP02178E
   
   for DIPRO refer to:
   * J. Kohn, N. Gildemeister, S. Grimme, D. Fazzi, A. Hansen,
     J. Chem. Phys., 2023, just accepted.
   
   for PTB refer to:
   * S. Grimme, M. Mueller, A. Hansen, J. Chem. Phys., 2023, 158, 124111.
     DOI: 10.1063/5.0137838
   
   with help from (in alphabetical order)
   P. Atkinson, C. Bannwarth, F. Bohle, G. Brandenburg, E. Caldeweyher
   M. Checinski, S. Dohm, S. Ehlert, S. Ehrlich, I. Gerasimov, C. Hölzer
   A. Katbashev, J. Kohn, J. Koopman, C. Lavigne, S. Lehtola, F. März, M. Müller,
   F. Musil, H. Neugebauer, J. Pisarek, C. Plett, P. Pracht, F. Pultar,
   J. Seibert, P. Shushkov, S. Spicher, M. Stahn, M. Steiner, T. Strunk,
   J. Stückrath, T. Rose, and J. Unsleber
   
 * started run on 2026/08/11 at 11:12:00.938     
   ID    Z sym.   atoms
    1    6 C      1, 5, 8, 11
    2    1 H      2-4, 6, 7, 9, 10, 12-14

           -------------------------------------------------
          |                Calculation Setup                |
           -------------------------------------------------

          program call               : xtb input.xyz --gfn2 --opt tight --chrg 0 --uhf 0 --iterations 250
          coordinate file            : input.xyz
          omp threads                :                     4


           -------------------------------------------------
          |                 G F N 2 - x T B                 |
           -------------------------------------------------

        Reference                      10.1021/acs.jctc.8b01176
      * Hamiltonian:
        H0-scaling (s, p, d)           1.850000    2.230000    2.230000
        zeta-weighting                 0.500000
      * Dispersion:
        s8                             2.700000
        a1                             0.520000
        a2                             5.000000
        s9                             5.000000
      * Repulsion:
        kExp                           1.500000    1.000000
        rExp                           1.000000
      * Coulomb:
        alpha                          2.000000
        third order                    shell-resolved
        anisotropic                    true
        a3                             3.000000
        a5                             4.000000
        cn-shift                       1.200000
        cn-exp                         4.000000
        max-rad                        5.000000


          ...................................................
          :                      SETUP                      :
          :.................................................:
          :  # basis functions                  26          :
          :  # atomic orbitals                  26          :
          :  # shells                           18          :
          :  # electrons                        26          :
          :  max. iterations                   250          :
          :  Hamiltonian                  GFN2-xTB          :
          :  restarted?                      false          :
          :  GBSA solvation                  false          :
          :  PC potential                    false          :
          :  electronic temp.          300.0000000     K    :
          :  accuracy                    1.0000000          :
          :  -> integral cutoff          0.2500000E+02      :
          :  -> integral neglect         0.1000000E-07      :
          :  -> SCF convergence          0.1000000E-05 Eh   :
          :  -> wf. convergence          0.1000000E-03 e    :
          :  Broyden damping             0.4000000          :
          :  net charge                          0          :
          :  unpaired electrons                  0          :
          ...................................................

 iter      E             dE          RMSdq      gap      omega  full diag
   1    -13.8298811 -0.138299E+02  0.252E+00   13.78       0.0  T
   2    -13.8693776 -0.394965E-01  0.128E+00   13.38       1.0  T
   3    -13.8698167 -0.439068E-03  0.687E-01   13.36       1.0  T
   4    -13.8699300 -0.113289E-03  0.918E-02   13.38       1.0  T
   5    -13.8699365 -0.652619E-05  0.507E-02   13.38       1.0  T
   6    -13.8699368 -0.341210E-06  0.188E-03   13.38      14.2  T
   7    -13.8699368 -0.436950E-08  0.738E-04   13.38      36.2  T
   8    -13.8699368 -0.555284E-09  0.112E-04   13.38     238.3  T

   *** convergence criteria satisfied after 8 iterations ***

         #    Occupation            Energy/Eh            Energy/eV
      -------------------------------------------------------------
         1        2.0000           -0.6167260             -16.7820
       ...           ...                  ...                  ...
         7        2.0000           -0.4884683             -13.2919
         8        2.0000           -0.4785226             -13.0213
         9        2.0000           -0.4544707             -12.3668
        10        2.0000           -0.4397078             -11.9651
        11        2.0000           -0.4383357             -11.9277
        12        2.0000           -0.4264631             -11.6047
        13        2.0000           -0.4173485             -11.3566 (HOMO)
        14                          0.0742918               2.0216 (LUMO)
        15                          0.1208154               3.2876
        16                          0.1255691               3.4169
        17                          0.1512447               4.1156
        18                          0.1636304               4.4526
       ...                                ...                  ...
        26                          0.3055129               8.3134
      -------------------------------------------------------------
                  HL-Gap            0.4916403 Eh           13.3782 eV
             Fermi-level           -0.1715283 Eh           -4.6675 eV

 SCC (total)                   0 d,  0 h,  0 min,  0.088 sec
 SCC setup                      ...        0 min,  0.001 sec (  1.223%)
 Dispersion                     ...        0 min,  0.003 sec (  3.414%)
 classical contributions        ...        0 min,  0.003 sec (  3.305%)
 integral evaluation            ...        0 min,  0.009 sec ( 10.285%)
 iterations                     ...        0 min,  0.067 sec ( 76.164%)
 molecular gradient             ...        0 min,  0.005 sec (  5.381%)
 printout                       ...        0 min,  0.000 sec (  0.205%)

         :::::::::::::::::::::::::::::::::::::::::::::::::::::
         ::                     SUMMARY                     ::
         :::::::::::::::::::::::::::::::::::::::::::::::::::::
         :: total energy             -13.663912314298 Eh    ::
         :: gradient norm              0.011861643954 Eh/a0 ::
         :: HOMO-LUMO gap             13.378214230601 eV    ::
         ::.................................................::
         :: SCC energy               -13.869933007483 Eh    ::
         :: -> isotropic ES            0.002895362511 Eh    ::
         :: -> anisotropic ES          0.005095082220 Eh    ::
         :: -> anisotropic XC          0.009009783628 Eh    ::
         :: -> dispersion             -0.006018534330 Eh    ::
         :: repulsion energy           0.206020693185 Eh    ::
         :: add. restraining           0.000000000000 Eh    ::
         :: total charge               0.000000000000 e     ::
         :::::::::::::::::::::::::::::::::::::::::::::::::::::

      ----------------------------------------------------------- 
     |                   =====================                   |
     |                        A N C O P T                        |
     |                   =====================                   |
     |               Approximate Normal Coordinate               |
     |                Rational Function Optimizer                |
      ----------------------------------------------------------- 
      ----------------------------------------------------------- 
     |                   =====================                   |
     |                        A N C O P T                        |
     |                   =====================                   |
     |               Approximate Normal Coordinate               |
     |                Rational Function Optimizer                |
      ----------------------------------------------------------- 

          ...................................................
          :                      SETUP                      :
          :.................................................:
          :   optimization level             tight          :
          :   max. optcycles                   200          :
          :   ANC micro-cycles                  20          :
          :   degrees of freedom                36          :
          :.................................................:
          :   RF solver                   davidson          :
          :   write xtbopt.log                true          :
          :   linear?                        false          :
          :   energy convergence         0.1000000E-05 Eh   :
          :   grad. convergence          0.8000000E-03 Eh/α :
          :   maxmium RF displ.          1.0000000          :
          :   Hlow (freq-cutoff)         0.1000000E-01      :
          :   Hmax (freq-cutoff)         5.0000000          :
          :   S6 in model hess.         20.0000000          :
          ...................................................

generating ANC from exact Hessian ...
Using Lindh-Hessian (1995)
 Shifting diagonal of input Hessian by    5.9178357705527247E-003
 Lowest  eigenvalues of input Hessian
    0.000000    0.000000    0.000000    0.000000    0.000000    0.000000
    0.010000    0.013126    0.013648    0.018040    0.022068    0.044698
    0.046799    0.056847    0.059068    0.059844    0.061326    0.070050
 Highest eigenvalues
    1.108661    1.128634    1.173817    1.192448    1.212189    1.289375


........................................................................
.............................. CYCLE    1 ..............................
........................................................................

 iter      E             dE          RMSdq      gap      omega  full diag
   1    -13.8699368 -0.138699E+02  0.344E-05   13.38       0.0  T
   2    -13.8699368 -0.363265E-11  0.168E-05   13.38    1589.7  T
   3    -13.8699368 -0.165201E-12  0.846E-06   13.38    3157.5  T
     SCC iter.                  ...        0 min,  0.002 sec
     gradient                   ...        0 min,  0.002 sec
 * total energy  :   -13.6639123 Eh     change       -0.8283152E-11 Eh
   gradient norm :     0.0118612 Eh/α   predicted     0.0000000E+00 (-100.00%)
   displ. norm   :     0.1717375 α      lambda       -0.1006384E-02
   maximum displ.:     0.1246966 α      in ANC's #5, #4, #3, ...

........................................................................
.............................. CYCLE    2 ..............................
........................................................................

 iter      E             dE          RMSdq      gap      omega  full diag
   1    -13.8736060 -0.138736E+02  0.131E-01   13.78       0.0  T
   2    -13.8736071 -0.112498E-05  0.765E-02   13.78       1.0  T
   3    -13.8736073 -0.185325E-06  0.339E-03   13.78       7.9  T
   4    -13.8736074 -0.241519E-07  0.140E-03   13.78      19.1  T
   5    -13.8736074 -0.646942E-09  0.569E-04   13.78      47.0  T
   6    -13.8736074 -0.174769E-09  0.773E-05   13.78     345.8  T
     SCC iter.                  ...        0 min,  0.005 sec
     gradient                   ...        0 min,  0.003 sec
 * total energy  :   -13.6645082 Eh     change       -0.5958851E-03 Eh
   gradient norm :     0.0046494 Eh/α   predicted    -0.5180337E-03 ( -13.06%)
   displ. norm   :     0.1314261 α      lambda       -0.2557561E-03
   maximum displ.:     0.0877903 α      in ANC's #4, #3, #5, ...

........................................................................
.............................. CYCLE    3 ..............................
........................................................................

 iter      E             dE          RMSdq      gap      omega  full diag
   1    -13.8754728 -0.138755E+02  0.532E-02   13.82       0.0  T
   2    -13.8754733 -0.467689E-06  0.312E-02   13.82       1.0  T
   3    -13.8754733 -0.422416E-07  0.240E-03   13.82      11.2  T
   4    -13.8754733 -0.116412E-07  0.762E-04   13.82      35.1  T
   5    -13.8754733 -0.371198E-09  0.339E-04   13.82      78.9  T
     SCC iter.                  ...        0 min,  0.003 sec
     gradient                   ...        0 min,  0.002 sec
 * total energy  :   -13.6647026 Eh     change       -0.1944101E-03 Eh
   gradient norm :     0.0023127 Eh/α   predicted    -0.1300854E-03 ( -33.09%)
   displ. norm   :     0.2583356 α      lambda       -0.3213215E-03
   maximum displ.:     0.1798772 α      in ANC's #3, #4, #6, ...

........................................................................
.............................. CYCLE    4 ..............................
........................................................................

 iter      E             dE          RMSdq      gap      omega  full diag
   1    -13.8757079 -0.138757E+02  0.780E-02   13.83       0.0  T
   2    -13.8757088 -0.878836E-06  0.466E-02   13.83       1.0  T
   3    -13.8757089 -0.693167E-07  0.367E-03   13.83       7.3  T
   4    -13.8757089 -0.378507E-07  0.122E-03   13.83      21.9  T
   5    -13.8757089 -0.371575E-09  0.324E-04   13.83      82.6  T
   6    -13.8757089 -0.120117E-09  0.697E-05   13.83     383.2  T
     SCC iter.                  ...        0 min,  0.004 sec
     gradient                   ...        0 min,  0.002 sec
 * total energy  :   -13.6649134 Eh     change       -0.2107429E-03 Eh
   gradient norm :     0.0055509 Eh/α   predicted    -0.1713878E-03 ( -18.67%)
   displ. norm   :     0.1516494 α      lambda       -0.1563591E-03
   maximum displ.:     0.1045951 α      in ANC's #4, #3, #6, ...

........................................................................
.............................. CYCLE    5 ..............................
........................................................................

 iter      E             dE          RMSdq      gap      omega  full diag
   1    -13.8755727 -0.138756E+02  0.469E-02   13.80       0.0  T
   2    -13.8755728 -0.619096E-07  0.281E-02   13.80       1.0  T
   3    -13.8755728 -0.225222E-07  0.104E-03   13.80      25.7  T
   4    -13.8755728 -0.196675E-08  0.546E-04   13.80      49.0  T
   5    -13.8755728 -0.193317E-09  0.105E-04   13.80     255.2  T
     SCC iter.                  ...        0 min,  0.002 sec
     gradient                   ...        0 min,  0.002 sec
 * total energy  :   -13.6650268 Eh     change       -0.1134684E-03 Eh
   gradient norm :     0.0050431 Eh/α   predicted    -0.7997732E-04 ( -29.52%)
   displ. norm   :     0.1039070 α      lambda       -0.1308562E-03
   maximum displ.:     0.0662992 α      in ANC's #3, #4, #5, ...

........................................................................
.............................. CYCLE    6 ..............................
........................................................................

 iter      E             dE          RMSdq      gap      omega  full diag
   1    -13.8760948 -0.138761E+02  0.451E-02   13.78       0.0  T
   2    -13.8760954 -0.636571E-06  0.263E-02   13.78       1.0  T
   3    -13.8760955 -0.535059E-07  0.368E-03   13.78       7.3  T
   4    -13.8760955 -0.217495E-07  0.109E-03   13.78      24.6  T
   5    -13.8760955 -0.253952E-09  0.307E-04   13.78      87.0  T
   6    -13.8760955 -0.149415E-09  0.586E-05   13.78     456.4  T
     SCC iter.                  ...        0 min,  0.003 sec
     gradient                   ...        0 min,  0.002 sec
 * total energy  :   -13.6650987 Eh     change       -0.7190014E-04 Eh
   gradient norm :     0.0013249 Eh/α   predicted    -0.6613619E-04 (  -8.02%)
   displ. norm   :     0.1468919 α      lambda       -0.2759858E-04
   maximum displ.:     0.1122553 α      in ANC's #3, #4, #1, ...

........................................................................
.............................. CYCLE    7 ..............................
........................................................................

 iter      E             dE          RMSdq      gap      omega  full diag
   1    -13.8746587 -0.138747E+02  0.445E-02   13.79       0.0  T
   2    -13.8746592 -0.507293E-06  0.264E-02   13.79       1.0  T
   3    -13.8746592 -0.303021E-07  0.264E-03   13.79      10.1  T
   4    -13.8746592 -0.741980E-08  0.753E-04   13.79      35.5  T
   5    -13.8746592 -0.315712E-09  0.371E-04   13.79      72.1  T
     SCC iter.                  ...        0 min,  0.002 sec
     gradient                   ...        0 min,  0.002 sec
 * total energy  :   -13.6650988 Eh     change       -0.1175342E-06 Eh
   gradient norm :     0.0034465 Eh/α   predicted    -0.1393161E-04 (*******%)
   displ. norm   :     0.0384015 α      lambda       -0.2522887E-04
   maximum displ.:     0.0283156 α      in ANC's #4, #3, #6, ...

........................................................................
.............................. CYCLE    8 ..............................
........................................................................

 iter      E             dE          RMSdq      gap      omega  full diag
   1    -13.8755638 -0.138756E+02  0.148E-02   13.80       0.0  T
   2    -13.8755640 -0.180566E-06  0.840E-03   13.80       3.2  T
   3    -13.8755640 -0.792813E-08  0.212E-03   13.80      12.6  T
   4    -13.8755640 -0.233856E-08  0.420E-04   13.80      63.6  T
   5    -13.8755640 -0.588791E-10  0.207E-04   13.80     129.0  T
     SCC iter.                  ...        0 min,  0.002 sec
     gradient                   ...        0 min,  0.002 sec
 * total energy  :   -13.6651148 Eh     change       -0.1593127E-04 Eh
   gradient norm :     0.0012172 Eh/α   predicted    -0.1263225E-04 ( -20.71%)
   displ. norm   :     0.0268891 α      lambda       -0.5396388E-05
   maximum displ.:     0.0186533 α      in ANC's #1, #4, #5, ...

........................................................................
.............................. CYCLE    9 ..............................
........................................................................

 iter      E             dE          RMSdq      gap      omega  full diag
   1    -13.8761979 -0.138762E+02  0.970E-03   13.80       0.0  T
   2    -13.8761980 -0.731958E-07  0.551E-03   13.80       4.9  T
   3    -13.8761980 -0.277890E-08  0.125E-03   13.80      21.5  T
   4    -13.8761980 -0.571994E-09  0.237E-04   13.80     112.9  T
   5    -13.8761980 -0.253877E-10  0.122E-04   13.80     218.5  T
     SCC iter.                  ...        0 min,  0.002 sec
     gradient                   ...        0 min,  0.002 sec
 * total energy  :   -13.6651192 Eh     change       -0.4432249E-05 Eh
   gradient norm :     0.0005127 Eh/α   predicted    -0.2698049E-05 ( -39.13%)
   displ. norm   :     0.0257693 α      lambda       -0.2269696E-05
   maximum displ.:     0.0203634 α      in ANC's #1, #3, #4, ...

........................................................................
.............................. CYCLE   10 ..............................
........................................................................

 iter      E             dE          RMSdq      gap      omega  full diag
   1    -13.8762126 -0.138762E+02  0.788E-03   13.80       0.0  T
   2    -13.8762126 -0.173308E-08  0.471E-03   13.80       5.7  T
   3    -13.8762126 -0.479277E-09  0.154E-04   13.80     173.2  T
   4    -13.8762126 -0.359428E-10  0.813E-05   13.80     328.5  T
     SCC iter.                  ...        0 min,  0.002 sec
     gradient                   ...        0 min,  0.002 sec
 * total energy  :   -13.6651222 Eh     change       -0.2964811E-05 Eh
   gradient norm :     0.0004880 Eh/α   predicted    -0.1133818E-05 ( -61.76%)
   displ. norm   :     0.0398425 α      lambda       -0.2859030E-05
   maximum displ.:     0.0276836 α      in ANC's #3, #1, #2, ...

........................................................................
.............................. CYCLE   11 ..............................
........................................................................

 iter      E             dE          RMSdq      gap      omega  full diag
   1    -13.8760225 -0.138760E+02  0.112E-02   13.80       0.0  T
   2    -13.8760225 -0.890761E-08  0.671E-03   13.80       4.0  T
   3    -13.8760225 -0.113802E-08  0.272E-04   13.80      98.4  T
   4    -13.8760225 -0.100677E-09  0.127E-04   13.80     211.2  T
     SCC iter.                  ...        0 min,  0.003 sec
     gradient                   ...        0 min,  0.002 sec
 * total energy  :   -13.6651253 Eh     change       -0.3144768E-05 Eh
   gradient norm :     0.0001581 Eh/α   predicted    -0.1431955E-05 ( -54.47%)
   displ. norm   :     0.0283065 α      lambda       -0.1224241E-05
   maximum displ.:     0.0223500 α      in ANC's #1, #3, #4, ...

........................................................................
.............................. CYCLE   12 ..............................
........................................................................

 iter      E             dE          RMSdq      gap      omega  full diag
   1    -13.8759990 -0.138760E+02  0.900E-03   13.80       0.0  T
   2    -13.8759990 -0.158906E-08  0.538E-03   13.80       5.0  T
   3    -13.8759991 -0.635179E-09  0.166E-04   13.80     160.8  T
   4    -13.8759991 -0.185096E-10  0.783E-05   13.80     341.5  T
     SCC iter.                  ...        0 min,  0.002 sec
     gradient                   ...        0 min,  0.002 sec
 * total energy  :   -13.6651266 Eh     change       -0.1259796E-05 Eh
   gradient norm :     0.0001625 Eh/α   predicted    -0.6123860E-06 ( -51.39%)
   displ. norm   :     0.0134169 α      lambda       -0.4094444E-06
   maximum displ.:     0.0119979 α      in ANC's #1, #4, #3, ...

........................................................................
.............................. CYCLE   13 ..............................
........................................................................

 iter      E             dE          RMSdq      gap      omega  full diag
   1    -13.8760292 -0.138760E+02  0.356E-03   13.80       0.0  T
   2    -13.8760292 -0.346231E-09  0.212E-03   13.80      12.6  T
   3    -13.8760292 -0.112719E-09  0.739E-05   13.80     361.6  T
   4    -13.8760292 -0.237677E-11  0.376E-05   13.80     710.8  T
     SCC iter.                  ...        0 min,  0.002 sec
     gradient                   ...        0 min,  0.002 sec
 * total energy  :   -13.6651270 Eh     change       -0.4452392E-06 Eh
   gradient norm :     0.0000873 Eh/α   predicted    -0.2039978E-06 ( -54.18%)
   displ. norm   :     0.0063090 α      lambda       -0.1607403E-06
   maximum displ.:     0.0062159 α      in ANC's #1, #4, #3, ...

   *** GEOMETRY OPTIMIZATION CONVERGED AFTER 13 ITERATIONS ***

------------------------------------------------------------------------
 total energy gain   :        -0.0012147 Eh       -0.7622 kcal/mol
 total RMSD          :         0.2314259 a0        0.1225 Å
 total power (kW/mol):        -0.2453231 (step)  -35.5350 (real)
------------------------------------------------------------------------

 ANCopt (total)                0 d,  0 h,  0 min,  0.090 sec
 optimizer setup                ...        0 min,  0.000 sec (  0.135%)
 model hessian                  ...        0 min,  0.005 sec (  5.468%)
 ANC generation                 ...        0 min,  0.001 sec (  0.585%)
 coordinate transformation      ...        0 min,  0.000 sec (  0.134%)
 single point calculation       ...        0 min,  0.077 sec ( 86.332%)
 optimization log               ...        0 min,  0.002 sec (  2.384%)
 hessian update                 ...        0 min,  0.001 sec (  0.790%)
 rational function              ...        0 min,  0.002 sec (  2.615%)

================
 final structure:
================
14
 xtb: 6.7.1 (edcfbbe)
C           -2.48375953701528        0.36794444412319       -0.00548545907301
H           -2.08852672867187       -0.64486374824343       -0.03534114660522
H           -2.17830308411245        0.88243538577848       -0.91421891843227
H           -3.57028089374887        0.31222417527266        0.00600313119038
C           -1.97355806523878        1.10844642521632        1.22456072243044
H           -0.88147337951156        1.13533710496147        1.20470289873363
H           -2.27425877074376        0.56732184713375        2.12485389301287
C           -2.50970268250482        2.53633372328934        1.29408884748787
H           -2.21593511568733        3.07491847979636        0.38998698779772
H           -3.60158783819924        2.50936998445644        1.32228551904928
C           -1.98980699844043        3.28056505859478        2.51777981055754
H           -2.28758771662835        2.76894533754272        3.43071880121471
H           -0.90340993009654        3.33628080731693        2.49694299868391
H           -2.38469801940070        4.29359791476098        2.54764210395214

 Bond Distances (Angstroems)
 ---------------------------
C1-H2=1.0876         C1-H3=1.0880         C1-H4=1.0880         C1-C5=1.5237         H2-C1=1.0876         H3-C1=1.0880         
H4-C1=1.0880         C5-C1=1.5237         C5-H6=1.0926         C5-H7=1.0926         C5-C8=1.5268         H6-C5=1.0926         
H7-C5=1.0926         C8-C5=1.5268         C8-H9=1.0926         C8-H10=1.0926        C8-C11=1.5237        H9-C8=1.0926         
H10-C8=1.0926        C11-C8=1.5237        C11-H12=1.0881       C11-H13=1.0880       C11-H14=1.0877       H12-C11=1.0881       
H13-C11=1.0880       H14-C11=1.0877       
 C  H  Rav=1.0898 sigma=0.0023  Rmin=1.0876  Rmax=1.0926    10
 C  C  Rav=1.5247 sigma=0.0015  Rmin=1.5237  Rmax=1.5268     3

 selected bond angles (degree)
 --------------------
H3-C1-H2=108.38                H4-C1-H2=108.39                H4-C1-H3=108.26                C5-C1-H2=110.67                
C5-C1-H3=110.51                C5-C1-H4=110.53                H6-C5-C1=109.39                H7-C5-C1=109.41                
H7-C5-H6=107.59                C8-C5-C1=111.94                C8-C5-H6=109.20                C8-C5-H7=109.21                
H9-C8-C5=109.20                H10-C8-C5=109.21               H10-C8-H9=107.59               C11-C8-C5=111.93               
C11-C8-H9=109.39               C11-C8-H10=109.41              

 selected dihedral angles (degree)
 ---------------------------------
H6-C5-C1-H2= 58.74            H6-C5-C1-H3=298.66            H6-C5-C1-H4=178.83            H7-C5-C1-H2=301.11            
H7-C5-C1-H3=181.03            H7-C5-C1-H4= 61.20            C8-C5-C1-H2=179.91            C8-C5-C1-H3= 59.83            
C8-C5-C1-H4=300.00            H9-C8-C5-C1=301.78            H9-C8-C5-H6= 63.06            H9-C8-C5-H7=180.46            
H10-C8-C5-C1= 59.18           H10-C8-C5-H6=180.46           H10-C8-C5-H7=297.86           C11-C8-C5-C1=180.49           
C11-C8-C5-H6=301.77           C11-C8-C5-H7= 59.18           
           -------------------------------------------------
          |                Final Singlepoint                |
           -------------------------------------------------

          ...................................................
          :                      SETUP                      :
          :.................................................:
          :  # basis functions                  26          :
          :  # atomic orbitals                  26          :
          :  # shells                           18          :
          :  # electrons                        26          :
          :  max. iterations                   250          :
          :  Hamiltonian                  GFN2-xTB          :
          :  restarted?                      false          :
          :  GBSA solvation                  false          :
          :  PC potential                    false          :
          :  electronic temp.          300.0000000     K    :
          :  accuracy                    1.0000000          :
          :  -> integral cutoff          0.2500000E+02      :
          :  -> integral neglect         0.1000000E-07      :
          :  -> SCF convergence          0.1000000E-05 Eh   :
          :  -> wf. convergence          0.1000000E-03 e    :
          :  Broyden damping             0.4000000          :
          :  net charge                          0          :
          :  unpaired electrons                  0          :
          ...................................................

 iter      E             dE          RMSdq      gap      omega  full diag
   1    -13.8760292 -0.138760E+02  0.569E-06   13.80       0.0  T
   2    -13.8760292 -0.213163E-13  0.318E-06   13.80    8403.6  T
   3    -13.8760292 -0.710543E-14  0.941E-07   13.80   28405.9  T

   *** convergence criteria satisfied after 3 iterations ***

         #    Occupation            Energy/Eh            Energy/eV
      -------------------------------------------------------------
         1        2.0000           -0.6179697             -16.8158
       ...           ...                  ...                  ...
         7        2.0000           -0.4878872             -13.2761
         8        2.0000           -0.4789816             -13.0338
         9        2.0000           -0.4546537             -12.3718
        10        2.0000           -0.4395175             -11.9599
        11        2.0000           -0.4367282             -11.8840
        12        2.0000           -0.4258113             -11.5869
        13        2.0000           -0.4195576             -11.4167 (HOMO)
        14                          0.0876348               2.3847 (LUMO)
        15                          0.1267304               3.4485
        16                          0.1277848               3.4772
        17                          0.1525676               4.1516
        18                          0.1629110               4.4330
       ...                                ...                  ...
        26                          0.3114017               8.4737
      -------------------------------------------------------------
                  HL-Gap            0.5071924 Eh           13.8014 eV
             Fermi-level           -0.1659614 Eh           -4.5160 eV

 SCC (total)                   0 d,  0 h,  0 min,  0.005 sec
 SCC setup                      ...        0 min,  0.000 sec (  3.380%)
 Dispersion                     ...        0 min,  0.000 sec (  2.085%)
 classical contributions        ...        0 min,  0.000 sec (  1.050%)
 integral evaluation            ...        0 min,  0.001 sec ( 13.493%)
 iterations                     ...        0 min,  0.002 sec ( 35.342%)
 molecular gradient             ...        0 min,  0.002 sec ( 39.142%)
 printout                       ...        0 min,  0.000 sec (  5.123%)

         :::::::::::::::::::::::::::::::::::::::::::::::::::::
         ::                     SUMMARY                     ::
         :::::::::::::::::::::::::::::::::::::::::::::::::::::
         :: total energy             -13.665127016709 Eh    ::
         :: gradient norm              0.000087378590 Eh/a0 ::
         :: HOMO-LUMO gap             13.801407653789 eV    ::
         ::.................................................::
         :: SCC energy               -13.876025374410 Eh    ::
         :: -> isotropic ES            0.002998414872 Eh    ::
         :: -> anisotropic ES          0.004909549939 Eh    ::
         :: -> anisotropic XC          0.009059919625 Eh    ::
         :: -> dispersion             -0.006049023767 Eh    ::
         :: repulsion energy           0.210898357700 Eh    ::
         :: add. restraining           0.000000000000 Eh    ::
         :: total charge              -0.000000000000 e     ::
         :::::::::::::::::::::::::::::::::::::::::::::::::::::

           -------------------------------------------------
          |                Property Printout                |
           -------------------------------------------------

    * Orbital Energies and Occupations

         #    Occupation            Energy/Eh            Energy/eV
      -------------------------------------------------------------
         1        2.0000           -0.6179697             -16.8158
         2        2.0000           -0.5989731             -16.2989
         3        2.0000           -0.5679192             -15.4539
         4        2.0000           -0.5523988             -15.0315
         5        2.0000           -0.5138407             -13.9823
         6        2.0000           -0.4918479             -13.3839
         7        2.0000           -0.4878872             -13.2761
         8        2.0000           -0.4789816             -13.0338
         9        2.0000           -0.4546537             -12.3718
        10        2.0000           -0.4395175             -11.9599
        11        2.0000           -0.4367282             -11.8840
        12        2.0000           -0.4258113             -11.5869
        13        2.0000           -0.4195576             -11.4167 (HOMO)
        14                          0.0876348               2.3847 (LUMO)
        15                          0.1267304               3.4485
        16                          0.1277848               3.4772
        17                          0.1525676               4.1516
        18                          0.1629110               4.4330
        19                          0.1837123               4.9991
        20                          0.1937068               5.2710
        21                          0.1971466               5.3646
        22                          0.2245226               6.1096
        23                          0.2548825               6.9357
        24                          0.2645856               7.1997
       ...                                ...                  ...
        26                          0.3114017               8.4737
      -------------------------------------------------------------
                  HL-Gap            0.5071924 Eh           13.8014 eV
             Fermi-level           -0.1659614 Eh           -4.5160 eV

     #   Z          covCN         q      C6AA      α(0)
     1   6 C        3.752    -0.102    22.510     6.766
     2   1 H        0.925     0.032     2.554     2.499
     3   1 H        0.925     0.033     2.550     2.497
     4   1 H        0.925     0.033     2.550     2.497
     5   6 C        3.801    -0.053    21.534     6.607
     6   1 H        0.924     0.029     2.600     2.521
     7   1 H        0.924     0.029     2.601     2.522
     8   6 C        3.801    -0.053    21.534     6.607
     9   1 H        0.924     0.029     2.600     2.522
    10   1 H        0.924     0.029     2.601     2.522
    11   6 C        3.752    -0.102    22.510     6.766
    12   1 H        0.925     0.033     2.550     2.497
    13   1 H        0.925     0.033     2.550     2.497
    14   1 H        0.925     0.032     2.554     2.499

 Mol. C6AA /au·bohr⁶  :       1207.500491
 Mol. C8AA /au·bohr⁸  :      24480.555335
 Mol. α(0) /au        :         51.819465


Wiberg/Mayer (AO) data.
largest (>0.10) Wiberg bond orders for each atom

 ---------------------------------------------------------------------------
     #   Z sym  total        # sym  WBO       # sym  WBO       # sym  WBO
 ---------------------------------------------------------------------------
     1   6 C    3.997 --     5 C    1.019     4 H    0.988     3 H    0.988
                             2 H    0.988
     2   1 H    0.999 --     1 C    0.988
     3   1 H    0.999 --     1 C    0.988
     4   1 H    0.999 --     1 C    0.988
     5   6 C    3.998 --     1 C    1.019     8 C    1.009     7 H    0.979
                             6 H    0.979
     6   1 H    0.999 --     5 C    0.979
     7   1 H    0.999 --     5 C    0.979
     8   6 C    3.998 --    11 C    1.019     5 C    1.009    10 H    0.979
                             9 H    0.979
     9   1 H    0.999 --     8 C    0.979
    10   1 H    0.999 --     8 C    0.979
    11   6 C    3.997 --     8 C    1.019    12 H    0.988    13 H    0.988
                            14 H    0.988
    12   1 H    0.999 --    11 C    0.988
    13   1 H    0.999 --    11 C    0.988
    14   1 H    0.999 --    11 C    0.988
 ---------------------------------------------------------------------------

Topologies differ in total number of bonds
Writing topology from bond orders to xtbtopo.mol

molecular dipole:
                 x           y           z       tot (Debye)
 q only:        0.000       0.000      -0.000
   full:        0.000       0.000      -0.000       0.001
molecular quadrupole (traceless):
                xx          xy          yy          xz          yz          zz
 q only:       -0.105      -0.003       0.045       0.106       0.127       0.060
  q+dip:        0.603       0.014      -0.321      -0.512      -0.761      -0.282
   full:        0.261       0.008      -0.136      -0.227      -0.328      -0.125

           -------------------------------------------------
          |                Geometry Summary                 |
           -------------------------------------------------

      molecular mass/u    :       58.1223511
   center of mass at/Å    :       -2.2391029       1.8233632       1.2576705
Note: The following floating-point exceptions are signalling: IEEE_UNDERFLOW_FLAG IEEE_DENORMAL
normal termination of xtb
  moments of inertia/u·Å² :        0.2162916E+02   0.1369926E+03   0.1460843E+03
rotational constants/cm⁻¹ :        0.7793937E+00   0.1230551E+00   0.1153966E+00

 * 13 selected distances

     #   Z          #   Z                                           value/Å
     1   6 C        2   1 H                                       1.0876033 (min)
     1   6 C        3   1 H                                       1.0880263
     1   6 C        4   1 H                                       1.0880099
     1   6 C        5   6 C                                       1.5237004
     5   6 C        6   1 H                                       1.0925963
     5   6 C        7   1 H                                       1.0925954
     5   6 C        8   6 C                                       1.5268097 (max)
     8   6 C        9   1 H                                       1.0925993
     8   6 C       10   1 H                                       1.0925820
     8   6 C       11   6 C                                       1.5236771
    11   6 C       12   1 H                                       1.0880652
    11   6 C       13   1 H                                       1.0880245
    11   6 C       14   1 H                                       1.0876886

 * 2 distinct bonds (by element types)

   Z      Z             #   av. dist./Å        max./Å        min./Å
   1 H    6 C          10     1.0897791     1.0925993     1.0876033
   6 C    6 C           3     1.5247290     1.5268097     1.5236771


optimized geometry written to: xtbopt.xyz


           -------------------------------------------------
          | TOTAL ENERGY              -13.665127016709 Eh   |
          | GRADIENT NORM               0.000087378590 Eh/α |
          | HOMO-LUMO GAP              13.801407653789 eV   |
           -------------------------------------------------

------------------------------------------------------------------------
 * finished run on 2026/08/11 at 11:12:01.160     
------------------------------------------------------------------------
 total:
 * wall-time:     0 d,  0 h,  0 min,  0.222 sec
 *  cpu-time:     0 d,  0 h,  0 min,  0.845 sec
 * ratio c/w:     3.814 speedup
 SCF:
 * wall-time:     0 d,  0 h,  0 min,  0.088 sec
 *  cpu-time:     0 d,  0 h,  0 min,  0.346 sec
 * ratio c/w:     3.927 speedup
 ANC optimizer:
 * wall-time:     0 d,  0 h,  0 min,  0.096 sec
 *  cpu-time:     0 d,  0 h,  0 min,  0.354 sec
 * ratio c/w:     3.696 speedup

