14
 energy: -13.665127016709 gnorm: 0.000087378590 xtb: 6.7.1 (edcfbbe)
C           -2.48375953701528        0.36794444412319       -0.00548545907301
H           -2.08852672867187       -0.64486374824343       -0.03534114660522
H           -2.17830308411245        0.88243538577848       -0.91421891843227
H           -3.57028089374887        0.31222417527266        0.00600313119038
C           -1.97355806523878        1.10844642521632        1.22456072243044
H           -0.88147337951156        1.13533710496147        1.20470289873363
H           -2.27425877074376        0.56732184713375        2.12485389301287
C           -2.50970268250482        2.53633372328934        1.29408884748787
H           -2.21593511568733        3.07491847979636        0.38998698779772
H           -3.60158783819924        2.50936998445644        1.32228551904928
C           -1.98980699844043        3.28056505859478        2.51777981055754
H           -2.28758771662835        2.76894533754272        3.43071880121471
H           -0.90340993009654        3.33628080731693        2.49694299868391
H           -2.38469801940070        4.29359791476098        2.54764210395214
