14
HessFit conformer 009
C  -2.49341300  0.34945400 -0.01033300
H  -3.57538264  0.43278981 -0.12359247
H  -2.24734451 -0.71314897  0.04673193
H  -2.03397465  0.74446750 -0.91907423
C  -2.00023900  1.09707300  1.22694500
H  -0.90617800  1.07679900  1.25425000
H  -2.33381500  0.57262200  2.12794700
C  -2.47573600  2.54906500  1.28786500
H  -2.14216000  3.07351700  0.38686300
H  -3.56979700  2.56933900  1.26055900
C  -1.98256300  3.29668400  2.52514300
H  -0.89126000  3.32285300  2.56126900
H  -2.33875400  4.32789100  2.53819100
H  -2.32989700  2.81479100  3.44169600
