14
HessFit conformer 008
C  -1.86387406  0.44601499  2.60191398
H  -1.52345781 -0.58761189  2.52340851
H  -2.81865195  0.44078585  3.13229405
H  -1.14574490  0.98478221  3.22396725
C  -2.00023900  1.09707300  1.22694500
H  -2.69832828  0.51671062  0.61540846
H  -1.03821157  1.05654848  0.70638050
C  -2.47573600  2.54906500  1.28786500
H  -2.14216000  3.07351700  0.38686300
H  -3.56979700  2.56933900  1.26055900
C  -1.98256300  3.29668400  2.52514300
H  -2.51486281  2.97048278  3.42134712
H  -0.91745485  3.13153796  2.69455836
H  -2.13877785  4.37292851  2.42402009
