14
HessFit conformer 017
C  -2.99969265  0.10680232  1.82147675
H  -3.49375194 -0.47849603  1.04445543
H  -3.77565130  0.62332552  2.39070703
H  -2.50596935 -0.59282864  2.49947654
C  -2.00023900  1.09707300  1.22694500
H  -1.79684835  0.82998009  0.18511023
H  -1.04381595  1.01083255  1.75224867
C  -2.47573600  2.54906500  1.28786500
H  -2.14216000  3.07351700  0.38686300
H  -3.56979700  2.56933900  1.26055900
C  -1.98256300  3.29668400  2.52514300
H  -1.67667877  2.60160232  3.31014519
H  -1.12632849  3.93219577  2.29402093
H  -2.76644454  3.93485065  2.93891133
