14
 energy: -13.664177283170 gnorm: 0.000265377158 xtb: 6.7.1 (edcfbbe)
C           -2.92870467086995        0.20066732189000        1.92156096563912
H           -2.67428489782619       -0.84491246700876        1.76221967249458
H           -3.96914183966375        0.34691281124142        1.63875868064423
H           -2.82632917061769        0.41506917600926        2.98190161974892
C           -2.01984146638150        1.09879154359527        1.09024533753691
H           -2.08402975534686        0.79197521890115        0.04317824348383
H           -0.98415579060610        0.96326257846569        1.41093055605467
C           -2.38608015175681        2.58023206690864        1.18754293155106
H           -1.79545480565243        3.13417648305855        0.45343588409057
H           -3.43959945957331        2.70738929982785        0.92719695285774
C           -2.13133022208596        3.17129246523051        2.56938778926565
H           -1.09325120369835        3.02393993034513        2.86016875684729
H           -2.33795888385621        4.23930707607926        2.56703031966272
H           -2.76805336206467        2.70604905545603        3.31698622012279
