%mem=1GB
%nprocshared=1
%chk=0_zmat_mm.chk
#p opt=ModRedundant Amber=Softfirst nosymm geom=connectivity

 gly_opt.xyz

0  1
C-C-+0.26636 
O-OH--0.3691  1  r2
C-CT--0.0524  1  r3  2  a3
H-HC-+0.1018  3  r4  1  a4  2  d4
H-HC-+0.1106  3  r5  1  a5  2  d5
N-N3--0.6608  3  r6  1  a6  2  d6
H-H-+0.28452  6  r7  3  a7  1  d7
H-H-+0.28681  6  r8  3  a8  1  d8
O-O2--0.3223  1  r9  2  a9  3  d9
H-HO-+0.3545  2  r10  1  a10  3  d10
Variables:
r2= 1.3509
r3= 1.5095
a3= 111.72
r4= 1.1007
a4= 105.40
d4= 288.17
r5= 1.0920
a5= 108.37
d5=  41.55
r6= 1.4518
a6= 110.61
d6= 163.45
r7= 1.0127
a7= 110.00
d7=  34.65
r8= 1.0101
a8= 111.42
d8= 155.17
r9= 1.2029
a9= 123.02
d9= 181.82
r10= 0.9678
a10= 107.23
d10= 177.19

! Amber FF master function
NonBon 3 1 0 0 0.000 0.000 0.500 0.000 0.000 0.833
!
!HrmStr1 CT HC    337.9878775729   1.0928105263  
!HrmStr1 CT CT   209.1837822114   1.5277999217  
!
! Angle bendings
!HrmBnd1 H1 C3 H1       44.6787743925 107.189588  
!HrmBnd1 H1 C3 C3       59.1301594537 110.156290  
!HrmBnd1 C3 C3 H1      58.3186555964 110.156290  
!HrmBnd1 C3 C3 C3      115.7548721712 113.369247 
HrmBnd1  HC CT OH       600.0 110.52 
!
! Torsion
AmbTrs CT  CT CT OH    0   0   0   0  0.000  0.000  0.000  0.000 1.0
!
! VDW
!VDW CT 1.9080  0.1094
!VDW HC 1.4870  0.0157

2 1 3 6 S 10 36.0

