%mem=1GB
%nprocshared=1
%chk=4_zmat_mm.chk
#p opt=z-matrix Amber=Softfirst nosymm geom=connectivity

 gly_opt.xyz

0  1
C
O  1  r2
C  1  r3  2  a3
H  3  r4  1  a4  2  d4
H  3  r5  1  a5  2  d5
N  3  r6  1  a6  2  d6
H  6  r7  3  a7  1  d7
H  6  r8  3  a8  1  d8
O  1  r9  2  a9  3  d9
H  2  r10  1  a10  3  d10
Variables:
r2= 1.3509
r3= 1.5095
a3= 111.72
r4= 1.1007
a4= 105.40
d4= 288.17
r5= 1.0920
a5= 108.37
d5=  41.55
r6= 1.4518
a6= 110.61
d6= 163.45
r7= 1.0127
a7= 110.00
d7=  34.65
r8= 1.0101
a8= 111.42
d8= 155.17
r9= 1.2029
a9= 123.02
d9= 181.82
r10= 0.9678
a10= 107.23
d10= 177.19

