%mem=58GB
%nprocshared=16
%chk=gly_qm_2.chk
#p opt=(calcall,verytight,maxstep=7,maxcycles=100) freq b3lyp geom=connectivity def2tzvpp int=ultrafine

Title Card Required

0 1
 C-C                   -0.55007700    0.15001400    0.01435700
 O-OH                  -1.73373000   -0.50588700   -0.04781600
 C-CT                   0.68598700   -0.73355300    0.08109000
 H-HC                   0.66442600   -1.20889600    1.07248700
 H-HC                   0.57486500   -1.54167600   -0.65216700
 N-N3                   1.88822800    0.03386200   -0.17801700
 H-H                   1.70508900    1.01406300    0.00365100
 H-H                    2.65772400   -0.26443400    0.40330400
 O-O2                   -0.52121400    1.34635000    0.04101100
 H-HO                  -2.55711102   -0.01240782   -0.03677075

 1 2 1.0 3 1.0 9 2.0
 2 10 1.0
 3 4 1.0 5 1.0 6 1.0
 4
 5
 6 7 1.0 8 1.0
 7
 8
 9
 10

