%mem=1GB
%nprocshared=1
%chk=tmp.chk
#p opt=AddRed Amber=Softfirst nosymm geom=nocrowd 

H2O2 rotational potential 0. to 180., HF/6-31G(d) level
redundant internals

0 1
H1-HW
O2-OW  1  r2
O3-OW  2  r3  1  a3
H4-HW  3  r2  2  a3  1  d4

r2=1.0
r3=1.3
a3=110.
d4=0.0 

NonBon 3 1 0 0 0.000 0.000 0.500 0.000 0.000 -1.2
HrmStr1 OW OW  337.041 1.458
HrmStr1 OW HW  582.673 0.963
HrmBnd1 HW OW OW  69.008 105.356

 1 2 3 4 0.0 S 18 10.0

