14
 energy: -13.665127228641 gnorm: 0.000132310629 xtb: 6.7.1 (edcfbbe)
C           -2.50047673236247        0.36040757775531        0.00633941548433
H           -2.07049649979479        0.82025030147384       -0.88115850401768
H           -3.58442335990461        0.40170167682975       -0.07940236911883
H           -2.19772943053203       -0.68394980273721        0.03256936643007
C           -2.03580823448497        1.08705823109211        1.26241643709115
H           -0.94808819771692        1.01860603924613        1.33962249404510
H           -2.46076864180129        0.59869126427310        2.14252866914295
C           -2.44720664524170        2.55741388346221        1.25604176662208
H           -2.02797610140758        3.04401150458170        0.37221720939840
H           -3.53538515770261        2.62586450528308        1.18585352350951
C           -1.97372951710490        3.28650848346699        2.50744270158384
H           -2.39704695033088        2.82847277513314        3.39899650341359
H           -0.88919836294955        3.24553760207477        2.58511889134556
H           -2.27664536866567        4.33081445806505        2.48128010506992
