14
 energy: -13.665127016687 gnorm: 0.000087394042 xtb: 6.7.1 (edcfbbe)
C           -2.48375950889598        0.36794444886091       -0.00548547493280
H           -2.08852671242502       -0.64486374556426       -0.03534117353875
H           -2.17830298704329        0.88243543487985       -0.91421888287410
H           -3.57028086605743        0.31222421836642        0.00600306044520
C           -1.97355810571615        1.10844641021673        1.22456074855929
H           -0.88147342968021        1.13533713620514        1.20470295335361
H           -2.27425884547594        0.56732182203271        2.12485389334358
C           -2.50970271032289        2.53633370426849        1.29408886719688
H           -2.21593519843787        3.07491843508890        0.38998697015069
H           -3.60158786327643        2.50936993788990        1.32228561773079
C           -1.98980697975186        3.28056504869723        2.51777981811087
H           -2.28758766942843        2.76894537179460        3.43071885706253
H           -0.90340993686358        3.33628078568297        2.49694288802335
H           -2.38469794662493        4.29359793158040        2.54764204736883
