      -----------------------------------------------------------      
     |                   =====================                   |     
     |                           x T B                           |     
     |                   =====================                   |     
     |                         S. Grimme                         |     
     |          Mulliken Center for Theoretical Chemistry        |     
     |                    University of Bonn                     |     
      -----------------------------------------------------------      

   * xtb version 6.7.1 (edcfbbe) compiled by 'conda@5dfe00f5fb80' on 2026-06-10

   xtb is free software: you can redistribute it and/or modify it under
   the terms of the GNU Lesser General Public License as published by
   the Free Software Foundation, either version 3 of the License, or
   (at your option) any later version.
   
   xtb is distributed in the hope that it will be useful,
   but WITHOUT ANY WARRANTY; without even the implied warranty of
   MERCHANTABILITY or FITNESS FOR A PARTICULAR PURPOSE.  See the
   GNU Lesser General Public License for more details.
   
   Cite this work as:
   * C. Bannwarth, E. Caldeweyher, S. Ehlert, A. Hansen, P. Pracht,
     J. Seibert, S. Spicher, S. Grimme, WIREs Comput. Mol. Sci., 2020, 11,
     e01493. DOI: 10.1002/wcms.1493
   
   for GFN2-xTB:
   * C. Bannwarth, S. Ehlert and S. Grimme., J. Chem. Theory Comput., 2019,
     15, 1652-1671. DOI: 10.1021/acs.jctc.8b01176
   for GFN1-xTB:
   * S. Grimme, C. Bannwarth, P. Shushkov, J. Chem. Theory Comput., 2017,
     13, 1989-2009. DOI: 10.1021/acs.jctc.7b00118
   for GFN0-xTB:
   * P. Pracht, E. Caldeweyher, S. Ehlert, S. Grimme, ChemRxiv, 2019, preprint.
     DOI: 10.26434/chemrxiv.8326202.v1
   for GFN-FF:
   * S. Spicher and S. Grimme, Angew. Chem. Int. Ed., 2020, 59, 15665-15673.
     DOI: 10.1002/anie.202004239
   
   for ALPB and GBSA implicit solvation:
   * S. Ehlert, M. Stahn, S. Spicher, S. Grimme, J. Chem. Theory Comput.,
     2021, 17, 4250-4261. DOI: 10.1021/acs.jctc.1c00471
   
   for ddCOSMO and CPCM-X implicit solvation:
   * M. Stahn, S. Ehlert, S. Grimme, J. Phys. Chem. A,
     2023, XX, XXXX-XXXX. DOI: 10.1021/acs.jpca.3c04382
   
   for DFT-D4:
   * E. Caldeweyher, C. Bannwarth and S. Grimme, J. Chem. Phys., 2017,
     147, 034112. DOI: 10.1063/1.4993215
   * E. Caldeweyher, S. Ehlert, A. Hansen, H. Neugebauer, S. Spicher,
     C. Bannwarth and S. Grimme, J. Chem. Phys., 2019, 150, 154122.
     DOI: 10.1063/1.5090222
   * E. Caldeweyher, J.-M. Mewes, S. Ehlert and S. Grimme, Phys. Chem. Chem. Phys.
     2020, 22, 8499-8512. DOI: 10.1039/D0CP00502A
   
   for sTDA-xTB:
   * S. Grimme and C. Bannwarth, J. Chem. Phys., 2016, 145, 054103.
     DOI: 10.1063/1.4959605
   
   in the mass-spec context:
   * V. Asgeirsson, C. Bauer and S. Grimme, Chem. Sci., 2017, 8, 4879.
     DOI: 10.1039/c7sc00601b
   * J. Koopman and S. Grimme, ACS Omega 2019, 4, 12, 15120-15133.
     DOI: 10.1021/acsomega.9b02011
   
   for metadynamics refer to:
   * S. Grimme, J. Chem. Theory Comput., 2019, 155, 2847-2862
     DOI: 10.1021/acs.jctc.9b00143
   
   for SPH calculations refer to:
   * S. Spicher and S. Grimme, J. Chem. Theory Comput., 2021, 17, 1701-1714
     DOI: 10.1021/acs.jctc.0c01306
   
   for ONIOM refer to:
   * C. Plett, A. Katbashev, S. Ehlert, S. Grimme, M. Bursch,
     Phys. Chem. Chem. Phys., 2023, 25, 17860-17868. DOI: 10.1039/D3CP02178E
   
   for DIPRO refer to:
   * J. Kohn, N. Gildemeister, S. Grimme, D. Fazzi, A. Hansen,
     J. Chem. Phys., 2023, just accepted.
   
   for PTB refer to:
   * S. Grimme, M. Mueller, A. Hansen, J. Chem. Phys., 2023, 158, 124111.
     DOI: 10.1063/5.0137838
   
   with help from (in alphabetical order)
   P. Atkinson, C. Bannwarth, F. Bohle, G. Brandenburg, E. Caldeweyher
   M. Checinski, S. Dohm, S. Ehlert, S. Ehrlich, I. Gerasimov, C. Hölzer
   A. Katbashev, J. Kohn, J. Koopman, C. Lavigne, S. Lehtola, F. März, M. Müller,
   F. Musil, H. Neugebauer, J. Pisarek, C. Plett, P. Pracht, F. Pultar,
   J. Seibert, P. Shushkov, S. Spicher, M. Stahn, M. Steiner, T. Strunk,
   J. Stückrath, T. Rose, and J. Unsleber
   
 * started run on 2026/08/17 at 12:14:25.111     
   ID    Z sym.   atoms
    1    6 C      1, 5, 8, 11
    2    1 H      2-4, 6, 7, 9, 10, 12-14

           -------------------------------------------------
          |                Calculation Setup                |
           -------------------------------------------------

          program call               : xtb input.xyz --gfn2 --opt tight --chrg 0 --uhf 0 --iterations 250
          coordinate file            : input.xyz
          omp threads                :                     4


           -------------------------------------------------
          |                 G F N 2 - x T B                 |
           -------------------------------------------------

        Reference                      10.1021/acs.jctc.8b01176
      * Hamiltonian:
        H0-scaling (s, p, d)           1.850000    2.230000    2.230000
        zeta-weighting                 0.500000
      * Dispersion:
        s8                             2.700000
        a1                             0.520000
        a2                             5.000000
        s9                             5.000000
      * Repulsion:
        kExp                           1.500000    1.000000
        rExp                           1.000000
      * Coulomb:
        alpha                          2.000000
        third order                    shell-resolved
        anisotropic                    true
        a3                             3.000000
        a5                             4.000000
        cn-shift                       1.200000
        cn-exp                         4.000000
        max-rad                        5.000000

q/qsh data taken from xtbrestart
CAMM data taken from xtbrestart

          ...................................................
          :                      SETUP                      :
          :.................................................:
          :  # basis functions                  26          :
          :  # atomic orbitals                  26          :
          :  # shells                           18          :
          :  # electrons                        26          :
          :  max. iterations                   250          :
          :  Hamiltonian                  GFN2-xTB          :
          :  restarted?                       true          :
          :  GBSA solvation                  false          :
          :  PC potential                    false          :
          :  electronic temp.          300.0000000     K    :
          :  accuracy                    1.0000000          :
          :  -> integral cutoff          0.2500000E+02      :
          :  -> integral neglect         0.1000000E-07      :
          :  -> SCF convergence          0.1000000E-05 Eh   :
          :  -> wf. convergence          0.1000000E-03 e    :
          :  Broyden damping             0.4000000          :
          :  net charge                          0          :
          :  unpaired electrons                  0          :
          ...................................................

 iter      E             dE          RMSdq      gap      omega  full diag
   1    -13.8696545 -0.138697E+02  0.307E-01   13.39       0.0  T
   2    -13.8696583 -0.383754E-05  0.183E-01   13.38       1.0  T
   3    -13.8696593 -0.968859E-06  0.688E-03   13.38       3.9  T
   4    -13.8696593 -0.399965E-07  0.343E-03   13.38       7.8  T
   5    -13.8696593 -0.317796E-08  0.101E-03   13.38      26.5  T
   6    -13.8696593 -0.166408E-08  0.228E-04   13.38     117.2  T
   7    -13.8696593 -0.196643E-10  0.422E-05   13.38     633.2  T

   *** convergence criteria satisfied after 7 iterations ***

         #    Occupation            Energy/Eh            Energy/eV
      -------------------------------------------------------------
         1        2.0000           -0.6167174             -16.7817
       ...           ...                  ...                  ...
         7        2.0000           -0.4884061             -13.2902
         8        2.0000           -0.4786672             -13.0252
         9        2.0000           -0.4543991             -12.3648
        10        2.0000           -0.4397856             -11.9672
        11        2.0000           -0.4383460             -11.9280
        12        2.0000           -0.4264633             -11.6047
        13        2.0000           -0.4170576             -11.3487 (HOMO)
        14                          0.0746383               2.0310 (LUMO)
        15                          0.1199612               3.2643
        16                          0.1255207               3.4156
        17                          0.1504784               4.0947
        18                          0.1637088               4.4547
       ...                                ...                  ...
        26                          0.3071391               8.3577
      -------------------------------------------------------------
                  HL-Gap            0.4916959 Eh           13.3797 eV
             Fermi-level           -0.1712096 Eh           -4.6589 eV

 SCC (total)                   0 d,  0 h,  0 min,  0.096 sec
 SCC setup                      ...        0 min,  0.005 sec (  5.688%)
 Dispersion                     ...        0 min,  0.006 sec (  6.227%)
 classical contributions        ...        0 min,  0.003 sec (  3.171%)
 integral evaluation            ...        0 min,  0.013 sec ( 13.546%)
 iterations                     ...        0 min,  0.061 sec ( 63.280%)
 molecular gradient             ...        0 min,  0.008 sec (  7.841%)
 printout                       ...        0 min,  0.000 sec (  0.211%)

         :::::::::::::::::::::::::::::::::::::::::::::::::::::
         ::                     SUMMARY                     ::
         :::::::::::::::::::::::::::::::::::::::::::::::::::::
         :: total energy             -13.663633424154 Eh    ::
         :: gradient norm              0.011708718949 Eh/a0 ::
         :: HOMO-LUMO gap             13.379726800908 eV    ::
         ::.................................................::
         :: SCC energy               -13.869655510444 Eh    ::
         :: -> isotropic ES            0.002899629107 Eh    ::
         :: -> anisotropic ES          0.005098042986 Eh    ::
         :: -> anisotropic XC          0.009021472120 Eh    ::
         :: -> dispersion             -0.006017407395 Eh    ::
         :: repulsion energy           0.206022086289 Eh    ::
         :: add. restraining           0.000000000000 Eh    ::
         :: total charge               0.000000000000 e     ::
         :::::::::::::::::::::::::::::::::::::::::::::::::::::

      ----------------------------------------------------------- 
     |                   =====================                   |
     |                        A N C O P T                        |
     |                   =====================                   |
     |               Approximate Normal Coordinate               |
     |                Rational Function Optimizer                |
      ----------------------------------------------------------- 
      ----------------------------------------------------------- 
     |                   =====================                   |
     |                        A N C O P T                        |
     |                   =====================                   |
     |               Approximate Normal Coordinate               |
     |                Rational Function Optimizer                |
      ----------------------------------------------------------- 

          ...................................................
          :                      SETUP                      :
          :.................................................:
          :   optimization level             tight          :
          :   max. optcycles                   200          :
          :   ANC micro-cycles                  20          :
          :   degrees of freedom                36          :
          :.................................................:
          :   RF solver                   davidson          :
          :   write xtbopt.log                true          :
          :   linear?                        false          :
          :   energy convergence         0.1000000E-05 Eh   :
          :   grad. convergence          0.8000000E-03 Eh/α :
          :   maxmium RF displ.          1.0000000          :
          :   Hlow (freq-cutoff)         0.1000000E-01      :
          :   Hmax (freq-cutoff)         5.0000000          :
          :   S6 in model hess.         20.0000000          :
          ...................................................

generating ANC from exact Hessian ...
Using Lindh-Hessian (1995)
 Shifting diagonal of input Hessian by    5.9152603811764830E-003
 Lowest  eigenvalues of input Hessian
    0.000000    0.000000    0.000000    0.000000    0.000000    0.000000
    0.010000    0.013122    0.013638    0.018029    0.022077    0.044704
    0.046833    0.056818    0.059002    0.059873    0.061301    0.070044
 Highest eigenvalues
    1.107296    1.129786    1.174375    1.192379    1.212314    1.289017


........................................................................
.............................. CYCLE    1 ..............................
........................................................................

 iter      E             dE          RMSdq      gap      omega  full diag
   1    -13.8696593 -0.138697E+02  0.621E-06   13.38       0.0  T
   2    -13.8696593 -0.195399E-13  0.334E-06   13.38    8009.7  T
   3    -13.8696593  0.177636E-14  0.477E-07   13.38   56076.4  T
     SCC iter.                  ...        0 min,  0.016 sec
     gradient                   ...        0 min,  0.008 sec
 * total energy  :   -13.6636334 Eh     change       -0.7640111E-11 Eh
   gradient norm :     0.0117086 Eh/α   predicted     0.0000000E+00 (-100.00%)
   displ. norm   :     0.1780176 α      lambda       -0.1018692E-02
   maximum displ.:     0.1238798 α      in ANC's #5, #4, #8, ...

........................................................................
.............................. CYCLE    2 ..............................
........................................................................

 iter      E             dE          RMSdq      gap      omega  full diag
   1    -13.8733066 -0.138733E+02  0.125E-01   13.75       0.0  T
   2    -13.8733077 -0.108889E-05  0.729E-02   13.75       1.0  T
   3    -13.8733079 -0.174764E-06  0.337E-03   13.76       7.9  T
   4    -13.8733079 -0.231503E-07  0.137E-03   13.76      19.5  T
   5    -13.8733079 -0.646331E-09  0.558E-04   13.76      47.9  T
   6    -13.8733079 -0.171781E-09  0.820E-05   13.76     325.9  T
     SCC iter.                  ...        0 min,  0.034 sec
     gradient                   ...        0 min,  0.015 sec
 * total energy  :   -13.6642750 Eh     change       -0.6415674E-03 Eh
   gradient norm :     0.0048440 Eh/α   predicted    -0.5254887E-03 ( -18.09%)
   displ. norm   :     0.1732347 α      lambda       -0.3846223E-03
   maximum displ.:     0.1482239 α      in ANC's #4, #3, #5, ...

........................................................................
.............................. CYCLE    3 ..............................
........................................................................

 iter      E             dE          RMSdq      gap      omega  full diag
   1    -13.8753357 -0.138753E+02  0.686E-02   13.82       0.0  T
   2    -13.8753363 -0.546236E-06  0.403E-02   13.82       1.0  T
   3    -13.8753363 -0.664402E-07  0.258E-03   13.82      10.4  T
   4    -13.8753364 -0.129681E-07  0.940E-04   13.82      28.4  T
   5    -13.8753364 -0.504466E-09  0.371E-04   13.82      72.1  T
     SCC iter.                  ...        0 min,  0.003 sec
     gradient                   ...        0 min,  0.002 sec
 * total energy  :   -13.6645665 Eh     change       -0.2915488E-03 Eh
   gradient norm :     0.0027522 Eh/α   predicted    -0.1980837E-03 ( -32.06%)
   displ. norm   :     0.2405323 α      lambda       -0.3605687E-03
   maximum displ.:     0.2111945 α      in ANC's #4, #3, #6, ...

........................................................................
.............................. CYCLE    4 ..............................
........................................................................

 iter      E             dE          RMSdq      gap      omega  full diag
   1    -13.8754745 -0.138755E+02  0.739E-02   13.83       0.0  T
   2    -13.8754750 -0.535436E-06  0.442E-02   13.83       1.0  T
   3    -13.8754751 -0.563506E-07  0.268E-03   13.83      10.0  T
   4    -13.8754751 -0.224309E-07  0.105E-03   13.83      25.4  T
   5    -13.8754751 -0.303709E-09  0.233E-04   13.83     114.7  T
   6    -13.8754751 -0.801279E-10  0.647E-05   13.83     413.2  T
     SCC iter.                  ...        0 min,  0.007 sec
     gradient                   ...        0 min,  0.002 sec
 * total energy  :   -13.6648370 Eh     change       -0.2704188E-03 Eh
   gradient norm :     0.0050335 Eh/α   predicted    -0.1907152E-03 ( -29.47%)
   displ. norm   :     0.1679354 α      lambda       -0.2195865E-03
   maximum displ.:     0.1472413 α      in ANC's #4, #3, #5, ...

........................................................................
.............................. CYCLE    5 ..............................
........................................................................

 iter      E             dE          RMSdq      gap      omega  full diag
   1    -13.8754167 -0.138754E+02  0.507E-02   13.80       0.0  T
   2    -13.8754167 -0.870400E-07  0.304E-02   13.80       1.0  T
   3    -13.8754168 -0.302742E-07  0.125E-03   13.80      21.4  T
   4    -13.8754168 -0.261592E-08  0.633E-04   13.80      42.2  T
   5    -13.8754168 -0.310262E-09  0.124E-04   13.80     215.0  T
     SCC iter.                  ...        0 min,  0.003 sec
     gradient                   ...        0 min,  0.002 sec
 * total energy  :   -13.6650038 Eh     change       -0.1667957E-03 Eh
   gradient norm :     0.0042334 Eh/α   predicted    -0.1128894E-03 ( -32.32%)
   displ. norm   :     0.1663004 α      lambda       -0.1532642E-03
   maximum displ.:     0.1470228 α      in ANC's #4, #3, #5, ...

........................................................................
.............................. CYCLE    6 ..............................
........................................................................

 iter      E             dE          RMSdq      gap      omega  full diag
   1    -13.8753418 -0.138753E+02  0.509E-02   13.79       0.0  T
   2    -13.8753420 -0.201600E-06  0.304E-02   13.78       1.0  T
   3    -13.8753420 -0.372243E-07  0.173E-03   13.78      15.4  T
   4    -13.8753420 -0.686915E-08  0.790E-04   13.78      33.8  T
   5    -13.8753420 -0.274964E-09  0.184E-04   13.78     144.9  T
     SCC iter.                  ...        0 min,  0.004 sec
     gradient                   ...        0 min,  0.002 sec
 * total energy  :   -13.6650976 Eh     change       -0.9380296E-04 Eh
   gradient norm :     0.0021672 Eh/α   predicted    -0.7875258E-04 ( -16.04%)
   displ. norm   :     0.0523851 α      lambda       -0.2049615E-04
   maximum displ.:     0.0435649 α      in ANC's #4, #3, #24, ...

........................................................................
.............................. CYCLE    7 ..............................
........................................................................

 iter      E             dE          RMSdq      gap      omega  full diag
   1    -13.8757616 -0.138758E+02  0.163E-02   13.79       0.0  T
   2    -13.8757617 -0.546986E-07  0.967E-03   13.79       2.8  T
   3    -13.8757617 -0.451637E-08  0.999E-04   13.79      26.8  T
   4    -13.8757617 -0.199062E-08  0.325E-04   13.79      82.2  T
     SCC iter.                  ...        0 min,  0.002 sec
     gradient                   ...        0 min,  0.002 sec
 * total energy  :   -13.6651108 Eh     change       -0.1326775E-04 Eh
   gradient norm :     0.0008832 Eh/α   predicted    -0.1027511E-04 ( -22.56%)
   displ. norm   :     0.0618112 α      lambda       -0.6751680E-05
   maximum displ.:     0.0415097 α      in ANC's #4, #3, #1, ...

........................................................................
.............................. CYCLE    8 ..............................
........................................................................

 iter      E             dE          RMSdq      gap      omega  full diag
   1    -13.8758676 -0.138759E+02  0.180E-02   13.80       0.0  T
   2    -13.8758677 -0.108085E-07  0.109E-02   13.80       2.5  T
   3    -13.8758677 -0.287954E-08  0.435E-04   13.80      61.4  T
   4    -13.8758677 -0.694639E-09  0.212E-04   13.80     126.0  T
     SCC iter.                  ...        0 min,  0.002 sec
     gradient                   ...        0 min,  0.004 sec
 * total energy  :   -13.6651156 Eh     change       -0.4755833E-05 Eh
   gradient norm :     0.0009498 Eh/α   predicted    -0.3382863E-05 ( -28.87%)
   displ. norm   :     0.0246352 α      lambda       -0.5016205E-05
   maximum displ.:     0.0162927 α      in ANC's #1, #4, #3, ...

........................................................................
.............................. CYCLE    9 ..............................
........................................................................

 iter      E             dE          RMSdq      gap      omega  full diag
   1    -13.8765465 -0.138765E+02  0.104E-02   13.81       0.0  T
   2    -13.8765466 -0.109890E-06  0.583E-03   13.81       4.6  T
   3    -13.8765466 -0.413764E-08  0.163E-03   13.81      16.4  T
   4    -13.8765466 -0.111307E-08  0.298E-04   13.81      89.8  T
   5    -13.8765466 -0.368310E-10  0.153E-04   13.81     174.5  T
     SCC iter.                  ...        0 min,  0.003 sec
     gradient                   ...        0 min,  0.002 sec
 * total energy  :   -13.6651186 Eh     change       -0.2977461E-05 Eh
   gradient norm :     0.0011425 Eh/α   predicted    -0.2507552E-05 ( -15.78%)
   displ. norm   :     0.0315748 α      lambda       -0.4260154E-05
   maximum displ.:     0.0209591 α      in ANC's #3, #1, #4, ...

........................................................................
.............................. CYCLE   10 ..............................
........................................................................

 iter      E             dE          RMSdq      gap      omega  full diag
   1    -13.8762760 -0.138763E+02  0.979E-03   13.80       0.0  T
   2    -13.8762760 -0.142781E-07  0.581E-03   13.80       4.6  T
   3    -13.8762760 -0.124550E-08  0.483E-04   13.80      55.3  T
   4    -13.8762760 -0.574964E-09  0.173E-04   13.80     154.9  T
     SCC iter.                  ...        0 min,  0.002 sec
     gradient                   ...        0 min,  0.002 sec
 * total energy  :   -13.6651234 Eh     change       -0.4870571E-05 Eh
   gradient norm :     0.0006091 Eh/α   predicted    -0.2131109E-05 ( -56.25%)
   displ. norm   :     0.0456168 α      lambda       -0.3353181E-05
   maximum displ.:     0.0296368 α      in ANC's #3, #1, #4, ...

........................................................................
.............................. CYCLE   11 ..............................
........................................................................

 iter      E             dE          RMSdq      gap      omega  full diag
   1    -13.8759951 -0.138760E+02  0.132E-02   13.80       0.0  T
   2    -13.8759951 -0.134126E-07  0.787E-03   13.80       3.4  T
   3    -13.8759951 -0.157572E-08  0.359E-04   13.80      74.5  T
   4    -13.8759951 -0.178789E-09  0.150E-04   13.80     178.0  T
     SCC iter.                  ...        0 min,  0.004 sec
     gradient                   ...        0 min,  0.002 sec
 * total energy  :   -13.6651266 Eh     change       -0.3217810E-05 Eh
   gradient norm :     0.0002914 Eh/α   predicted    -0.1677543E-05 ( -47.87%)
   displ. norm   :     0.0202263 α      lambda       -0.5826159E-06
   maximum displ.:     0.0149516 α      in ANC's #1, #3, #4, ...

........................................................................
.............................. CYCLE   12 ..............................
........................................................................

 iter      E             dE          RMSdq      gap      omega  full diag
   1    -13.8759921 -0.138760E+02  0.572E-03   13.80       0.0  T
   2    -13.8759921 -0.100543E-08  0.343E-03   13.80       7.8  T
   3    -13.8759921 -0.275708E-09  0.113E-04   13.80     236.2  T
   4    -13.8759921 -0.136868E-10  0.588E-05   13.80     454.3  T
     SCC iter.                  ...        0 min,  0.002 sec
     gradient                   ...        0 min,  0.003 sec
 * total energy  :   -13.6651272 Eh     change       -0.5814509E-06 Eh
   gradient norm :     0.0001319 Eh/α   predicted    -0.2922058E-06 ( -49.75%)
   displ. norm   :     0.0073033 α      lambda       -0.1531631E-06
   maximum displ.:     0.0067528 α      in ANC's #1, #3, #2, ...

   *** GEOMETRY OPTIMIZATION CONVERGED AFTER 12 ITERATIONS ***

------------------------------------------------------------------------
 total energy gain   :        -0.0014938 Eh       -0.9374 kcal/mol
 total RMSD          :         0.2565573 a0        0.1358 Å
 total power (kW/mol):        -0.3268319 (step)  -23.4297 (real)
------------------------------------------------------------------------

 ANCopt (total)                0 d,  0 h,  0 min,  0.167 sec
 optimizer setup                ...        0 min,  0.000 sec (  0.069%)
 model hessian                  ...        0 min,  0.005 sec (  2.998%)
 ANC generation                 ...        0 min,  0.001 sec (  0.313%)
 coordinate transformation      ...        0 min,  0.000 sec (  0.069%)
 single point calculation       ...        0 min,  0.155 sec ( 92.407%)
 optimization log               ...        0 min,  0.002 sec (  1.054%)
 hessian update                 ...        0 min,  0.002 sec (  1.360%)
 rational function              ...        0 min,  0.002 sec (  1.251%)

================
 final structure:
================
14
 xtb: 6.7.1 (edcfbbe)
C           -2.50047671149768        0.36040756705712        0.00633941916638
H           -2.07049646547329        0.82025034947923       -0.88115846936360
H           -3.58442331608845        0.40170168573181       -0.07940239527885
H           -2.19772939675766       -0.68394981498279        0.03256932425764
C           -2.03580828828376        1.08705821188555        1.26241646999433
H           -0.94808825771229        1.01860601953974        1.33962254553166
H           -2.46076870999237        0.59869123447298        2.14252868157573
C           -2.44720665485295        2.55741388374096        1.25604177056238
H           -2.02797613047986        3.04401149800024        0.37221720837730
H           -3.53538516271756        2.62586451854589        1.18585356081171
C           -1.97372950181694        3.28650849960584        2.50744268190299
H           -2.39704687394027        2.82847275035558        3.39899648714425
H           -0.88919834757884        3.24553763273293        2.58511880104910
H           -2.27664538280806        4.33081446383490        2.48128012426897

 Bond Distances (Angstroems)
 ---------------------------
C1-H2=1.0881         C1-H3=1.0881         C1-H4=1.0877         C1-C5=1.5237         H2-C1=1.0881         H3-C1=1.0881         
H4-C1=1.0877         C5-C1=1.5237         C5-H6=1.0926         C5-H7=1.0926         C5-C8=1.5268         H6-C5=1.0926         
H7-C5=1.0926         C8-C5=1.5268         C8-H9=1.0926         C8-H10=1.0926        C8-C11=1.5237        H9-C8=1.0926         
H10-C8=1.0926        C11-C8=1.5237        C11-H12=1.0881       C11-H13=1.0881       C11-H14=1.0877       H12-C11=1.0881       
H13-C11=1.0881       H14-C11=1.0877       
 C  H  Rav=1.0898 sigma=0.0023  Rmin=1.0877  Rmax=1.0926    10
 C  C  Rav=1.5248 sigma=0.0015  Rmin=1.5237  Rmax=1.5268     3

 selected bond angles (degree)
 --------------------
H3-C1-H2=108.26                H4-C1-H2=108.39                H4-C1-H3=108.40                C5-C1-H2=110.51                
C5-C1-H3=110.53                C5-C1-H4=110.68                H6-C5-C1=109.39                H7-C5-C1=109.41                
H7-C5-H6=107.60                C8-C5-C1=111.94                C8-C5-H6=109.20                C8-C5-H7=109.21                
H9-C8-C5=109.20                H10-C8-C5=109.21               H10-C8-H9=107.60               C11-C8-C5=111.94               
C11-C8-H9=109.39               C11-C8-H10=109.41              

 selected dihedral angles (degree)
 ---------------------------------
H6-C5-C1-H2=298.80            H6-C5-C1-H3=178.98            H6-C5-C1-H4= 58.87            H7-C5-C1-H2=181.17            
H7-C5-C1-H3= 61.35            H7-C5-C1-H4=301.24            C8-C5-C1-H2= 59.97            C8-C5-C1-H3=300.15            
C8-C5-C1-H4=180.05            H9-C8-C5-C1=301.70            H9-C8-C5-H6= 62.98            H9-C8-C5-H7=180.39            
H10-C8-C5-C1= 59.11           H10-C8-C5-H6=180.39           H10-C8-C5-H7=297.80           C11-C8-C5-C1=180.42           
C11-C8-C5-H6=301.70           C11-C8-C5-H7= 59.10           
           -------------------------------------------------
          |                Final Singlepoint                |
           -------------------------------------------------

          ...................................................
          :                      SETUP                      :
          :.................................................:
          :  # basis functions                  26          :
          :  # atomic orbitals                  26          :
          :  # shells                           18          :
          :  # electrons                        26          :
          :  max. iterations                   250          :
          :  Hamiltonian                  GFN2-xTB          :
          :  restarted?                      false          :
          :  GBSA solvation                  false          :
          :  PC potential                    false          :
          :  electronic temp.          300.0000000     K    :
          :  accuracy                    1.0000000          :
          :  -> integral cutoff          0.2500000E+02      :
          :  -> integral neglect         0.1000000E-07      :
          :  -> SCF convergence          0.1000000E-05 Eh   :
          :  -> wf. convergence          0.1000000E-03 e    :
          :  Broyden damping             0.4000000          :
          :  net charge                          0          :
          :  unpaired electrons                  0          :
          ...................................................

 iter      E             dE          RMSdq      gap      omega  full diag
   1    -13.8759921 -0.138760E+02  0.137E-05   13.80       0.0  T
   2    -13.8759921 -0.188294E-12  0.786E-06   13.80    3399.7  T
   3    -13.8759921  0.000000E+00  0.254E-06   13.80   10527.2  T

   *** convergence criteria satisfied after 3 iterations ***

         #    Occupation            Energy/Eh            Energy/eV
      -------------------------------------------------------------
         1        2.0000           -0.6179662             -16.8157
       ...           ...                  ...                  ...
         7        2.0000           -0.4878829             -13.2760
         8        2.0000           -0.4789790             -13.0337
         9        2.0000           -0.4546505             -12.3717
        10        2.0000           -0.4395128             -11.9598
        11        2.0000           -0.4367259             -11.8839
        12        2.0000           -0.4258163             -11.5871
        13        2.0000           -0.4195615             -11.4168 (HOMO)
        14                          0.0875754               2.3830 (LUMO)
        15                          0.1267099               3.4480
        16                          0.1277896               3.4773
        17                          0.1525720               4.1517
        18                          0.1629055               4.4329
       ...                                ...                  ...
        26                          0.3113834               8.4732
      -------------------------------------------------------------
                  HL-Gap            0.5071369 Eh           13.7999 eV
             Fermi-level           -0.1659930 Eh           -4.5169 eV

 SCC (total)                   0 d,  0 h,  0 min,  0.007 sec
 SCC setup                      ...        0 min,  0.000 sec (  3.948%)
 Dispersion                     ...        0 min,  0.000 sec (  1.649%)
 classical contributions        ...        0 min,  0.000 sec (  0.720%)
 integral evaluation            ...        0 min,  0.001 sec (  9.287%)
 iterations                     ...        0 min,  0.003 sec ( 45.273%)
 molecular gradient             ...        0 min,  0.003 sec ( 36.298%)
 printout                       ...        0 min,  0.000 sec (  2.476%)

         :::::::::::::::::::::::::::::::::::::::::::::::::::::
         ::                     SUMMARY                     ::
         :::::::::::::::::::::::::::::::::::::::::::::::::::::
         :: total energy             -13.665127228632 Eh    ::
         :: gradient norm              0.000132310784 Eh/a0 ::
         :: HOMO-LUMO gap             13.799896183716 eV    ::
         ::.................................................::
         :: SCC energy               -13.875988205713 Eh    ::
         :: -> isotropic ES            0.002998172985 Eh    ::
         :: -> anisotropic ES          0.004910714051 Eh    ::
         :: -> anisotropic XC          0.009061700248 Eh    ::
         :: -> dispersion             -0.006048983531 Eh    ::
         :: repulsion energy           0.210860977082 Eh    ::
         :: add. restraining           0.000000000000 Eh    ::
         :: total charge              -0.000000000000 e     ::
         :::::::::::::::::::::::::::::::::::::::::::::::::::::

           -------------------------------------------------
          |                Property Printout                |
           -------------------------------------------------

    * Orbital Energies and Occupations

         #    Occupation            Energy/Eh            Energy/eV
      -------------------------------------------------------------
         1        2.0000           -0.6179662             -16.8157
         2        2.0000           -0.5989674             -16.2987
         3        2.0000           -0.5679114             -15.4537
         4        2.0000           -0.5523965             -15.0315
         5        2.0000           -0.5138406             -13.9823
         6        2.0000           -0.4918456             -13.3838
         7        2.0000           -0.4878829             -13.2760
         8        2.0000           -0.4789790             -13.0337
         9        2.0000           -0.4546505             -12.3717
        10        2.0000           -0.4395128             -11.9598
        11        2.0000           -0.4367259             -11.8839
        12        2.0000           -0.4258163             -11.5871
        13        2.0000           -0.4195615             -11.4168 (HOMO)
        14                          0.0875754               2.3830 (LUMO)
        15                          0.1267099               3.4480
        16                          0.1277896               3.4773
        17                          0.1525720               4.1517
        18                          0.1629055               4.4329
        19                          0.1836312               4.9969
        20                          0.1936322               5.2690
        21                          0.1970959               5.3633
        22                          0.2244493               6.1076
        23                          0.2548738               6.9355
        24                          0.2645114               7.1977
       ...                                ...                  ...
        26                          0.3113834               8.4732
      -------------------------------------------------------------
                  HL-Gap            0.5071369 Eh           13.7999 eV
             Fermi-level           -0.1659930 Eh           -4.5169 eV

     #   Z          covCN         q      C6AA      α(0)
     1   6 C        3.752    -0.102    22.510     6.766
     2   1 H        0.925     0.033     2.550     2.497
     3   1 H        0.925     0.033     2.550     2.497
     4   1 H        0.925     0.032     2.554     2.499
     5   6 C        3.801    -0.053    21.534     6.607
     6   1 H        0.924     0.029     2.600     2.522
     7   1 H        0.924     0.029     2.601     2.522
     8   6 C        3.801    -0.053    21.534     6.607
     9   1 H        0.924     0.029     2.600     2.521
    10   1 H        0.924     0.029     2.601     2.522
    11   6 C        3.752    -0.102    22.510     6.766
    12   1 H        0.925     0.033     2.550     2.497
    13   1 H        0.925     0.033     2.550     2.497
    14   1 H        0.925     0.032     2.554     2.499

 Mol. C6AA /au·bohr⁶  :       1207.501841
 Mol. C8AA /au·bohr⁸  :      24480.575023
 Mol. α(0) /au        :         51.819510


Wiberg/Mayer (AO) data.
largest (>0.10) Wiberg bond orders for each atom

 ---------------------------------------------------------------------------
     #   Z sym  total        # sym  WBO       # sym  WBO       # sym  WBO
 ---------------------------------------------------------------------------
     1   6 C    3.997 --     5 C    1.019     3 H    0.988     2 H    0.988
                             4 H    0.988
     2   1 H    0.999 --     1 C    0.988
     3   1 H    0.999 --     1 C    0.988
     4   1 H    0.999 --     1 C    0.988
     5   6 C    3.998 --     1 C    1.019     8 C    1.009     7 H    0.979
                             6 H    0.979
     6   1 H    0.999 --     5 C    0.979
     7   1 H    0.999 --     5 C    0.979
     8   6 C    3.998 --    11 C    1.019     5 C    1.009    10 H    0.979
                             9 H    0.979
     9   1 H    0.999 --     8 C    0.979
    10   1 H    0.999 --     8 C    0.979
    11   6 C    3.997 --     8 C    1.019    12 H    0.988    13 H    0.988
                            14 H    0.988
    12   1 H    0.999 --    11 C    0.988
    13   1 H    0.999 --    11 C    0.988
    14   1 H    0.999 --    11 C    0.988
 ---------------------------------------------------------------------------

Topologies differ in total number of bonds
Writing topology from bond orders to xtbtopo.mol

molecular dipole:
                 x           y           z       tot (Debye)
 q only:        0.000       0.000      -0.000
   full:        0.000       0.000      -0.000       0.000
molecular quadrupole (traceless):
                xx          xy          yy          xz          yz          zz
 q only:       -0.124       0.002       0.051       0.100       0.118       0.072
  q+dip:        0.693      -0.020      -0.354      -0.492      -0.716      -0.339
   full:        0.302      -0.007      -0.150      -0.218      -0.308      -0.151

           -------------------------------------------------
          |                Geometry Summary                 |
           -------------------------------------------------

      molecular mass/u    :       58.1223511
   center of mass at/Å    :       -2.2392137       1.8228737       1.2580086
Note: The following floating-point exceptions are signalling: IEEE_UNDERFLOW_FLAG IEEE_DENORMAL
normal termination of xtb
  moments of inertia/u·Å² :        0.2162943E+02   0.1369986E+03   0.1460902E+03
rotational constants/cm⁻¹ :        0.7793842E+00   0.1230497E+00   0.1153920E+00

 * 13 selected distances

     #   Z          #   Z                                           value/Å
     1   6 C        2   1 H                                       1.0881136
     1   6 C        3   1 H                                       1.0881164
     1   6 C        4   1 H                                       1.0876702
     1   6 C        5   6 C                                       1.5237020
     5   6 C        6   1 H                                       1.0926031
     5   6 C        7   1 H                                       1.0925618
     5   6 C        8   6 C                                       1.5268384 (max)
     8   6 C        9   1 H                                       1.0925555
     8   6 C       10   1 H                                       1.0925862
     8   6 C       11   6 C                                       1.5237337
    11   6 C       12   1 H                                       1.0880546
    11   6 C       13   1 H                                       1.0880810
    11   6 C       14   1 H                                       1.0876662 (min)

 * 2 distinct bonds (by element types)

   Z      Z             #   av. dist./Å        max./Å        min./Å
   1 H    6 C          10     1.0898009     1.0926031     1.0876662
   6 C    6 C           3     1.5247580     1.5268384     1.5237020


optimized geometry written to: xtbopt.xyz


           -------------------------------------------------
          | TOTAL ENERGY              -13.665127228632 Eh   |
          | GRADIENT NORM               0.000132310784 Eh/α |
          | HOMO-LUMO GAP              13.799896183716 eV   |
           -------------------------------------------------

------------------------------------------------------------------------
 * finished run on 2026/08/17 at 12:14:25.420     
------------------------------------------------------------------------
 total:
 * wall-time:     0 d,  0 h,  0 min,  0.309 sec
 *  cpu-time:     0 d,  0 h,  0 min,  1.136 sec
 * ratio c/w:     3.675 speedup
 SCF:
 * wall-time:     0 d,  0 h,  0 min,  0.097 sec
 *  cpu-time:     0 d,  0 h,  0 min,  0.368 sec
 * ratio c/w:     3.809 speedup
 ANC optimizer:
 * wall-time:     0 d,  0 h,  0 min,  0.176 sec
 *  cpu-time:     0 d,  0 h,  0 min,  0.626 sec
 * ratio c/w:     3.563 speedup

