14
 energy: -13.665127228632 gnorm: 0.000132310784 xtb: 6.7.1 (edcfbbe)
C           -2.50047671149768        0.36040756705712        0.00633941916638
H           -2.07049646547329        0.82025034947923       -0.88115846936360
H           -3.58442331608845        0.40170168573181       -0.07940239527885
H           -2.19772939675766       -0.68394981498279        0.03256932425764
C           -2.03580828828376        1.08705821188555        1.26241646999433
H           -0.94808825771229        1.01860601953974        1.33962254553166
H           -2.46076870999237        0.59869123447298        2.14252868157573
C           -2.44720665485295        2.55741388374096        1.25604177056238
H           -2.02797613047986        3.04401149800024        0.37221720837730
H           -3.53538516271756        2.62586451854589        1.18585356081171
C           -1.97372950181694        3.28650849960584        2.50744268190299
H           -2.39704687394027        2.82847275035558        3.39899648714425
H           -0.88919834757884        3.24553763273293        2.58511880104910
H           -2.27664538280806        4.33081446383490        2.48128012426897
