      -----------------------------------------------------------      
     |                   =====================                   |     
     |                           x T B                           |     
     |                   =====================                   |     
     |                         S. Grimme                         |     
     |          Mulliken Center for Theoretical Chemistry        |     
     |                    University of Bonn                     |     
      -----------------------------------------------------------      

   * xtb version 6.7.1 (edcfbbe) compiled by 'conda@5dfe00f5fb80' on 2026-06-10

   xtb is free software: you can redistribute it and/or modify it under
   the terms of the GNU Lesser General Public License as published by
   the Free Software Foundation, either version 3 of the License, or
   (at your option) any later version.
   
   xtb is distributed in the hope that it will be useful,
   but WITHOUT ANY WARRANTY; without even the implied warranty of
   MERCHANTABILITY or FITNESS FOR A PARTICULAR PURPOSE.  See the
   GNU Lesser General Public License for more details.
   
   Cite this work as:
   * C. Bannwarth, E. Caldeweyher, S. Ehlert, A. Hansen, P. Pracht,
     J. Seibert, S. Spicher, S. Grimme, WIREs Comput. Mol. Sci., 2020, 11,
     e01493. DOI: 10.1002/wcms.1493
   
   for GFN2-xTB:
   * C. Bannwarth, S. Ehlert and S. Grimme., J. Chem. Theory Comput., 2019,
     15, 1652-1671. DOI: 10.1021/acs.jctc.8b01176
   for GFN1-xTB:
   * S. Grimme, C. Bannwarth, P. Shushkov, J. Chem. Theory Comput., 2017,
     13, 1989-2009. DOI: 10.1021/acs.jctc.7b00118
   for GFN0-xTB:
   * P. Pracht, E. Caldeweyher, S. Ehlert, S. Grimme, ChemRxiv, 2019, preprint.
     DOI: 10.26434/chemrxiv.8326202.v1
   for GFN-FF:
   * S. Spicher and S. Grimme, Angew. Chem. Int. Ed., 2020, 59, 15665-15673.
     DOI: 10.1002/anie.202004239
   
   for ALPB and GBSA implicit solvation:
   * S. Ehlert, M. Stahn, S. Spicher, S. Grimme, J. Chem. Theory Comput.,
     2021, 17, 4250-4261. DOI: 10.1021/acs.jctc.1c00471
   
   for ddCOSMO and CPCM-X implicit solvation:
   * M. Stahn, S. Ehlert, S. Grimme, J. Phys. Chem. A,
     2023, XX, XXXX-XXXX. DOI: 10.1021/acs.jpca.3c04382
   
   for DFT-D4:
   * E. Caldeweyher, C. Bannwarth and S. Grimme, J. Chem. Phys., 2017,
     147, 034112. DOI: 10.1063/1.4993215
   * E. Caldeweyher, S. Ehlert, A. Hansen, H. Neugebauer, S. Spicher,
     C. Bannwarth and S. Grimme, J. Chem. Phys., 2019, 150, 154122.
     DOI: 10.1063/1.5090222
   * E. Caldeweyher, J.-M. Mewes, S. Ehlert and S. Grimme, Phys. Chem. Chem. Phys.
     2020, 22, 8499-8512. DOI: 10.1039/D0CP00502A
   
   for sTDA-xTB:
   * S. Grimme and C. Bannwarth, J. Chem. Phys., 2016, 145, 054103.
     DOI: 10.1063/1.4959605
   
   in the mass-spec context:
   * V. Asgeirsson, C. Bauer and S. Grimme, Chem. Sci., 2017, 8, 4879.
     DOI: 10.1039/c7sc00601b
   * J. Koopman and S. Grimme, ACS Omega 2019, 4, 12, 15120-15133.
     DOI: 10.1021/acsomega.9b02011
   
   for metadynamics refer to:
   * S. Grimme, J. Chem. Theory Comput., 2019, 155, 2847-2862
     DOI: 10.1021/acs.jctc.9b00143
   
   for SPH calculations refer to:
   * S. Spicher and S. Grimme, J. Chem. Theory Comput., 2021, 17, 1701-1714
     DOI: 10.1021/acs.jctc.0c01306
   
   for ONIOM refer to:
   * C. Plett, A. Katbashev, S. Ehlert, S. Grimme, M. Bursch,
     Phys. Chem. Chem. Phys., 2023, 25, 17860-17868. DOI: 10.1039/D3CP02178E
   
   for DIPRO refer to:
   * J. Kohn, N. Gildemeister, S. Grimme, D. Fazzi, A. Hansen,
     J. Chem. Phys., 2023, just accepted.
   
   for PTB refer to:
   * S. Grimme, M. Mueller, A. Hansen, J. Chem. Phys., 2023, 158, 124111.
     DOI: 10.1063/5.0137838
   
   with help from (in alphabetical order)
   P. Atkinson, C. Bannwarth, F. Bohle, G. Brandenburg, E. Caldeweyher
   M. Checinski, S. Dohm, S. Ehlert, S. Ehrlich, I. Gerasimov, C. Hölzer
   A. Katbashev, J. Kohn, J. Koopman, C. Lavigne, S. Lehtola, F. März, M. Müller,
   F. Musil, H. Neugebauer, J. Pisarek, C. Plett, P. Pracht, F. Pultar,
   J. Seibert, P. Shushkov, S. Spicher, M. Stahn, M. Steiner, T. Strunk,
   J. Stückrath, T. Rose, and J. Unsleber
   
 * started run on 2026/08/17 at 12:14:18.980     
   ID    Z sym.   atoms
    1    6 C      1, 5, 8, 11
    2    1 H      2-4, 6, 7, 9, 10, 12-14

           -------------------------------------------------
          |                Calculation Setup                |
           -------------------------------------------------

          program call               : xtb input.xyz --gfn2 --opt tight --chrg 0 --uhf 0 --iterations 250
          coordinate file            : input.xyz
          omp threads                :                     4


           -------------------------------------------------
          |                 G F N 2 - x T B                 |
           -------------------------------------------------

        Reference                      10.1021/acs.jctc.8b01176
      * Hamiltonian:
        H0-scaling (s, p, d)           1.850000    2.230000    2.230000
        zeta-weighting                 0.500000
      * Dispersion:
        s8                             2.700000
        a1                             0.520000
        a2                             5.000000
        s9                             5.000000
      * Repulsion:
        kExp                           1.500000    1.000000
        rExp                           1.000000
      * Coulomb:
        alpha                          2.000000
        third order                    shell-resolved
        anisotropic                    true
        a3                             3.000000
        a5                             4.000000
        cn-shift                       1.200000
        cn-exp                         4.000000
        max-rad                        5.000000

q/qsh data taken from xtbrestart
CAMM data taken from xtbrestart

          ...................................................
          :                      SETUP                      :
          :.................................................:
          :  # basis functions                  26          :
          :  # atomic orbitals                  26          :
          :  # shells                           18          :
          :  # electrons                        26          :
          :  max. iterations                   250          :
          :  Hamiltonian                  GFN2-xTB          :
          :  restarted?                       true          :
          :  GBSA solvation                  false          :
          :  PC potential                    false          :
          :  electronic temp.          300.0000000     K    :
          :  accuracy                    1.0000000          :
          :  -> integral cutoff          0.2500000E+02      :
          :  -> integral neglect         0.1000000E-07      :
          :  -> SCF convergence          0.1000000E-05 Eh   :
          :  -> wf. convergence          0.1000000E-03 e    :
          :  Broyden damping             0.4000000          :
          :  net charge                          0          :
          :  unpaired electrons                  0          :
          ...................................................

 iter      E             dE          RMSdq      gap      omega  full diag
   1    -13.8581081 -0.138581E+02  0.143E+00   13.17       0.0  T
   2    -13.8582153 -0.107276E-03  0.853E-01   13.15       1.0  T
   3    -13.8582513 -0.359429E-04  0.492E-02   13.13       1.0  T
   4    -13.8582547 -0.345718E-05  0.267E-02   13.13       1.0  T
   5    -13.8582549 -0.177109E-06  0.353E-03   13.13       7.6  T
   6    -13.8582549 -0.165487E-07  0.139E-03   13.13      19.3  T
   7    -13.8582549 -0.176001E-08  0.263E-04   13.13     101.7  T
   8    -13.8582549 -0.166505E-09  0.841E-05   13.13     317.7  T

   *** convergence criteria satisfied after 8 iterations ***

         #    Occupation            Energy/Eh            Energy/eV
      -------------------------------------------------------------
         1        2.0000           -0.6170588             -16.7910
       ...           ...                  ...                  ...
         7        2.0000           -0.4867307             -13.2446
         8        2.0000           -0.4720786             -12.8459
         9        2.0000           -0.4552582             -12.3882
        10        2.0000           -0.4495961             -12.2341
        11        2.0000           -0.4297958             -11.6953
        12        2.0000           -0.4217145             -11.4754
        13        2.0000           -0.4144960             -11.2790 (HOMO)
        14                          0.0681195               1.8536 (LUMO)
        15                          0.0937799               2.5519
        16                          0.1209475               3.2911
        17                          0.1403753               3.8198
        18                          0.1514109               4.1201
       ...                                ...                  ...
        26                          0.3296960               8.9715
      -------------------------------------------------------------
                  HL-Gap            0.4826154 Eh           13.1326 eV
             Fermi-level           -0.1731882 Eh           -4.7127 eV

 SCC (total)                   0 d,  0 h,  0 min,  0.090 sec
 SCC setup                      ...        0 min,  0.003 sec (  3.063%)
 Dispersion                     ...        0 min,  0.006 sec (  6.639%)
 classical contributions        ...        0 min,  0.003 sec (  3.242%)
 integral evaluation            ...        0 min,  0.006 sec (  6.724%)
 iterations                     ...        0 min,  0.054 sec ( 59.888%)
 molecular gradient             ...        0 min,  0.018 sec ( 20.237%)
 printout                       ...        0 min,  0.000 sec (  0.186%)

         :::::::::::::::::::::::::::::::::::::::::::::::::::::
         ::                     SUMMARY                     ::
         :::::::::::::::::::::::::::::::::::::::::::::::::::::
         :: total energy             -13.652119227634 Eh    ::
         :: gradient norm              0.016279822606 Eh/a0 ::
         :: HOMO-LUMO gap             13.132634642273 eV    ::
         ::.................................................::
         :: SCC energy               -13.858248745976 Eh    ::
         :: -> isotropic ES            0.003033988014 Eh    ::
         :: -> anisotropic ES          0.005395990303 Eh    ::
         :: -> anisotropic XC          0.009204554732 Eh    ::
         :: -> dispersion             -0.006092404555 Eh    ::
         :: repulsion energy           0.206129518342 Eh    ::
         :: add. restraining           0.000000000000 Eh    ::
         :: total charge              -0.000000000000 e     ::
         :::::::::::::::::::::::::::::::::::::::::::::::::::::

      ----------------------------------------------------------- 
     |                   =====================                   |
     |                        A N C O P T                        |
     |                   =====================                   |
     |               Approximate Normal Coordinate               |
     |                Rational Function Optimizer                |
      ----------------------------------------------------------- 
      ----------------------------------------------------------- 
     |                   =====================                   |
     |                        A N C O P T                        |
     |                   =====================                   |
     |               Approximate Normal Coordinate               |
     |                Rational Function Optimizer                |
      ----------------------------------------------------------- 

          ...................................................
          :                      SETUP                      :
          :.................................................:
          :   optimization level             tight          :
          :   max. optcycles                   200          :
          :   ANC micro-cycles                  20          :
          :   degrees of freedom                36          :
          :.................................................:
          :   RF solver                   davidson          :
          :   write xtbopt.log                true          :
          :   linear?                        false          :
          :   energy convergence         0.1000000E-05 Eh   :
          :   grad. convergence          0.8000000E-03 Eh/α :
          :   maxmium RF displ.          1.0000000          :
          :   Hlow (freq-cutoff)         0.1000000E-01      :
          :   Hmax (freq-cutoff)         5.0000000          :
          :   S6 in model hess.         20.0000000          :
          ...................................................

generating ANC from exact Hessian ...
Using Lindh-Hessian (1995)
 Shifting diagonal of input Hessian by    6.3319186558353589E-003
 Lowest  eigenvalues of input Hessian
    0.000000    0.000000    0.000000    0.000000    0.000000    0.000000
    0.010000    0.013204    0.013518    0.020095    0.021231    0.047059
    0.048166    0.058251    0.058976    0.060353    0.062845    0.066367
 Highest eigenvalues
    1.109336    1.133797    1.147682    1.209002    1.222841    1.283132


........................................................................
.............................. CYCLE    1 ..............................
........................................................................

 iter      E             dE          RMSdq      gap      omega  full diag
   1    -13.8582549 -0.138583E+02  0.266E-05   13.13       0.0  T
   2    -13.8582549 -0.374811E-12  0.152E-05   13.13    1762.5  T
   3    -13.8582549  0.532907E-14  0.304E-06   13.13    8805.2  T
     SCC iter.                  ...        0 min,  0.002 sec
     gradient                   ...        0 min,  0.003 sec
 * total energy  :   -13.6521192 Eh     change       -0.5252687E-11 Eh
   gradient norm :     0.0162795 Eh/α   predicted     0.0000000E+00 (-100.00%)
   displ. norm   :     0.1869491 α      lambda       -0.9226706E-03
   maximum displ.:     0.1554694 α      in ANC's #2, #5, #10, ...

........................................................................
.............................. CYCLE    2 ..............................
........................................................................

 iter      E             dE          RMSdq      gap      omega  full diag
   1    -13.8607156 -0.138607E+02  0.954E-02   12.96       0.0  T
   2    -13.8607178 -0.214651E-05  0.570E-02   12.96       1.0  T
   3    -13.8607180 -0.196367E-06  0.386E-03   12.96       6.9  T
   4    -13.8607180 -0.109932E-07  0.172E-03   12.96      15.6  T
   5    -13.8607180 -0.793294E-09  0.534E-04   12.96      50.0  T
   6    -13.8607180 -0.433467E-09  0.927E-05   12.96     288.4  T
     SCC iter.                  ...        0 min,  0.004 sec
     gradient                   ...        0 min,  0.003 sec
 * total energy  :   -13.6527403 Eh     change       -0.6210284E-03 Eh
   gradient norm :     0.0072859 Eh/α   predicted    -0.4774562E-03 ( -23.12%)
   displ. norm   :     0.2775378 α      lambda       -0.7010413E-03
   maximum displ.:     0.2194239 α      in ANC's #2, #4, #1, ...

........................................................................
.............................. CYCLE    3 ..............................
........................................................................

 iter      E             dE          RMSdq      gap      omega  full diag
   1    -13.8614057 -0.138614E+02  0.885E-02   12.91       0.0  T
   2    -13.8614073 -0.159801E-05  0.532E-02   12.91       1.0  T
   3    -13.8614074 -0.591207E-07  0.449E-03   12.91       5.9  T
   4    -13.8614074 -0.578743E-07  0.131E-03   12.91      20.4  T
   5    -13.8614074 -0.632689E-09  0.587E-04   12.91      45.6  T
   6    -13.8614074 -0.168129E-09  0.739E-05   12.91     361.7  T
     SCC iter.                  ...        0 min,  0.004 sec
     gradient                   ...        0 min,  0.003 sec
 * total energy  :   -13.6533336 Eh     change       -0.5933758E-03 Eh
   gradient norm :     0.0066516 Eh/α   predicted    -0.3775174E-03 ( -36.38%)
   displ. norm   :     0.4909187 α      lambda       -0.1059365E-02
   maximum displ.:     0.3523912 α      in ANC's #2, #4, #1, ...

........................................................................
.............................. CYCLE    4 ..............................
........................................................................

 iter      E             dE          RMSdq      gap      omega  full diag
   1    -13.8579211 -0.138579E+02  0.156E-01   12.91       0.0  T
   2    -13.8579319 -0.107400E-04  0.912E-02   12.91       1.0  T
   3    -13.8579323 -0.384747E-06  0.166E-02   12.91       1.6  T
   4    -13.8579327 -0.391700E-06  0.350E-03   12.91       7.6  T
   5    -13.8579327 -0.275538E-08  0.159E-03   12.91      16.8  T
   6    -13.8579327 -0.160706E-08  0.157E-04   12.91     169.9  T
   7    -13.8579327 -0.356835E-10  0.698E-05   12.91     383.0  T
     SCC iter.                  ...        0 min,  0.004 sec
     gradient                   ...        0 min,  0.003 sec
 * total energy  :   -13.6538818 Eh     change       -0.5481392E-03 Eh
   gradient norm :     0.0224450 Eh/α   predicted    -0.6573363E-03 (  19.92%)
   displ. norm   :     0.0747132 α      lambda       -0.7172368E-03
   maximum displ.:     0.0394250 α      in ANC's #4, #1, #3, ...

........................................................................
.............................. CYCLE    5 ..............................
........................................................................

 iter      E             dE          RMSdq      gap      omega  full diag
   1    -13.8615585 -0.138616E+02  0.556E-02   13.02       0.0  T
   2    -13.8615619 -0.339405E-05  0.308E-02   13.02       1.0  T
   3    -13.8615620 -0.155905E-06  0.970E-03   13.02       2.8  T
   4    -13.8615621 -0.738218E-07  0.196E-03   13.02      13.6  T
   5    -13.8615621 -0.123099E-08  0.960E-04   13.02      27.8  T
   6    -13.8615621 -0.503489E-09  0.114E-04   13.02     234.8  T
     SCC iter.                  ...        0 min,  0.003 sec
     gradient                   ...        0 min,  0.003 sec
 * total energy  :   -13.6544420 Eh     change       -0.5602121E-03 Eh
   gradient norm :     0.0150549 Eh/α   predicted    -0.3606188E-03 ( -35.63%)
   displ. norm   :     0.4401086 α      lambda       -0.1333636E-02
   maximum displ.:     0.2610420 α      in ANC's #2, #4, #1, ...

........................................................................
.............................. CYCLE    6 ..............................
........................................................................

 iter      E             dE          RMSdq      gap      omega  full diag
   1    -13.8624757 -0.138625E+02  0.123E-01   13.20       0.0  T
   2    -13.8624770 -0.129376E-05  0.739E-02   13.20       1.0  T
   3    -13.8624772 -0.142200E-06  0.306E-03   13.20       8.7  T
   4    -13.8624772 -0.241380E-07  0.142E-03   13.20      18.8  T
   5    -13.8624772 -0.172272E-08  0.682E-04   13.20      39.2  T
   6    -13.8624772 -0.296392E-09  0.786E-05   13.20     339.9  T
     SCC iter.                  ...        0 min,  0.003 sec
     gradient                   ...        0 min,  0.003 sec
 * total energy  :   -13.6554547 Eh     change       -0.1012710E-02 Eh
   gradient norm :     0.0114275 Eh/α   predicted    -0.7959799E-03 ( -21.40%)
   displ. norm   :     0.3935370 α      lambda       -0.1046605E-02
   maximum displ.:     0.2144332 α      in ANC's #2, #1, #3, ...

........................................................................
.............................. CYCLE    7 ..............................
........................................................................

 iter      E             dE          RMSdq      gap      omega  full diag
   1    -13.8628487 -0.138628E+02  0.111E-01   13.33       0.0  T
   2    -13.8628512 -0.249892E-05  0.667E-02   13.32       1.0  T
   3    -13.8628513 -0.117032E-06  0.478E-03   13.32       5.6  T
   4    -13.8628513 -0.301333E-07  0.135E-03   13.32      19.7  T
   5    -13.8628514 -0.137146E-08  0.662E-04   13.32      40.4  T
   6    -13.8628514 -0.157891E-09  0.889E-05   13.32     300.8  T
     SCC iter.                  ...        0 min,  0.003 sec
     gradient                   ...        0 min,  0.002 sec
 * total energy  :   -13.6561985 Eh     change       -0.7437649E-03 Eh
   gradient norm :     0.0098902 Eh/α   predicted    -0.6043515E-03 ( -18.74%)
   displ. norm   :     0.3587239 α      lambda       -0.6533726E-03
   maximum displ.:     0.1891735 α      in ANC's #1, #3, #2, ...

........................................................................
.............................. CYCLE    8 ..............................
........................................................................

 iter      E             dE          RMSdq      gap      omega  full diag
   1    -13.8624108 -0.138624E+02  0.975E-02   13.38       0.0  T
   2    -13.8624123 -0.145280E-05  0.580E-02   13.38       1.0  T
   3    -13.8624123 -0.626690E-07  0.400E-03   13.38       6.7  T
   4    -13.8624124 -0.361820E-07  0.110E-03   13.38      24.3  T
   5    -13.8624124 -0.103462E-08  0.539E-04   13.38      49.6  T
   6    -13.8624124 -0.105739E-09  0.848E-05   13.38     315.1  T
     SCC iter.                  ...        0 min,  0.003 sec
     gradient                   ...        0 min,  0.002 sec
 * total energy  :   -13.6567344 Eh     change       -0.5359200E-03 Eh
   gradient norm :     0.0135544 Eh/α   predicted    -0.3687252E-03 ( -31.20%)
   displ. norm   :     0.5194376 α      lambda       -0.1022140E-02
   maximum displ.:     0.2972882 α      in ANC's #1, #3, #5, ...

........................................................................
.............................. CYCLE    9 ..............................
........................................................................

 iter      E             dE          RMSdq      gap      omega  full diag
   1    -13.8632977 -0.138633E+02  0.147E-01   13.43       0.0  T
   2    -13.8633023 -0.455230E-05  0.869E-02   13.43       1.0  T
   3    -13.8633025 -0.215225E-06  0.870E-03   13.43       3.1  T
   4    -13.8633026 -0.128789E-06  0.227E-03   13.43      11.8  T
   5    -13.8633026 -0.180491E-08  0.776E-04   13.43      34.5  T
   6    -13.8633026 -0.641379E-09  0.155E-04   13.43     172.7  T
     SCC iter.                  ...        0 min,  0.003 sec
     gradient                   ...        0 min,  0.002 sec
 * total energy  :   -13.6575418 Eh     change       -0.8074349E-03 Eh
   gradient norm :     0.0188418 Eh/α   predicted    -0.6489575E-03 ( -19.63%)
   displ. norm   :     0.8009461 α      lambda       -0.1560739E-02
   maximum displ.:     0.4570283 α      in ANC's #1, #3, #2, ...

........................................................................
.............................. CYCLE   10 ..............................
........................................................................

 iter      E             dE          RMSdq      gap      omega  full diag
   1    -13.8479691 -0.138480E+02  0.258E-01   13.39       0.0  T
   2    -13.8480098 -0.406695E-04  0.148E-01   13.39       1.0  T
   3    -13.8480114 -0.168794E-05  0.309E-02   13.38       1.0  T
   4    -13.8480122 -0.753714E-06  0.659E-03   13.39       4.1  T
   5    -13.8480122 -0.270663E-07  0.354E-03   13.39       7.6  T
   6    -13.8480122 -0.558646E-08  0.363E-04   13.39      73.6  T
   7    -13.8480122 -0.218709E-09  0.163E-04   13.39     164.4  T
     SCC iter.                  ...        0 min,  0.003 sec
     gradient                   ...        0 min,  0.002 sec
 * total energy  :   -13.6574988 Eh     change        0.4296310E-04 Eh
   gradient norm :     0.0353156 Eh/α   predicted    -0.1281015E-02 (*******%)
   displ. norm   :     0.1927984 α      lambda       -0.4129017E-02
   maximum displ.:     0.0857157 α      in ANC's #5, #4, #7, ...

........................................................................
.............................. CYCLE   11 ..............................
........................................................................

 iter      E             dE          RMSdq      gap      omega  full diag
   1    -13.8704656 -0.138705E+02  0.197E-01   13.52       0.0  T
   2    -13.8705280 -0.623420E-04  0.106E-01   13.53       1.0  T
   3    -13.8705301 -0.217384E-05  0.365E-02   13.54       1.0  T
   4    -13.8705305 -0.330641E-06  0.673E-03   13.53       4.0  T
   5    -13.8705305 -0.250582E-07  0.343E-03   13.54       7.8  T
   6    -13.8705305 -0.669694E-08  0.363E-04   13.53      73.5  T
   7    -13.8705305 -0.141702E-09  0.143E-04   13.53     186.6  T
     SCC iter.                  ...        0 min,  0.004 sec
     gradient                   ...        0 min,  0.002 sec
 * total energy  :   -13.6591917 Eh     change       -0.1692899E-02 Eh
   gradient norm :     0.0165032 Eh/α   predicted    -0.2141247E-02 (  26.48%)
   displ. norm   :     0.4568563 α      lambda       -0.2347906E-02
   maximum displ.:     0.3350585 α      in ANC's #3, #1, #5, ...

........................................................................
.............................. CYCLE   12 ..............................
........................................................................

 iter      E             dE          RMSdq      gap      omega  full diag
   1    -13.8692294 -0.138692E+02  0.218E-01   13.58       0.0  T
   2    -13.8692640 -0.345732E-04  0.124E-01   13.57       1.0  T
   3    -13.8692656 -0.158962E-05  0.310E-02   13.58       1.0  T
   4    -13.8692663 -0.776083E-06  0.639E-03   13.58       4.2  T
   5    -13.8692664 -0.147162E-07  0.302E-03   13.57       8.8  T
   6    -13.8692664 -0.839532E-08  0.306E-04   13.57      87.5  T
   7    -13.8692664 -0.665299E-10  0.108E-04   13.57     248.2  T
     SCC iter.                  ...        0 min,  0.003 sec
     gradient                   ...        0 min,  0.002 sec
 * total energy  :   -13.6599285 Eh     change       -0.7367228E-03 Eh
   gradient norm :     0.0278878 Eh/α   predicted    -0.1418982E-02 (  92.61%)
   displ. norm   :     0.4224509 α      lambda       -0.1832754E-02
   maximum displ.:     0.2562839 α      in ANC's #1, #2, #3, ...

........................................................................
.............................. CYCLE   13 ..............................
........................................................................

 iter      E             dE          RMSdq      gap      omega  full diag
   1    -13.8623614 -0.138624E+02  0.154E-01   13.66       0.0  T
   2    -13.8623774 -0.160285E-04  0.878E-02   13.66       1.0  T
   3    -13.8623780 -0.586994E-06  0.204E-02   13.66       1.3  T
   4    -13.8623784 -0.424398E-06  0.415E-03   13.66       6.4  T
   5    -13.8623784 -0.181436E-07  0.226E-03   13.66      11.8  T
   6    -13.8623784 -0.229294E-08  0.259E-04   13.66     103.1  T
   7    -13.8623784 -0.479243E-10  0.109E-04   13.66     244.8  T
     SCC iter.                  ...        0 min,  0.003 sec
     gradient                   ...        0 min,  0.002 sec
 * total energy  :   -13.6611030 Eh     change       -0.1174507E-02 Eh
   gradient norm :     0.0182857 Eh/α   predicted    -0.1079915E-02 (  -8.05%)
   displ. norm   :     0.2399827 α      lambda       -0.1187214E-02
   maximum displ.:     0.1487670 α      in ANC's #1, #24, #3, ...

........................................................................
.............................. CYCLE   14 ..............................
........................................................................

 iter      E             dE          RMSdq      gap      omega  full diag
   1    -13.8685374 -0.138685E+02  0.955E-02   13.84       0.0  T
   2    -13.8685447 -0.724047E-05  0.539E-02   13.84       1.0  T
   3    -13.8685451 -0.394147E-06  0.131E-02   13.84       2.0  T
   4    -13.8685451 -0.514087E-07  0.283E-03   13.84       9.4  T
   5    -13.8685451 -0.149305E-08  0.682E-04   13.84      39.2  T
   6    -13.8685451 -0.112390E-09  0.137E-04   13.84     194.4  T
     SCC iter.                  ...        0 min,  0.003 sec
     gradient                   ...        0 min,  0.002 sec
 * total energy  :   -13.6618724 Eh     change       -0.7694458E-03 Eh
   gradient norm :     0.0097986 Eh/α   predicted    -0.6277936E-03 ( -18.41%)
   displ. norm   :     0.6143096 α      lambda       -0.1530702E-02
   maximum displ.:     0.3838263 α      in ANC's #1, #3, #24, ...

........................................................................
.............................. CYCLE   15 ..............................
........................................................................

 iter      E             dE          RMSdq      gap      omega  full diag
   1    -13.8661052 -0.138661E+02  0.180E-01   14.01       0.0  T
   2    -13.8661114 -0.619945E-05  0.107E-01   14.01       1.0  T
   3    -13.8661118 -0.422691E-06  0.831E-03   14.01       3.2  T
   4    -13.8661119 -0.107515E-06  0.295E-03   14.01       9.1  T
   5    -13.8661119 -0.405764E-08  0.123E-03   14.01      21.7  T
   6    -13.8661119 -0.141221E-08  0.213E-04   14.01     125.4  T
   7    -13.8661119 -0.315055E-10  0.909E-05   14.01     294.1  T
     SCC iter.                  ...        0 min,  0.003 sec
     gradient                   ...        0 min,  0.003 sec
 * total energy  :   -13.6629327 Eh     change       -0.1060306E-02 Eh
   gradient norm :     0.0128563 Eh/α   predicted    -0.1054173E-02 (  -0.58%)
   displ. norm   :     0.3598617 α      lambda       -0.1542098E-02
   maximum displ.:     0.2168326 α      in ANC's #1, #3, #24, ...

........................................................................
.............................. CYCLE   16 ..............................
........................................................................

 iter      E             dE          RMSdq      gap      omega  full diag
   1    -13.8793584 -0.138794E+02  0.164E-01   14.29       0.0  T
   2    -13.8793767 -0.183372E-04  0.932E-02   14.29       1.0  T
   3    -13.8793778 -0.105318E-05  0.201E-02   14.29       1.3  T
   4    -13.8793780 -0.251741E-06  0.488E-03   14.29       5.5  T
   5    -13.8793781 -0.106106E-07  0.236E-03   14.29      11.3  T
   6    -13.8793781 -0.277316E-08  0.277E-04   14.29      96.4  T
   7    -13.8793781 -0.794156E-10  0.123E-04   14.29     217.6  T
     SCC iter.                  ...        0 min,  0.003 sec
     gradient                   ...        0 min,  0.002 sec
 * total energy  :   -13.6633948 Eh     change       -0.4620319E-03 Eh
   gradient norm :     0.0180292 Eh/α   predicted    -0.8708988E-03 (  88.49%)
   displ. norm   :     0.4133169 α      lambda       -0.1168793E-02
   maximum displ.:     0.2533721 α      in ANC's #1, #3, #24, ...

........................................................................
.............................. CYCLE   17 ..............................
........................................................................

 iter      E             dE          RMSdq      gap      omega  full diag
   1    -13.8699414 -0.138699E+02  0.178E-01   14.14       0.0  T
   2    -13.8699550 -0.135684E-04  0.102E-01   14.14       1.0  T
   3    -13.8699556 -0.661332E-06  0.177E-02   14.14       1.5  T
   4    -13.8699561 -0.440015E-06  0.434E-03   14.14       6.2  T
   5    -13.8699561 -0.103857E-07  0.217E-03   14.14      12.3  T
   6    -13.8699561 -0.206165E-08  0.273E-04   14.14      98.1  T
   7    -13.8699561 -0.738805E-10  0.120E-04   14.14     222.4  T
     SCC iter.                  ...        0 min,  0.003 sec
     gradient                   ...        0 min,  0.002 sec
 * total energy  :   -13.6635813 Eh     change       -0.1865066E-03 Eh
   gradient norm :     0.0193182 Eh/α   predicted    -0.6842331E-03 ( 266.87%)
   displ. norm   :     0.1163029 α      lambda       -0.9425045E-03
   maximum displ.:     0.1065417 α      in ANC's #3, #24, #5, ...

........................................................................
.............................. CYCLE   18 ..............................
........................................................................

 iter      E             dE          RMSdq      gap      omega  full diag
   1    -13.8731571 -0.138732E+02  0.996E-02   14.24       0.0  T
   2    -13.8731640 -0.682181E-05  0.555E-02   14.24       1.0  T
   3    -13.8731643 -0.342981E-06  0.152E-02   14.25       1.8  T
   4    -13.8731646 -0.289239E-06  0.326E-03   14.24       8.2  T
   5    -13.8731646 -0.398722E-08  0.157E-03   14.24      17.0  T
   6    -13.8731646 -0.133870E-08  0.165E-04   14.24     161.9  T
   7    -13.8731646 -0.176534E-10  0.740E-05   14.24     360.9  T
     SCC iter.                  ...        0 min,  0.005 sec
     gradient                   ...        0 min,  0.002 sec
 * total energy  :   -13.6639466 Eh     change       -0.3653095E-03 Eh
   gradient norm :     0.0068168 Eh/α   predicted    -0.4776282E-03 (  30.75%)
   displ. norm   :     0.0838978 α      lambda       -0.2571560E-03
   maximum displ.:     0.0482096 α      in ANC's #3, #2, #8, ...

........................................................................
.............................. CYCLE   19 ..............................
........................................................................

 iter      E             dE          RMSdq      gap      omega  full diag
   1    -13.8759960 -0.138760E+02  0.668E-02   14.24       0.0  T
   2    -13.8759992 -0.326613E-05  0.378E-02   14.24       1.0  T
   3    -13.8759994 -0.187249E-06  0.869E-03   14.24       3.1  T
   4    -13.8759994 -0.358736E-07  0.198E-03   14.24      13.5  T
   5    -13.8759994 -0.123314E-08  0.665E-04   14.24      40.2  T
   6    -13.8759994 -0.426073E-09  0.143E-04   14.24     187.4  T
     SCC iter.                  ...        0 min,  0.003 sec
     gradient                   ...        0 min,  0.002 sec
 * total energy  :   -13.6639745 Eh     change       -0.2790017E-04 Eh
   gradient norm :     0.0092340 Eh/α   predicted    -0.1294830E-03 ( 364.09%)
   displ. norm   :     0.1690165 α      lambda       -0.2766480E-03
   maximum displ.:     0.1371172 α      in ANC's #1, #3, #24, ...

........................................................................
.............................. CYCLE   20 ..............................
........................................................................

 iter      E             dE          RMSdq      gap      omega  full diag
   1    -13.8751185 -0.138751E+02  0.635E-02   14.30       0.0  T
   2    -13.8751191 -0.536680E-06  0.377E-02   14.30       1.0  T
   3    -13.8751192 -0.890401E-07  0.340E-03   14.30       7.9  T
   4    -13.8751192 -0.341686E-07  0.148E-03   14.30      18.1  T
   5    -13.8751192 -0.185252E-08  0.192E-04   14.30     138.9  T
   6    -13.8751192 -0.186287E-10  0.663E-05   14.30     403.3  T
     SCC iter.                  ...        0 min,  0.003 sec
     gradient                   ...        0 min,  0.002 sec
 * total energy  :   -13.6640455 Eh     change       -0.7106270E-04 Eh
   gradient norm :     0.0079692 Eh/α   predicted    -0.1422758E-03 ( 100.21%)
   displ. norm   :     0.0595293 α      lambda       -0.1472227E-03
   maximum displ.:     0.0303556 α      in ANC's #5, #1, #4, ...
 * RMSD in coord.:     1.4173830 α      energy gain  -0.1192631E-01 Eh

generating ANC from exact Hessian ...
Using Lindh-Hessian (1995)
 Shifting diagonal of input Hessian by    5.8818832366728984E-003
 Lowest  eigenvalues of input Hessian
    0.000000    0.000000    0.000000    0.000000    0.000000    0.000000
    0.010000    0.012702    0.013915    0.020805    0.024674    0.046121
    0.051336    0.058621    0.059306    0.061203    0.062398    0.067731
 Highest eigenvalues
    1.131636    1.157846    1.166175    1.211283    1.246829    1.277894


........................................................................
.............................. CYCLE   21 ..............................
........................................................................

 iter      E             dE          RMSdq      gap      omega  full diag
   1    -13.8755325 -0.138755E+02  0.400E-02   14.27       0.0  T
   2    -13.8755337 -0.116218E-05  0.225E-02   14.27       1.2  T
   3    -13.8755338 -0.769067E-07  0.524E-03   14.27       5.1  T
   4    -13.8755338 -0.219582E-07  0.132E-03   14.27      20.2  T
   5    -13.8755338 -0.598686E-09  0.544E-04   14.27      49.2  T
   6    -13.8755338 -0.334303E-09  0.901E-05   14.27     296.7  T
     SCC iter.                  ...        0 min,  0.003 sec
     gradient                   ...        0 min,  0.002 sec
 * total energy  :   -13.6640973 Eh     change       -0.5176617E-04 Eh
   gradient norm :     0.0042817 Eh/α   predicted     0.0000000E+00 (-100.00%)
   displ. norm   :     0.0379093 α      lambda       -0.5721235E-04
   maximum displ.:     0.0282000 α      in ANC's #2, #3, #4, ...

........................................................................
.............................. CYCLE   22 ..............................
........................................................................

 iter      E             dE          RMSdq      gap      omega  full diag
   1    -13.8750234 -0.138750E+02  0.245E-02   14.26       0.0  T
   2    -13.8750236 -0.217648E-06  0.142E-02   14.26       1.9  T
   3    -13.8750236 -0.460241E-08  0.240E-03   14.26      11.1  T
   4    -13.8750236 -0.161750E-07  0.533E-04   14.26      50.2  T
   5    -13.8750236 -0.255909E-09  0.239E-04   14.26     111.6  T
     SCC iter.                  ...        0 min,  0.002 sec
     gradient                   ...        0 min,  0.002 sec
 * total energy  :   -13.6641348 Eh     change       -0.3751296E-04 Eh
   gradient norm :     0.0015137 Eh/α   predicted    -0.2864544E-04 ( -23.64%)
   displ. norm   :     0.0684853 α      lambda       -0.2254725E-04
   maximum displ.:     0.0510814 α      in ANC's #2, #3, #4, ...

........................................................................
.............................. CYCLE   23 ..............................
........................................................................

 iter      E             dE          RMSdq      gap      omega  full diag
   1    -13.8745588 -0.138746E+02  0.216E-02   14.27       0.0  T
   2    -13.8745589 -0.119630E-06  0.127E-02   14.27       2.1  T
   3    -13.8745589 -0.970032E-08  0.156E-03   14.27      17.1  T
   4    -13.8745589 -0.487571E-08  0.501E-04   14.27      53.4  T
   5    -13.8745589 -0.293184E-09  0.189E-04   14.27     141.5  T
     SCC iter.                  ...        0 min,  0.003 sec
     gradient                   ...        0 min,  0.002 sec
 * total energy  :   -13.6641516 Eh     change       -0.1679294E-04 Eh
   gradient norm :     0.0019012 Eh/α   predicted    -0.1129534E-04 ( -32.74%)
   displ. norm   :     0.0401861 α      lambda       -0.8945949E-05
   maximum displ.:     0.0253754 α      in ANC's #3, #4, #2, ...

........................................................................
.............................. CYCLE   24 ..............................
........................................................................

 iter      E             dE          RMSdq      gap      omega  full diag
   1    -13.8747541 -0.138748E+02  0.123E-02   14.27       0.0  T
   2    -13.8747541 -0.130707E-07  0.735E-03   14.27       3.6  T
   3    -13.8747541 -0.239667E-08  0.436E-04   14.27      61.3  T
   4    -13.8747541 -0.325942E-09  0.207E-04   14.27     128.8  T
     SCC iter.                  ...        0 min,  0.002 sec
     gradient                   ...        0 min,  0.002 sec
 * total energy  :   -13.6641622 Eh     change       -0.1062754E-04 Eh
   gradient norm :     0.0011644 Eh/α   predicted    -0.4476150E-05 ( -57.88%)
   displ. norm   :     0.0792788 α      lambda       -0.1156249E-04
   maximum displ.:     0.0499552 α      in ANC's #3, #1, #4, ...

........................................................................
.............................. CYCLE   25 ..............................
........................................................................

 iter      E             dE          RMSdq      gap      omega  full diag
   1    -13.8749155 -0.138749E+02  0.229E-02   14.27       0.0  T
   2    -13.8749155 -0.346421E-07  0.137E-02   14.27       2.0  T
   3    -13.8749155 -0.349048E-08  0.839E-04   14.27      31.9  T
   4    -13.8749156 -0.360804E-08  0.313E-04   14.27      85.5  T
     SCC iter.                  ...        0 min,  0.002 sec
     gradient                   ...        0 min,  0.002 sec
 * total energy  :   -13.6641715 Eh     change       -0.9227148E-05 Eh
   gradient norm :     0.0005776 Eh/α   predicted    -0.5798131E-05 ( -37.16%)
   displ. norm   :     0.0211299 α      lambda       -0.1790767E-05
   maximum displ.:     0.0163675 α      in ANC's #1, #3, #2, ...

........................................................................
.............................. CYCLE   26 ..............................
........................................................................

 iter      E             dE          RMSdq      gap      omega  full diag
   1    -13.8750128 -0.138750E+02  0.729E-03   14.26       0.0  T
   2    -13.8750128 -0.517754E-08  0.434E-03   14.26       6.2  T
   3    -13.8750128 -0.564977E-09  0.248E-04   14.26     107.7  T
   4    -13.8750128 -0.151431E-09  0.107E-04   14.26     250.0  T
     SCC iter.                  ...        0 min,  0.002 sec
     gradient                   ...        0 min,  0.002 sec
 * total energy  :   -13.6641732 Eh     change       -0.1743606E-05 Eh
   gradient norm :     0.0003214 Eh/α   predicted    -0.8960170E-06 ( -48.61%)
   displ. norm   :     0.0167868 α      lambda       -0.1000858E-05
   maximum displ.:     0.0144489 α      in ANC's #1, #3, #2, ...

........................................................................
.............................. CYCLE   27 ..............................
........................................................................

 iter      E             dE          RMSdq      gap      omega  full diag
   1    -13.8750433 -0.138750E+02  0.527E-03   14.26       0.0  T
   2    -13.8750433 -0.162283E-08  0.314E-03   14.26       8.5  T
   3    -13.8750433 -0.317206E-09  0.144E-04   14.26     185.6  T
   4    -13.8750433 -0.187867E-10  0.706E-05   14.26     378.4  T
     SCC iter.                  ...        0 min,  0.002 sec
     gradient                   ...        0 min,  0.002 sec
 * total energy  :   -13.6641745 Eh     change       -0.1250077E-05 Eh
   gradient norm :     0.0002141 Eh/α   predicted    -0.5022623E-06 ( -59.82%)
   displ. norm   :     0.0173928 α      lambda       -0.8526802E-06
   maximum displ.:     0.0148543 α      in ANC's #1, #4, #3, ...

........................................................................
.............................. CYCLE   28 ..............................
........................................................................

 iter      E             dE          RMSdq      gap      omega  full diag
   1    -13.8749901 -0.138750E+02  0.514E-03   14.26       0.0  T
   2    -13.8749901 -0.130268E-08  0.306E-03   14.26       8.7  T
   3    -13.8749901 -0.366562E-09  0.156E-04   14.26     171.0  T
   4    -13.8749901 -0.282760E-10  0.766E-05   14.26     348.7  T
     SCC iter.                  ...        0 min,  0.002 sec
     gradient                   ...        0 min,  0.002 sec
 * total energy  :   -13.6641755 Eh     change       -0.9891712E-06 Eh
   gradient norm :     0.0001312 Eh/α   predicted    -0.4262211E-06 ( -56.91%)
   displ. norm   :     0.0119739 α      lambda       -0.4035415E-06
   maximum displ.:     0.0111384 α      in ANC's #1, #4, #3, ...

   *** GEOMETRY OPTIMIZATION CONVERGED AFTER 28 ITERATIONS ***

------------------------------------------------------------------------
 total energy gain   :        -0.0120562 Eh       -7.5654 kcal/mol
 total RMSD          :         1.3826842 a0        0.7317 Å
 total power (kW/mol):        -1.1304861 (step) -150.2394 (real)
------------------------------------------------------------------------

 ANCopt (total)                0 d,  0 h,  0 min,  0.211 sec
 optimizer setup                ...        0 min,  0.000 sec (  0.052%)
 model hessian                  ...        0 min,  0.015 sec (  7.312%)
 ANC generation                 ...        0 min,  0.001 sec (  0.481%)
 coordinate transformation      ...        0 min,  0.000 sec (  0.116%)
 single point calculation       ...        0 min,  0.180 sec ( 85.372%)
 optimization log               ...        0 min,  0.005 sec (  2.393%)
 hessian update                 ...        0 min,  0.002 sec (  1.016%)
 rational function              ...        0 min,  0.005 sec (  2.326%)

================
 final structure:
================
14
 xtb: 6.7.1 (edcfbbe)
C           -0.98662232320429        0.90369602786796        0.32998511458170
H           -0.16511344990785        1.19981278131430        0.97692964164733
H           -0.93882550602898        1.49570152682283       -0.58173817258092
H           -0.84869159388246       -0.14274196537474        0.06662094971661
C           -2.32929919348318        1.10170341693176        1.02398262239905
H           -2.34179141753174        0.53432664741739        1.95760590780184
H           -3.11950798543506        0.70118474373361        0.38392314232446
C           -2.64153226386500        2.56838144592050        1.32289756939026
H           -2.58488913787764        3.14368870110373        0.39581676079050
H           -3.66794383469541        2.63738651260772        1.69170378607551
C           -1.70516527903314        3.18238669452123        2.35716332152052
H           -0.68440463755498        3.22001460939500        1.98618030867545
H           -2.01651893493629        4.19780375291538        2.59233707667769
H           -1.71758844256377        2.59875550482373        3.27533431097988

 Bond Distances (Angstroems)
 ---------------------------
C1-H2=1.0868         C1-H3=1.0881         C1-H4=1.0879         C1-C5=1.5243         H2-C1=1.0868         H3-C1=1.0881         
H4-C1=1.0879         C5-C1=1.5243         C5-H6=1.0926         C5-H7=1.0929         C5-C8=1.5290         H6-C5=1.0926         
H7-C5=1.0929         C8-C5=1.5290         C8-H9=1.0926         C8-H10=1.0928        C8-C11=1.5243        H9-C8=1.0926         
H10-C8=1.0928        C11-C8=1.5243        C11-H12=1.0867       C11-H13=1.0878       C11-H14=1.0880       H12-C11=1.0867       
H13-C11=1.0878       H14-C11=1.0880       
 C  H  Rav=1.0896 sigma=0.0026  Rmin=1.0867  Rmax=1.0929    10
 C  C  Rav=1.5259 sigma=0.0022  Rmin=1.5243  Rmax=1.5290     3

 selected bond angles (degree)
 --------------------
H3-C1-H2=108.50                H4-C1-H2=108.08                H4-C1-H3=108.36                C5-C1-H2=111.06                
C5-C1-H3=110.46                C5-C1-H4=110.30                H6-C5-C1=109.37                H7-C5-C1=108.82                
H7-C5-H6=107.57                C8-C5-C1=113.17                C8-C5-H6=109.19                C8-C5-H7=108.56                
H9-C8-C5=109.19                H10-C8-C5=108.56               H10-C8-H9=107.57               C11-C8-C5=113.18               
C11-C8-H9=109.38               C11-C8-H10=108.82              

 selected dihedral angles (degree)
 ---------------------------------
H6-C5-C1-H2=302.87            H6-C5-C1-H3=182.43            H6-C5-C1-H4= 62.67            H7-C5-C1-H2=185.62            
H7-C5-C1-H3= 65.18            H7-C5-C1-H4=305.42            C8-C5-C1-H2= 64.84            C8-C5-C1-H3=304.40            
C8-C5-C1-H4=184.64            H9-C8-C5-C1= 55.41            H9-C8-C5-H6=177.48            H9-C8-C5-H7=294.49            
H10-C8-C5-C1=172.41           H10-C8-C5-H6=294.48           H10-C8-C5-H7= 51.48           C11-C8-C5-C1=293.33           
C11-C8-C5-H6= 55.40           C11-C8-C5-H7=172.41           
           -------------------------------------------------
          |                Final Singlepoint                |
           -------------------------------------------------

          ...................................................
          :                      SETUP                      :
          :.................................................:
          :  # basis functions                  26          :
          :  # atomic orbitals                  26          :
          :  # shells                           18          :
          :  # electrons                        26          :
          :  max. iterations                   250          :
          :  Hamiltonian                  GFN2-xTB          :
          :  restarted?                      false          :
          :  GBSA solvation                  false          :
          :  PC potential                    false          :
          :  electronic temp.          300.0000000     K    :
          :  accuracy                    1.0000000          :
          :  -> integral cutoff          0.2500000E+02      :
          :  -> integral neglect         0.1000000E-07      :
          :  -> SCF convergence          0.1000000E-05 Eh   :
          :  -> wf. convergence          0.1000000E-03 e    :
          :  Broyden damping             0.4000000          :
          :  net charge                          0          :
          :  unpaired electrons                  0          :
          ...................................................

 iter      E             dE          RMSdq      gap      omega  full diag
   1    -13.8749901 -0.138750E+02  0.148E-05   14.26       0.0  T
   2    -13.8749901 -0.326850E-12  0.815E-06   14.26    3279.6  T
   3    -13.8749901 -0.177636E-13  0.346E-06   14.26    7724.0  T

   *** convergence criteria satisfied after 3 iterations ***

         #    Occupation            Energy/Eh            Energy/eV
      -------------------------------------------------------------
         1        2.0000           -0.6178083             -16.8114
       ...           ...                  ...                  ...
         7        2.0000           -0.4848767             -13.1942
         8        2.0000           -0.4664510             -12.6928
         9        2.0000           -0.4618410             -12.5673
        10        2.0000           -0.4480642             -12.1924
        11        2.0000           -0.4257993             -11.5866
        12        2.0000           -0.4233644             -11.5203
        13        2.0000           -0.4222994             -11.4914 (HOMO)
        14                          0.1018315               2.7710 (LUMO)
        15                          0.1111969               3.0258
        16                          0.1370169               3.7284
        17                          0.1488496               4.0504
        18                          0.1501296               4.0852
       ...                                ...                  ...
        26                          0.2990771               8.1383
      -------------------------------------------------------------
                  HL-Gap            0.5241308 Eh           14.2623 eV
             Fermi-level           -0.1602340 Eh           -4.3602 eV

 SCC (total)                   0 d,  0 h,  0 min,  0.005 sec
 SCC setup                      ...        0 min,  0.000 sec (  5.316%)
 Dispersion                     ...        0 min,  0.000 sec (  2.418%)
 classical contributions        ...        0 min,  0.000 sec (  1.074%)
 integral evaluation            ...        0 min,  0.001 sec ( 14.463%)
 iterations                     ...        0 min,  0.002 sec ( 34.216%)
 molecular gradient             ...        0 min,  0.002 sec ( 38.843%)
 printout                       ...        0 min,  0.000 sec (  3.308%)

         :::::::::::::::::::::::::::::::::::::::::::::::::::::
         ::                     SUMMARY                     ::
         :::::::::::::::::::::::::::::::::::::::::::::::::::::
         :: total energy             -13.664175451406 Eh    ::
         :: gradient norm              0.000131109020 Eh/a0 ::
         :: HOMO-LUMO gap             14.262325960980 eV    ::
         ::.................................................::
         :: SCC energy               -13.874982990028 Eh    ::
         :: -> isotropic ES            0.002972615577 Eh    ::
         :: -> anisotropic ES          0.004965245612 Eh    ::
         :: -> anisotropic XC          0.008996057892 Eh    ::
         :: -> dispersion             -0.006305520169 Eh    ::
         :: repulsion energy           0.210807538621 Eh    ::
         :: add. restraining           0.000000000000 Eh    ::
         :: total charge              -0.000000000000 e     ::
         :::::::::::::::::::::::::::::::::::::::::::::::::::::

           -------------------------------------------------
          |                Property Printout                |
           -------------------------------------------------

    * Orbital Energies and Occupations

         #    Occupation            Energy/Eh            Energy/eV
      -------------------------------------------------------------
         1        2.0000           -0.6178083             -16.8114
         2        2.0000           -0.5960211             -16.2186
         3        2.0000           -0.5731838             -15.5971
         4        2.0000           -0.5474261             -14.8962
         5        2.0000           -0.5064154             -13.7803
         6        2.0000           -0.5060324             -13.7698
         7        2.0000           -0.4848767             -13.1942
         8        2.0000           -0.4664510             -12.6928
         9        2.0000           -0.4618410             -12.5673
        10        2.0000           -0.4480642             -12.1924
        11        2.0000           -0.4257993             -11.5866
        12        2.0000           -0.4233644             -11.5203
        13        2.0000           -0.4222994             -11.4914 (HOMO)
        14                          0.1018315               2.7710 (LUMO)
        15                          0.1111969               3.0258
        16                          0.1370169               3.7284
        17                          0.1488496               4.0504
        18                          0.1501296               4.0852
        19                          0.1577785               4.2934
        20                          0.2029535               5.5226
        21                          0.2064255               5.6171
        22                          0.2346775               6.3859
        23                          0.2484634               6.7610
        24                          0.2786626               7.5828
       ...                                ...                  ...
        26                          0.2990771               8.1383
      -------------------------------------------------------------
                  HL-Gap            0.5241308 Eh           14.2623 eV
             Fermi-level           -0.1602340 Eh           -4.3602 eV

     #   Z          covCN         q      C6AA      α(0)
     1   6 C        3.751    -0.101    22.493     6.764
     2   1 H        0.925     0.035     2.511     2.478
     3   1 H        0.925     0.033     2.550     2.497
     4   1 H        0.925     0.030     2.586     2.515
     5   6 C        3.800    -0.053    21.518     6.605
     6   1 H        0.924     0.030     2.593     2.518
     7   1 H        0.924     0.026     2.644     2.543
     8   6 C        3.800    -0.053    21.518     6.605
     9   1 H        0.924     0.030     2.593     2.518
    10   1 H        0.924     0.026     2.644     2.543
    11   6 C        3.751    -0.101    22.494     6.764
    12   1 H        0.925     0.035     2.510     2.478
    13   1 H        0.925     0.030     2.585     2.515
    14   1 H        0.925     0.033     2.550     2.497

 Mol. C6AA /au·bohr⁶  :       1208.197064
 Mol. C8AA /au·bohr⁸  :      24487.227723
 Mol. α(0) /au        :         51.836844


Wiberg/Mayer (AO) data.
largest (>0.10) Wiberg bond orders for each atom

 ---------------------------------------------------------------------------
     #   Z sym  total        # sym  WBO       # sym  WBO       # sym  WBO
 ---------------------------------------------------------------------------
     1   6 C    3.997 --     5 C    1.020     3 H    0.988     4 H    0.988
                             2 H    0.986
     2   1 H    0.999 --     1 C    0.986
     3   1 H    0.999 --     1 C    0.988
     4   1 H    0.999 --     1 C    0.988
     5   6 C    3.998 --     1 C    1.020     8 C    1.008     7 H    0.979
                             6 H    0.978
     6   1 H    0.999 --     5 C    0.978
     7   1 H    0.999 --     5 C    0.979
     8   6 C    3.998 --    11 C    1.020     5 C    1.008    10 H    0.979
                             9 H    0.978
     9   1 H    0.999 --     8 C    0.978
    10   1 H    0.999 --     8 C    0.979
    11   6 C    3.997 --     8 C    1.020    14 H    0.988    13 H    0.988
                            12 H    0.986
    12   1 H    0.999 --    11 C    0.986
    13   1 H    0.999 --    11 C    0.988
    14   1 H    0.999 --    11 C    0.988
 ---------------------------------------------------------------------------

Topologies differ in total number of bonds
Writing topology from bond orders to xtbtopo.mol

molecular dipole:
                 x           y           z       tot (Debye)
 q only:        0.016       0.003       0.002
   full:        0.012       0.002       0.002       0.032
molecular quadrupole (traceless):
                xx          xy          yy          xz          yz          zz
 q only:       -0.039       0.092       0.036       0.062       0.045       0.003
  q+dip:       -0.267       0.128      -0.061       0.065      -0.506       0.328
   full:       -0.162       0.093      -0.003       0.052      -0.222       0.164

           -------------------------------------------------
          |                Geometry Summary                 |
           -------------------------------------------------

      molecular mass/u    :       58.1223511
   center of mass at/Å    :       -1.8970772       1.9424326       1.2612757
Note: The following floating-point exceptions are signalling: IEEE_UNDERFLOW_FLAG IEEE_DENORMAL
normal termination of xtb
  moments of inertia/u·Å² :        0.3776063E+02   0.1051153E+03   0.1227343E+03
rotational constants/cm⁻¹ :        0.4464341E+00   0.1603727E+00   0.1373506E+00

 * 13 selected distances

     #   Z          #   Z                                           value/Å
     1   6 C        2   1 H                                       1.0867840
     1   6 C        3   1 H                                       1.0881152
     1   6 C        4   1 H                                       1.0878503
     1   6 C        5   6 C                                       1.5243428
     5   6 C        6   1 H                                       1.0925773
     5   6 C        7   1 H                                       1.0929417
     5   6 C        8   6 C                                       1.5290469 (max)
     8   6 C        9   1 H                                       1.0925502
     8   6 C       10   1 H                                       1.0928406
     8   6 C       11   6 C                                       1.5243004
    11   6 C       12   1 H                                       1.0867367 (min)
    11   6 C       13   1 H                                       1.0878050
    11   6 C       14   1 H                                       1.0880340

 * 2 distinct bonds (by element types)

   Z      Z             #   av. dist./Å        max./Å        min./Å
   1 H    6 C          10     1.0896235     1.0929417     1.0867367
   6 C    6 C           3     1.5258967     1.5290469     1.5243004


optimized geometry written to: xtbopt.xyz


           -------------------------------------------------
          | TOTAL ENERGY              -13.664175451406 Eh   |
          | GRADIENT NORM               0.000131109020 Eh/α |
          | HOMO-LUMO GAP              14.262325960980 eV   |
           -------------------------------------------------

------------------------------------------------------------------------
 * finished run on 2026/08/17 at 12:14:19.312     
------------------------------------------------------------------------
 total:
 * wall-time:     0 d,  0 h,  0 min,  0.331 sec
 *  cpu-time:     0 d,  0 h,  0 min,  1.257 sec
 * ratio c/w:     3.795 speedup
 SCF:
 * wall-time:     0 d,  0 h,  0 min,  0.090 sec
 *  cpu-time:     0 d,  0 h,  0 min,  0.360 sec
 * ratio c/w:     3.987 speedup
 ANC optimizer:
 * wall-time:     0 d,  0 h,  0 min,  0.217 sec
 *  cpu-time:     0 d,  0 h,  0 min,  0.804 sec
 * ratio c/w:     3.705 speedup

