14
 energy: -13.664175451406 gnorm: 0.000131109020 xtb: 6.7.1 (edcfbbe)
C           -0.98662232320429        0.90369602786796        0.32998511458170
H           -0.16511344990785        1.19981278131430        0.97692964164733
H           -0.93882550602898        1.49570152682283       -0.58173817258092
H           -0.84869159388246       -0.14274196537474        0.06662094971661
C           -2.32929919348318        1.10170341693176        1.02398262239905
H           -2.34179141753174        0.53432664741739        1.95760590780184
H           -3.11950798543506        0.70118474373361        0.38392314232446
C           -2.64153226386500        2.56838144592050        1.32289756939026
H           -2.58488913787764        3.14368870110373        0.39581676079050
H           -3.66794383469541        2.63738651260772        1.69170378607551
C           -1.70516527903314        3.18238669452123        2.35716332152052
H           -0.68440463755498        3.22001460939500        1.98618030867545
H           -2.01651893493629        4.19780375291538        2.59233707667769
H           -1.71758844256377        2.59875550482373        3.27533431097988
