14
 energy: -13.664177370796 gnorm: 0.000110894712 xtb: 6.7.1 (edcfbbe)
C           -0.53101724858823        0.81590236882159        1.46277498397965
H           -0.37141356215293       -0.25730303666095        1.38563967711600
H           -0.21811023828270        1.13301665415316        2.45398858949953
H            0.10041973991608        1.30976903960524        0.72709867182876
C           -1.99742056589474        1.15184879796435        1.21716759968247
H           -2.61204457027712        0.67553385479180        1.98469968325525
H           -2.29650598144355        0.73763113384128        0.25104609561277
C           -2.27720179489868        2.65514687797690        1.21066190627108
H           -1.62008044257575        3.13950615163145        0.48450925269419
H           -3.30711308751689        2.81645671334404        0.88253690590843
C           -2.08915172013431        3.30600836828707        2.57611892782839
H           -2.36874015969998        4.35644328560777        2.53536719975751
H           -2.71229969045501        2.81440981432602        3.32045245578238
H           -1.05323498799666        3.24488196631042        2.89901548078378
