14
 energy: -13.665127439513 gnorm: 0.000288672853 xtb: 6.7.1 (edcfbbe)
C           -2.47858550681126        0.36940669360976       -0.00890919177383
H           -3.55996734729249        0.26889549460523        0.05357445494555
H           -2.04444427183181       -0.62632944402754       -0.06694071203089
H           -2.23856462296520        0.90305921159952       -0.92627704703717
C           -1.94153012078022        1.12104032181588        1.20279867198669
H           -0.85349293831013        1.19208474879067        1.13311638004712
H           -2.17833954309060        0.56144712854878        2.11097142477303
C           -2.53099594357547        2.52538485498284        1.31028250803137
H           -2.29196029454257        3.08576085295128        0.40324141723032
H           -3.61920891313948        2.45442487723668        1.37731775018675
C           -1.99720482503390        3.27558647287758        2.52436319444410
H           -0.91487688590031        3.37237186754355        2.46783535276956
H           -2.42823740317283        4.27270814226861        2.57979984207680
H           -2.24449612355367        2.74350629719714        3.44072803435057
