      -----------------------------------------------------------      
     |                   =====================                   |     
     |                           x T B                           |     
     |                   =====================                   |     
     |                         S. Grimme                         |     
     |          Mulliken Center for Theoretical Chemistry        |     
     |                    University of Bonn                     |     
      -----------------------------------------------------------      

   * xtb version 6.7.1 (edcfbbe) compiled by 'conda@5dfe00f5fb80' on 2026-06-10

   xtb is free software: you can redistribute it and/or modify it under
   the terms of the GNU Lesser General Public License as published by
   the Free Software Foundation, either version 3 of the License, or
   (at your option) any later version.
   
   xtb is distributed in the hope that it will be useful,
   but WITHOUT ANY WARRANTY; without even the implied warranty of
   MERCHANTABILITY or FITNESS FOR A PARTICULAR PURPOSE.  See the
   GNU Lesser General Public License for more details.
   
   Cite this work as:
   * C. Bannwarth, E. Caldeweyher, S. Ehlert, A. Hansen, P. Pracht,
     J. Seibert, S. Spicher, S. Grimme, WIREs Comput. Mol. Sci., 2020, 11,
     e01493. DOI: 10.1002/wcms.1493
   
   for GFN2-xTB:
   * C. Bannwarth, S. Ehlert and S. Grimme., J. Chem. Theory Comput., 2019,
     15, 1652-1671. DOI: 10.1021/acs.jctc.8b01176
   for GFN1-xTB:
   * S. Grimme, C. Bannwarth, P. Shushkov, J. Chem. Theory Comput., 2017,
     13, 1989-2009. DOI: 10.1021/acs.jctc.7b00118
   for GFN0-xTB:
   * P. Pracht, E. Caldeweyher, S. Ehlert, S. Grimme, ChemRxiv, 2019, preprint.
     DOI: 10.26434/chemrxiv.8326202.v1
   for GFN-FF:
   * S. Spicher and S. Grimme, Angew. Chem. Int. Ed., 2020, 59, 15665-15673.
     DOI: 10.1002/anie.202004239
   
   for ALPB and GBSA implicit solvation:
   * S. Ehlert, M. Stahn, S. Spicher, S. Grimme, J. Chem. Theory Comput.,
     2021, 17, 4250-4261. DOI: 10.1021/acs.jctc.1c00471
   
   for ddCOSMO and CPCM-X implicit solvation:
   * M. Stahn, S. Ehlert, S. Grimme, J. Phys. Chem. A,
     2023, XX, XXXX-XXXX. DOI: 10.1021/acs.jpca.3c04382
   
   for DFT-D4:
   * E. Caldeweyher, C. Bannwarth and S. Grimme, J. Chem. Phys., 2017,
     147, 034112. DOI: 10.1063/1.4993215
   * E. Caldeweyher, S. Ehlert, A. Hansen, H. Neugebauer, S. Spicher,
     C. Bannwarth and S. Grimme, J. Chem. Phys., 2019, 150, 154122.
     DOI: 10.1063/1.5090222
   * E. Caldeweyher, J.-M. Mewes, S. Ehlert and S. Grimme, Phys. Chem. Chem. Phys.
     2020, 22, 8499-8512. DOI: 10.1039/D0CP00502A
   
   for sTDA-xTB:
   * S. Grimme and C. Bannwarth, J. Chem. Phys., 2016, 145, 054103.
     DOI: 10.1063/1.4959605
   
   in the mass-spec context:
   * V. Asgeirsson, C. Bauer and S. Grimme, Chem. Sci., 2017, 8, 4879.
     DOI: 10.1039/c7sc00601b
   * J. Koopman and S. Grimme, ACS Omega 2019, 4, 12, 15120-15133.
     DOI: 10.1021/acsomega.9b02011
   
   for metadynamics refer to:
   * S. Grimme, J. Chem. Theory Comput., 2019, 155, 2847-2862
     DOI: 10.1021/acs.jctc.9b00143
   
   for SPH calculations refer to:
   * S. Spicher and S. Grimme, J. Chem. Theory Comput., 2021, 17, 1701-1714
     DOI: 10.1021/acs.jctc.0c01306
   
   for ONIOM refer to:
   * C. Plett, A. Katbashev, S. Ehlert, S. Grimme, M. Bursch,
     Phys. Chem. Chem. Phys., 2023, 25, 17860-17868. DOI: 10.1039/D3CP02178E
   
   for DIPRO refer to:
   * J. Kohn, N. Gildemeister, S. Grimme, D. Fazzi, A. Hansen,
     J. Chem. Phys., 2023, just accepted.
   
   for PTB refer to:
   * S. Grimme, M. Mueller, A. Hansen, J. Chem. Phys., 2023, 158, 124111.
     DOI: 10.1063/5.0137838
   
   with help from (in alphabetical order)
   P. Atkinson, C. Bannwarth, F. Bohle, G. Brandenburg, E. Caldeweyher
   M. Checinski, S. Dohm, S. Ehlert, S. Ehrlich, I. Gerasimov, C. Hölzer
   A. Katbashev, J. Kohn, J. Koopman, C. Lavigne, S. Lehtola, F. März, M. Müller,
   F. Musil, H. Neugebauer, J. Pisarek, C. Plett, P. Pracht, F. Pultar,
   J. Seibert, P. Shushkov, S. Spicher, M. Stahn, M. Steiner, T. Strunk,
   J. Stückrath, T. Rose, and J. Unsleber
   
 * started run on 2026/08/17 at 12:14:25.433     
   ID    Z sym.   atoms
    1    6 C      1, 5, 8, 11
    2    1 H      2-4, 6, 7, 9, 10, 12-14

           -------------------------------------------------
          |                Calculation Setup                |
           -------------------------------------------------

          program call               : xtb input.xyz --gfn2 --opt tight --chrg 0 --uhf 0 --iterations 250
          coordinate file            : input.xyz
          omp threads                :                     4


           -------------------------------------------------
          |                 G F N 2 - x T B                 |
           -------------------------------------------------

        Reference                      10.1021/acs.jctc.8b01176
      * Hamiltonian:
        H0-scaling (s, p, d)           1.850000    2.230000    2.230000
        zeta-weighting                 0.500000
      * Dispersion:
        s8                             2.700000
        a1                             0.520000
        a2                             5.000000
        s9                             5.000000
      * Repulsion:
        kExp                           1.500000    1.000000
        rExp                           1.000000
      * Coulomb:
        alpha                          2.000000
        third order                    shell-resolved
        anisotropic                    true
        a3                             3.000000
        a5                             4.000000
        cn-shift                       1.200000
        cn-exp                         4.000000
        max-rad                        5.000000

q/qsh data taken from xtbrestart
CAMM data taken from xtbrestart

          ...................................................
          :                      SETUP                      :
          :.................................................:
          :  # basis functions                  26          :
          :  # atomic orbitals                  26          :
          :  # shells                           18          :
          :  # electrons                        26          :
          :  max. iterations                   250          :
          :  Hamiltonian                  GFN2-xTB          :
          :  restarted?                       true          :
          :  GBSA solvation                  false          :
          :  PC potential                    false          :
          :  electronic temp.          300.0000000     K    :
          :  accuracy                    1.0000000          :
          :  -> integral cutoff          0.2500000E+02      :
          :  -> integral neglect         0.1000000E-07      :
          :  -> SCF convergence          0.1000000E-05 Eh   :
          :  -> wf. convergence          0.1000000E-03 e    :
          :  Broyden damping             0.4000000          :
          :  net charge                          0          :
          :  unpaired electrons                  0          :
          ...................................................

 iter      E             dE          RMSdq      gap      omega  full diag
   1    -13.8611674 -0.138612E+02  0.122E+00   13.52       0.0  T
   2    -13.8612938 -0.126333E-03  0.731E-01   13.51       1.0  T
   3    -13.8613292 -0.354648E-04  0.523E-02   13.50       1.0  T
   4    -13.8613344 -0.514663E-05  0.284E-02   13.50       1.0  T
   5    -13.8613344 -0.511544E-07  0.392E-03   13.50       6.8  T
   6    -13.8613344 -0.186265E-07  0.858E-04   13.50      31.1  T
   7    -13.8613344 -0.371097E-09  0.111E-04   13.50     240.8  T

   *** convergence criteria satisfied after 7 iterations ***

         #    Occupation            Energy/Eh            Energy/eV
      -------------------------------------------------------------
         1        2.0000           -0.6170252             -16.7901
       ...           ...                  ...                  ...
         7        2.0000           -0.4863144             -13.2333
         8        2.0000           -0.4672193             -12.7137
         9        2.0000           -0.4593501             -12.4996
        10        2.0000           -0.4499191             -12.2429
        11        2.0000           -0.4263093             -11.6005
        12        2.0000           -0.4206575             -11.4467
        13        2.0000           -0.4185190             -11.3885 (HOMO)
        14                          0.0775297               2.1097 (LUMO)
        15                          0.0977554               2.6601
        16                          0.1256317               3.4186
        17                          0.1463556               3.9825
        18                          0.1503080               4.0901
       ...                                ...                  ...
        26                          0.3226219               8.7790
      -------------------------------------------------------------
                  HL-Gap            0.4960488 Eh           13.4982 eV
             Fermi-level           -0.1704947 Eh           -4.6394 eV

 SCC (total)                   0 d,  0 h,  0 min,  0.097 sec
 SCC setup                      ...        0 min,  0.004 sec (  4.090%)
 Dispersion                     ...        0 min,  0.012 sec ( 12.375%)
 classical contributions        ...        0 min,  0.002 sec (  1.789%)
 integral evaluation            ...        0 min,  0.006 sec (  6.531%)
 iterations                     ...        0 min,  0.064 sec ( 65.800%)
 molecular gradient             ...        0 min,  0.009 sec (  9.168%)
 printout                       ...        0 min,  0.000 sec (  0.215%)

         :::::::::::::::::::::::::::::::::::::::::::::::::::::
         ::                     SUMMARY                     ::
         :::::::::::::::::::::::::::::::::::::::::::::::::::::
         :: total energy             -13.655253697266 Eh    ::
         :: gradient norm              0.015671817903 Eh/a0 ::
         :: HOMO-LUMO gap             13.498173818533 eV    ::
         ::.................................................::
         :: SCC energy               -13.861327387677 Eh    ::
         :: -> isotropic ES            0.002996612341 Eh    ::
         :: -> anisotropic ES          0.005177009531 Eh    ::
         :: -> anisotropic XC          0.009191076895 Eh    ::
         :: -> dispersion             -0.006177450940 Eh    ::
         :: repulsion energy           0.206073690411 Eh    ::
         :: add. restraining           0.000000000000 Eh    ::
         :: total charge              -0.000000000000 e     ::
         :::::::::::::::::::::::::::::::::::::::::::::::::::::

      ----------------------------------------------------------- 
     |                   =====================                   |
     |                        A N C O P T                        |
     |                   =====================                   |
     |               Approximate Normal Coordinate               |
     |                Rational Function Optimizer                |
      ----------------------------------------------------------- 
      ----------------------------------------------------------- 
     |                   =====================                   |
     |                        A N C O P T                        |
     |                   =====================                   |
     |               Approximate Normal Coordinate               |
     |                Rational Function Optimizer                |
      ----------------------------------------------------------- 

          ...................................................
          :                      SETUP                      :
          :.................................................:
          :   optimization level             tight          :
          :   max. optcycles                   200          :
          :   ANC micro-cycles                  20          :
          :   degrees of freedom                36          :
          :.................................................:
          :   RF solver                   davidson          :
          :   write xtbopt.log                true          :
          :   linear?                        false          :
          :   energy convergence         0.1000000E-05 Eh   :
          :   grad. convergence          0.8000000E-03 Eh/α :
          :   maxmium RF displ.          1.0000000          :
          :   Hlow (freq-cutoff)         0.1000000E-01      :
          :   Hmax (freq-cutoff)         5.0000000          :
          :   S6 in model hess.         20.0000000          :
          ...................................................

generating ANC from exact Hessian ...
Using Lindh-Hessian (1995)
 Shifting diagonal of input Hessian by    6.1831818566446140E-003
 Lowest  eigenvalues of input Hessian
    0.000000    0.000000    0.000000    0.000000    0.000000    0.000000
    0.010000    0.013007    0.013647    0.020960    0.022572    0.046602
    0.049397    0.058502    0.058571    0.060242    0.064187    0.064493
 Highest eigenvalues
    1.107021    1.137111    1.143315    1.205438    1.232822    1.278912


........................................................................
.............................. CYCLE    1 ..............................
........................................................................

 iter      E             dE          RMSdq      gap      omega  full diag
   1    -13.8613344 -0.138613E+02  0.517E-05   13.50       0.0  T
   2    -13.8613344 -0.150457E-11  0.284E-05   13.50     941.3  T
   3    -13.8613344 -0.140332E-12  0.613E-06   13.50    4358.0  T
     SCC iter.                  ...        0 min,  0.003 sec
     gradient                   ...        0 min,  0.002 sec
 * total energy  :   -13.6552537 Eh     change       -0.1642775E-10 Eh
   gradient norm :     0.0156710 Eh/α   predicted     0.0000000E+00 (-100.00%)
   displ. norm   :     0.2093486 α      lambda       -0.8803451E-03
   maximum displ.:     0.1537122 α      in ANC's #1, #2, #4, ...

........................................................................
.............................. CYCLE    2 ..............................
........................................................................

 iter      E             dE          RMSdq      gap      omega  full diag
   1    -13.8639105 -0.138639E+02  0.748E-02   13.50       0.0  T
   2    -13.8639118 -0.131191E-05  0.445E-02   13.50       1.0  T
   3    -13.8639119 -0.843768E-07  0.338E-03   13.50       7.9  T
   4    -13.8639119 -0.183633E-08  0.120E-03   13.50      22.2  T
   5    -13.8639119 -0.161538E-09  0.171E-04   13.50     156.5  T
   6    -13.8639119 -0.101151E-09  0.494E-05   13.50     541.4  T
     SCC iter.                  ...        0 min,  0.005 sec
     gradient                   ...        0 min,  0.002 sec
 * total energy  :   -13.6560267 Eh     change       -0.7729774E-03 Eh
   gradient norm :     0.0069817 Eh/α   predicted    -0.4594627E-03 ( -40.56%)
   displ. norm   :     0.5595041 α      lambda       -0.1760705E-02
   maximum displ.:     0.3732272 α      in ANC's #1, #2, #4, ...

........................................................................
.............................. CYCLE    3 ..............................
........................................................................

 iter      E             dE          RMSdq      gap      omega  full diag
   1    -13.8628228 -0.138628E+02  0.177E-01   13.57       0.0  T
   2    -13.8628252 -0.246928E-05  0.106E-01   13.57       1.0  T
   3    -13.8628255 -0.221215E-06  0.691E-03   13.57       3.9  T
   4    -13.8628257 -0.231291E-06  0.281E-03   13.57       9.5  T
   5    -13.8628257 -0.808029E-09  0.557E-04   13.57      48.0  T
   6    -13.8628257 -0.254246E-09  0.120E-04   13.57     223.3  T
     SCC iter.                  ...        0 min,  0.003 sec
     gradient                   ...        0 min,  0.002 sec
 * total energy  :   -13.6575082 Eh     change       -0.1481528E-02 Eh
   gradient norm :     0.0110934 Eh/α   predicted    -0.1155943E-02 ( -21.98%)
   displ. norm   :     0.6129295 α      lambda       -0.1565254E-02
   maximum displ.:     0.4116258 α      in ANC's #1, #2, #4, ...

........................................................................
.............................. CYCLE    4 ..............................
........................................................................

 iter      E             dE          RMSdq      gap      omega  full diag
   1    -13.8565546 -0.138566E+02  0.187E-01   13.70       0.0  T
   2    -13.8565658 -0.111515E-04  0.110E-01   13.70       1.0  T
   3    -13.8565662 -0.460529E-06  0.155E-02   13.69       1.7  T
   4    -13.8565667 -0.458382E-06  0.388E-03   13.70       6.9  T
   5    -13.8565667 -0.625967E-08  0.204E-03   13.70      13.1  T
   6    -13.8565667 -0.120697E-08  0.157E-04   13.70     170.3  T
   7    -13.8565667 -0.157598E-10  0.350E-05   13.70     762.8  T
     SCC iter.                  ...        0 min,  0.006 sec
     gradient                   ...        0 min,  0.002 sec
 * total energy  :   -13.6583595 Eh     change       -0.8513293E-03 Eh
   gradient norm :     0.0260960 Eh/α   predicted    -0.1076668E-02 (  26.47%)
   displ. norm   :     0.1647463 α      lambda       -0.1342104E-02
   maximum displ.:     0.1268383 α      in ANC's #1, #4, #24, ...

........................................................................
.............................. CYCLE    5 ..............................
........................................................................

 iter      E             dE          RMSdq      gap      omega  full diag
   1    -13.8637168 -0.138637E+02  0.772E-02   13.89       0.0  T
   2    -13.8637225 -0.570948E-05  0.429E-02   13.89       1.0  T
   3    -13.8637228 -0.285468E-06  0.129E-02   13.90       2.1  T
   4    -13.8637230 -0.164855E-06  0.277E-03   13.90       9.6  T
   5    -13.8637230 -0.255742E-08  0.132E-03   13.90      20.2  T
   6    -13.8637230 -0.576806E-09  0.156E-04   13.90     171.6  T
   7    -13.8637230 -0.260485E-10  0.639E-05   13.90     418.2  T
     SCC iter.                  ...        0 min,  0.004 sec
     gradient                   ...        0 min,  0.002 sec
 * total energy  :   -13.6593951 Eh     change       -0.1035526E-02 Eh
   gradient norm :     0.0158722 Eh/α   predicted    -0.6892666E-03 ( -33.44%)
   displ. norm   :     0.4461039 α      lambda       -0.1711667E-02
   maximum displ.:     0.2977057 α      in ANC's #1, #2, #4, ...

........................................................................
.............................. CYCLE    6 ..............................
........................................................................

 iter      E             dE          RMSdq      gap      omega  full diag
   1    -13.8685972 -0.138686E+02  0.126E-01   14.12       0.0  T
   2    -13.8685998 -0.257700E-05  0.753E-02   14.12       1.0  T
   3    -13.8686000 -0.184218E-06  0.658E-03   14.12       4.1  T
   4    -13.8686001 -0.145643E-06  0.232E-03   14.12      11.5  T
   5    -13.8686001 -0.210457E-08  0.696E-04   14.12      38.4  T
   6    -13.8686001 -0.315858E-09  0.154E-04   14.12     173.1  T
     SCC iter.                  ...        0 min,  0.011 sec
     gradient                   ...        0 min,  0.019 sec
 * total energy  :   -13.6606072 Eh     change       -0.1212154E-02 Eh
   gradient norm :     0.0100363 Eh/α   predicted    -0.1026153E-02 ( -15.34%)
   displ. norm   :     0.4721034 α      lambda       -0.1119351E-02
   maximum displ.:     0.3170524 α      in ANC's #2, #1, #4, ...

........................................................................
.............................. CYCLE    7 ..............................
........................................................................

 iter      E             dE          RMSdq      gap      omega  full diag
   1    -13.8650197 -0.138650E+02  0.142E-01   14.15       0.0  T
   2    -13.8650333 -0.135827E-04  0.821E-02   14.15       1.0  T
   3    -13.8650338 -0.506285E-06  0.178E-02   14.15       1.5  T
   4    -13.8650339 -0.124162E-06  0.314E-03   14.15       8.5  T
   5    -13.8650339 -0.267408E-08  0.138E-03   14.15      19.4  T
   6    -13.8650339 -0.107539E-08  0.173E-04   14.15     154.6  T
   7    -13.8650339 -0.582610E-10  0.754E-05   14.15     354.5  T
     SCC iter.                  ...        0 min,  0.017 sec
     gradient                   ...        0 min,  0.005 sec
 * total energy  :   -13.6610886 Eh     change       -0.4813515E-03 Eh
   gradient norm :     0.0220923 Eh/α   predicted    -0.6844171E-03 (  42.19%)
   displ. norm   :     0.1945301 α      lambda       -0.1417456E-02
   maximum displ.:     0.1291085 α      in ANC's #2, #24, #26, ...

........................................................................
.............................. CYCLE    8 ..............................
........................................................................

 iter      E             dE          RMSdq      gap      omega  full diag
   1    -13.8748718 -0.138749E+02  0.125E-01   14.12       0.0  T
   2    -13.8748849 -0.130744E-04  0.692E-02   14.12       1.0  T
   3    -13.8748857 -0.849324E-06  0.193E-02   14.12       1.4  T
   4    -13.8748860 -0.316562E-06  0.454E-03   14.12       5.9  T
   5    -13.8748860 -0.468602E-08  0.206E-03   14.12      13.0  T
   6    -13.8748860 -0.132475E-08  0.181E-04   14.12     147.5  T
   7    -13.8748860 -0.344951E-10  0.844E-05   14.12     316.7  T
     SCC iter.                  ...        0 min,  0.008 sec
     gradient                   ...        0 min,  0.002 sec
 * total energy  :   -13.6616482 Eh     change       -0.5596542E-03 Eh
   gradient norm :     0.0185145 Eh/α   predicted    -0.7355491E-03 (  31.43%)
   displ. norm   :     0.4137454 α      lambda       -0.1154741E-02
   maximum displ.:     0.2723273 α      in ANC's #2, #1, #4, ...

........................................................................
.............................. CYCLE    9 ..............................
........................................................................

 iter      E             dE          RMSdq      gap      omega  full diag
   1    -13.8665056 -0.138665E+02  0.169E-01   14.14       0.0  T
   2    -13.8665296 -0.239196E-04  0.957E-02   14.13       1.0  T
   3    -13.8665306 -0.102948E-05  0.250E-02   14.13       1.1  T
   4    -13.8665309 -0.325323E-06  0.488E-03   14.13       5.5  T
   5    -13.8665309 -0.565212E-08  0.221E-03   14.13      12.1  T
   6    -13.8665309 -0.263630E-08  0.235E-04   14.13     113.6  T
   7    -13.8665309 -0.754063E-10  0.104E-04   14.13     256.9  T
     SCC iter.                  ...        0 min,  0.004 sec
     gradient                   ...        0 min,  0.002 sec
 * total energy  :   -13.6618606 Eh     change       -0.2123563E-03 Eh
   gradient norm :     0.0250277 Eh/α   predicted    -0.6762166E-03 ( 218.43%)
   displ. norm   :     0.1155985 α      lambda       -0.1097415E-02
   maximum displ.:     0.1009178 α      in ANC's #3, #5, #2, ...

........................................................................
.............................. CYCLE   10 ..............................
........................................................................

 iter      E             dE          RMSdq      gap      omega  full diag
   1    -13.8689468 -0.138689E+02  0.893E-02   14.14       0.0  T
   2    -13.8689593 -0.125662E-04  0.478E-02   14.14       1.0  T
   3    -13.8689599 -0.527667E-06  0.179E-02   14.14       1.5  T
   4    -13.8689600 -0.115791E-06  0.334E-03   14.14       8.0  T
   5    -13.8689600 -0.183853E-08  0.137E-03   14.14      19.5  T
   6    -13.8689600 -0.215631E-08  0.158E-04   14.14     169.7  T
   7    -13.8689600 -0.248193E-10  0.670E-05   14.14     399.0  T
     SCC iter.                  ...        0 min,  0.006 sec
     gradient                   ...        0 min,  0.002 sec
 * total energy  :   -13.6624810 Eh     change       -0.6204247E-03 Eh
   gradient norm :     0.0132881 Eh/α   predicted    -0.5560395E-03 ( -10.38%)
   displ. norm   :     0.1580626 α      lambda       -0.4545393E-03
   maximum displ.:     0.1220611 α      in ANC's #2, #24, #4, ...

........................................................................
.............................. CYCLE   11 ..............................
........................................................................

 iter      E             dE          RMSdq      gap      omega  full diag
   1    -13.8713266 -0.138713E+02  0.551E-02   14.10       0.0  T
   2    -13.8713275 -0.915797E-06  0.328E-02   14.10       1.0  T
   3    -13.8713275 -0.375046E-07  0.317E-03   14.10       8.4  T
   4    -13.8713275 -0.693915E-08  0.830E-04   14.10      32.2  T
   5    -13.8713275 -0.556010E-09  0.377E-04   14.10      70.9  T
     SCC iter.                  ...        0 min,  0.002 sec
     gradient                   ...        0 min,  0.002 sec
 * total energy  :   -13.6628296 Eh     change       -0.3485907E-03 Eh
   gradient norm :     0.0095737 Eh/α   predicted    -0.2329456E-03 ( -33.18%)
   displ. norm   :     0.4098221 α      lambda       -0.7452542E-03
   maximum displ.:     0.3063636 α      in ANC's #2, #24, #4, ...

........................................................................
.............................. CYCLE   12 ..............................
........................................................................

 iter      E             dE          RMSdq      gap      omega  full diag
   1    -13.8708877 -0.138709E+02  0.121E-01   14.02       0.0  T
   2    -13.8708891 -0.143889E-05  0.727E-02   14.02       1.0  T
   3    -13.8708892 -0.988721E-07  0.529E-03   14.02       5.1  T
   4    -13.8708894 -0.149583E-06  0.191E-03   14.02      14.0  T
   5    -13.8708894 -0.201951E-08  0.317E-04   14.02      84.3  T
   6    -13.8708894 -0.292957E-10  0.114E-04   14.02     233.9  T
     SCC iter.                  ...        0 min,  0.005 sec
     gradient                   ...        0 min,  0.002 sec
 * total energy  :   -13.6632990 Eh     change       -0.4694015E-03 Eh
   gradient norm :     0.0102584 Eh/α   predicted    -0.4352127E-03 (  -7.28%)
   displ. norm   :     0.1797065 α      lambda       -0.5434306E-03
   maximum displ.:     0.1012457 α      in ANC's #2, #24, #26, ...

........................................................................
.............................. CYCLE   13 ..............................
........................................................................

 iter      E             dE          RMSdq      gap      omega  full diag
   1    -13.8773774 -0.138774E+02  0.895E-02   14.04       0.0  T
   2    -13.8773878 -0.103634E-04  0.496E-02   14.04       1.0  T
   3    -13.8773882 -0.404424E-06  0.160E-02   14.04       1.7  T
   4    -13.8773883 -0.983924E-07  0.289E-03   14.04       9.3  T
   5    -13.8773883 -0.467195E-08  0.151E-03   14.04      17.7  T
   6    -13.8773883 -0.901151E-09  0.132E-04   14.04     202.4  T
   7    -13.8773883 -0.246168E-10  0.612E-05   14.04     436.6  T
     SCC iter.                  ...        0 min,  0.003 sec
     gradient                   ...        0 min,  0.002 sec
 * total energy  :   -13.6633812 Eh     change       -0.8223693E-04 Eh
   gradient norm :     0.0149050 Eh/α   predicted    -0.2804930E-03 ( 241.08%)
   displ. norm   :     0.4004926 α      lambda       -0.7387724E-03
   maximum displ.:     0.2907314 α      in ANC's #2, #24, #4, ...

........................................................................
.............................. CYCLE   14 ..............................
........................................................................

 iter      E             dE          RMSdq      gap      omega  full diag
   1    -13.8682447 -0.138682E+02  0.141E-01   14.02       0.0  T
   2    -13.8682622 -0.174650E-04  0.809E-02   14.02       1.0  T
   3    -13.8682629 -0.703675E-06  0.203E-02   14.02       1.3  T
   4    -13.8682631 -0.196315E-06  0.394E-03   14.02       6.8  T
   5    -13.8682631 -0.125347E-07  0.202E-03   14.02      13.2  T
   6    -13.8682631 -0.183610E-08  0.244E-04   14.02     109.4  T
   7    -13.8682631 -0.575273E-10  0.379E-05   14.02     704.3  T
     SCC iter.                  ...        0 min,  0.004 sec
     gradient                   ...        0 min,  0.017 sec
 * total energy  :   -13.6635332 Eh     change       -0.1520080E-03 Eh
   gradient norm :     0.0142763 Eh/α   predicted    -0.4286376E-03 ( 181.98%)
   displ. norm   :     0.1774444 α      lambda       -0.6269473E-03
   maximum displ.:     0.1312350 α      in ANC's #2, #4, #24, ...

........................................................................
.............................. CYCLE   15 ..............................
........................................................................

 iter      E             dE          RMSdq      gap      omega  full diag
   1    -13.8736164 -0.138736E+02  0.882E-02   14.12       0.0  T
   2    -13.8736240 -0.757400E-05  0.492E-02   14.12       1.0  T
   3    -13.8736244 -0.412270E-06  0.144E-02   14.12       1.9  T
   4    -13.8736245 -0.140249E-06  0.313E-03   14.12       8.5  T
   5    -13.8736245 -0.287918E-08  0.139E-03   14.12      19.2  T
   6    -13.8736245 -0.100087E-08  0.168E-04   14.12     159.0  T
   7    -13.8736245 -0.256204E-10  0.715E-05   14.12     374.0  T
     SCC iter.                  ...        0 min,  0.061 sec
     gradient                   ...        0 min,  0.019 sec
 * total energy  :   -13.6637336 Eh     change       -0.2003863E-03 Eh
   gradient norm :     0.0065341 Eh/α   predicted    -0.3233438E-03 (  61.36%)
   displ. norm   :     0.0942926 α      lambda       -0.1374474E-03
   maximum displ.:     0.0525077 α      in ANC's #2, #24, #1, ...

........................................................................
.............................. CYCLE   16 ..............................
........................................................................

 iter      E             dE          RMSdq      gap      omega  full diag
   1    -13.8738864 -0.138739E+02  0.365E-02   14.13       0.0  T
   2    -13.8738875 -0.104664E-05  0.207E-02   14.13       1.3  T
   3    -13.8738875 -0.491294E-07  0.521E-03   14.13       5.1  T
   4    -13.8738875 -0.108302E-07  0.102E-03   14.13      26.3  T
   5    -13.8738875 -0.438369E-10  0.337E-04   14.13      79.2  T
   6    -13.8738875 -0.248388E-09  0.388E-05   14.13     689.6  T
     SCC iter.                  ...        0 min,  0.043 sec
     gradient                   ...        0 min,  0.012 sec
 * total energy  :   -13.6638206 Eh     change       -0.8697280E-04 Eh
   gradient norm :     0.0021280 Eh/α   predicted    -0.6933369E-04 ( -20.28%)
   displ. norm   :     0.1914459 α      lambda       -0.9881215E-04
   maximum displ.:     0.1218393 α      in ANC's #2, #24, #26, ...

........................................................................
.............................. CYCLE   17 ..............................
........................................................................

 iter      E             dE          RMSdq      gap      omega  full diag
   1    -13.8726755 -0.138727E+02  0.556E-02   14.14       0.0  T
   2    -13.8726760 -0.503799E-06  0.332E-02   14.14       1.0  T
   3    -13.8726761 -0.464221E-07  0.250E-03   14.14      10.7  T
   4    -13.8726761 -0.919616E-08  0.906E-04   14.14      29.5  T
   5    -13.8726761 -0.517504E-09  0.355E-04   14.14      75.3  T
     SCC iter.                  ...        0 min,  0.030 sec
     gradient                   ...        0 min,  0.012 sec
 * total energy  :   -13.6638730 Eh     change       -0.5241181E-04 Eh
   gradient norm :     0.0040555 Eh/α   predicted    -0.5121617E-04 (  -2.28%)
   displ. norm   :     0.0864773 α      lambda       -0.5785377E-04
   maximum displ.:     0.0459979 α      in ANC's #1, #24, #2, ...

........................................................................
.............................. CYCLE   18 ..............................
........................................................................

 iter      E             dE          RMSdq      gap      omega  full diag
   1    -13.8732043 -0.138732E+02  0.268E-02   14.17       0.0  T
   2    -13.8732043 -0.806400E-07  0.160E-02   14.17       1.7  T
   3    -13.8732043 -0.754295E-08  0.122E-03   14.17      22.0  T
   4    -13.8732044 -0.553506E-08  0.462E-04   14.17      57.8  T
   5    -13.8732044 -0.120101E-09  0.111E-04   14.17     240.4  T
     SCC iter.                  ...        0 min,  0.030 sec
     gradient                   ...        0 min,  0.006 sec
 * total energy  :   -13.6639124 Eh     change       -0.3936629E-04 Eh
   gradient norm :     0.0038303 Eh/α   predicted    -0.2914373E-04 ( -25.97%)
   displ. norm   :     0.1187696 α      lambda       -0.8611649E-04
   maximum displ.:     0.0683925 α      in ANC's #1, #24, #2, ...

........................................................................
.............................. CYCLE   19 ..............................
........................................................................

 iter      E             dE          RMSdq      gap      omega  full diag
   1    -13.8754428 -0.138754E+02  0.396E-02   14.20       0.0  T
   2    -13.8754434 -0.638543E-06  0.229E-02   14.20       1.2  T
   3    -13.8754434 -0.324242E-07  0.399E-03   14.20       6.7  T
   4    -13.8754435 -0.236583E-07  0.980E-04   14.20      27.3  T
   5    -13.8754435 -0.276405E-09  0.464E-04   14.20      57.7  T
     SCC iter.                  ...        0 min,  0.033 sec
     gradient                   ...        0 min,  0.006 sec
 * total energy  :   -13.6639546 Eh     change       -0.4220147E-04 Eh
   gradient norm :     0.0038525 Eh/α   predicted    -0.4366608E-04 (   3.47%)
   displ. norm   :     0.2199662 α      lambda       -0.7146104E-04
   maximum displ.:     0.1212206 α      in ANC's #1, #2, #24, ...

........................................................................
.............................. CYCLE   20 ..............................
........................................................................

 iter      E             dE          RMSdq      gap      omega  full diag
   1    -13.8737840 -0.138738E+02  0.616E-02   14.21       0.0  T
   2    -13.8737846 -0.631687E-06  0.367E-02   14.21       1.0  T
   3    -13.8737847 -0.544282E-07  0.288E-03   14.21       9.3  T
   4    -13.8737847 -0.134278E-07  0.102E-03   14.21      26.2  T
   5    -13.8737847 -0.571614E-09  0.404E-04   14.21      66.1  T
   6    -13.8737847 -0.108793E-09  0.758E-05   14.21     352.8  T
     SCC iter.                  ...        0 min,  0.082 sec
     gradient                   ...        0 min,  0.010 sec
 * total energy  :   -13.6639854 Eh     change       -0.3082344E-04 Eh
   gradient norm :     0.0057535 Eh/α   predicted    -0.3745759E-04 (  21.52%)
   displ. norm   :     0.0456428 α      lambda       -0.5186444E-04
   maximum displ.:     0.0375847 α      in ANC's #1, #7, #24, ...
 * RMSD in coord.:     1.1718275 α      energy gain  -0.8731701E-02 Eh

generating ANC from exact Hessian ...
Using Lindh-Hessian (1995)
 Shifting diagonal of input Hessian by    5.8840168164111806E-003
 Lowest  eigenvalues of input Hessian
    0.000000    0.000000    0.000000    0.000000    0.000000    0.000000
    0.010000    0.012752    0.013885    0.020900    0.024054    0.046399
    0.050979    0.058814    0.059098    0.061300    0.062701    0.066924
 Highest eigenvalues
    1.131670    1.155151    1.161853    1.210191    1.244215    1.279760


........................................................................
.............................. CYCLE   21 ..............................
........................................................................

 iter      E             dE          RMSdq      gap      omega  full diag
   1    -13.8745159 -0.138745E+02  0.191E-02   14.21       0.0  T
   2    -13.8745161 -0.165411E-06  0.111E-02   14.21       2.4  T
   3    -13.8745161 -0.944116E-08  0.164E-03   14.21      16.3  T
   4    -13.8745161 -0.109143E-08  0.425E-04   14.21      62.9  T
   5    -13.8745161 -0.690612E-10  0.142E-04   14.21     187.9  T
     SCC iter.                  ...        0 min,  0.003 sec
     gradient                   ...        0 min,  0.002 sec
 * total energy  :   -13.6640273 Eh     change       -0.4189386E-04 Eh
   gradient norm :     0.0041062 Eh/α   predicted     0.0000000E+00 (-100.00%)
   displ. norm   :     0.0534562 α      lambda       -0.6687170E-04
   maximum displ.:     0.0387957 α      in ANC's #1, #3, #2, ...

........................................................................
.............................. CYCLE   22 ..............................
........................................................................

 iter      E             dE          RMSdq      gap      omega  full diag
   1    -13.8747332 -0.138747E+02  0.273E-02   14.19       0.0  T
   2    -13.8747333 -0.764836E-07  0.162E-02   14.19       1.7  T
   3    -13.8747333 -0.161455E-07  0.108E-03   14.19      24.8  T
   4    -13.8747333 -0.142384E-08  0.475E-04   14.19      56.2  T
   5    -13.8747333 -0.219499E-09  0.910E-05   14.19     293.7  T
     SCC iter.                  ...        0 min,  0.003 sec
     gradient                   ...        0 min,  0.002 sec
 * total energy  :   -13.6640767 Eh     change       -0.4942286E-04 Eh
   gradient norm :     0.0014879 Eh/α   predicted    -0.3353135E-04 ( -32.15%)
   displ. norm   :     0.1234551 α      lambda       -0.4828200E-04
   maximum displ.:     0.0854127 α      in ANC's #1, #3, #2, ...

........................................................................
.............................. CYCLE   23 ..............................
........................................................................

 iter      E             dE          RMSdq      gap      omega  full diag
   1    -13.8748058 -0.138748E+02  0.390E-02   14.19       0.0  T
   2    -13.8748059 -0.111954E-06  0.232E-02   14.19       1.2  T
   3    -13.8748060 -0.284356E-07  0.142E-03   14.19      18.8  T
   4    -13.8748060 -0.208660E-08  0.610E-04   14.19      43.8  T
   5    -13.8748060 -0.330729E-09  0.114E-04   14.19     235.4  T
     SCC iter.                  ...        0 min,  0.003 sec
     gradient                   ...        0 min,  0.002 sec
 * total energy  :   -13.6641167 Eh     change       -0.3996117E-04 Eh
   gradient norm :     0.0026238 Eh/α   predicted    -0.2430320E-04 ( -39.18%)
   displ. norm   :     0.0439511 α      lambda       -0.1856191E-04
   maximum displ.:     0.0292965 α      in ANC's #1, #3, #4, ...

........................................................................
.............................. CYCLE   24 ..............................
........................................................................

 iter      E             dE          RMSdq      gap      omega  full diag
   1    -13.8748575 -0.138749E+02  0.126E-02   14.20       0.0  T
   2    -13.8748575 -0.720183E-08  0.750E-03   14.20       3.6  T
   3    -13.8748575 -0.202677E-08  0.353E-04   14.20      75.7  T
   4    -13.8748575 -0.144878E-09  0.179E-04   14.20     149.6  T
     SCC iter.                  ...        0 min,  0.002 sec
     gradient                   ...        0 min,  0.002 sec
 * total energy  :   -13.6641329 Eh     change       -0.1625033E-04 Eh
   gradient norm :     0.0019553 Eh/α   predicted    -0.9297807E-05 ( -42.78%)
   displ. norm   :     0.1537558 α      lambda       -0.3572098E-04
   maximum displ.:     0.1009730 α      in ANC's #1, #3, #5, ...

........................................................................
.............................. CYCLE   25 ..............................
........................................................................

 iter      E             dE          RMSdq      gap      omega  full diag
   1    -13.8746827 -0.138747E+02  0.443E-02   14.23       0.0  T
   2    -13.8746829 -0.128266E-06  0.265E-02   14.23       1.0  T
   3    -13.8746829 -0.246268E-07  0.133E-03   14.23      20.1  T
   4    -13.8746829 -0.275714E-08  0.630E-04   14.23      42.4  T
   5    -13.8746829 -0.210642E-09  0.153E-04   14.23     174.2  T
     SCC iter.                  ...        0 min,  0.003 sec
     gradient                   ...        0 min,  0.002 sec
 * total energy  :   -13.6641569 Eh     change       -0.2399977E-04 Eh
   gradient norm :     0.0012848 Eh/α   predicted    -0.1804935E-04 ( -24.79%)
   displ. norm   :     0.0130014 α      lambda       -0.3685992E-05
   maximum displ.:     0.0082253 α      in ANC's #2, #1, #4, ...

........................................................................
.............................. CYCLE   26 ..............................
........................................................................

 iter      E             dE          RMSdq      gap      omega  full diag
   1    -13.8749900 -0.138750E+02  0.619E-03   14.23       0.0  T
   2    -13.8749900 -0.184992E-07  0.358E-03   14.23       7.5  T
   3    -13.8749900 -0.100243E-08  0.619E-04   14.23      43.2  T
   4    -13.8749900 -0.452966E-09  0.152E-04   14.23     176.3  T
     SCC iter.                  ...        0 min,  0.002 sec
     gradient                   ...        0 min,  0.002 sec
 * total energy  :   -13.6641610 Eh     change       -0.4056889E-05 Eh
   gradient norm :     0.0005434 Eh/α   predicted    -0.1841765E-05 ( -54.60%)
   displ. norm   :     0.0442494 α      lambda       -0.5025458E-05
   maximum displ.:     0.0298985 α      in ANC's #1, #2, #4, ...

........................................................................
.............................. CYCLE   27 ..............................
........................................................................

 iter      E             dE          RMSdq      gap      omega  full diag
   1    -13.8751208 -0.138751E+02  0.128E-02   14.23       0.0  T
   2    -13.8751208 -0.807388E-08  0.766E-03   14.23       3.5  T
   3    -13.8751208 -0.179353E-08  0.303E-04   14.23      88.3  T
   4    -13.8751208 -0.135795E-09  0.150E-04   14.23     178.3  T
     SCC iter.                  ...        0 min,  0.003 sec
     gradient                   ...        0 min,  0.002 sec
 * total energy  :   -13.6641665 Eh     change       -0.5478766E-05 Eh
   gradient norm :     0.0004593 Eh/α   predicted    -0.2516899E-05 ( -54.06%)
   displ. norm   :     0.0568564 α      lambda       -0.4049532E-05
   maximum displ.:     0.0405163 α      in ANC's #1, #2, #4, ...

........................................................................
.............................. CYCLE   28 ..............................
........................................................................

 iter      E             dE          RMSdq      gap      omega  full diag
   1    -13.8750519 -0.138751E+02  0.148E-02   14.23       0.0  T
   2    -13.8750519 -0.429246E-08  0.889E-03   14.23       3.0  T
   3    -13.8750519 -0.190791E-08  0.236E-04   14.23     113.4  T
   4    -13.8750519 -0.376996E-10  0.128E-04   14.23     209.5  T
     SCC iter.                  ...        0 min,  0.002 sec
     gradient                   ...        0 min,  0.002 sec
 * total energy  :   -13.6641709 Eh     change       -0.4419608E-05 Eh
   gradient norm :     0.0005169 Eh/α   predicted    -0.2026078E-05 ( -54.16%)
   displ. norm   :     0.0353972 α      lambda       -0.1984936E-05
   maximum displ.:     0.0275085 α      in ANC's #1, #2, #4, ...

........................................................................
.............................. CYCLE   29 ..............................
........................................................................

 iter      E             dE          RMSdq      gap      omega  full diag
   1    -13.8750236 -0.138750E+02  0.105E-02   14.24       0.0  T
   2    -13.8750236 -0.286736E-08  0.626E-03   14.24       4.3  T
   3    -13.8750236 -0.828447E-09  0.221E-04   14.24     121.0  T
   4    -13.8750236 -0.141474E-09  0.114E-04   14.24     233.8  T
     SCC iter.                  ...        0 min,  0.002 sec
     gradient                   ...        0 min,  0.002 sec
 * total energy  :   -13.6641730 Eh     change       -0.2143823E-05 Eh
   gradient norm :     0.0002845 Eh/α   predicted    -0.9945616E-06 ( -53.61%)
   displ. norm   :     0.0164606 α      lambda       -0.8647480E-06
   maximum displ.:     0.0149363 α      in ANC's #1, #2, #3, ...

........................................................................
.............................. CYCLE   30 ..............................
........................................................................

 iter      E             dE          RMSdq      gap      omega  full diag
   1    -13.8749777 -0.138750E+02  0.437E-03   14.24       0.0  T
   2    -13.8749777 -0.110123E-08  0.261E-03   14.24      10.2  T
   3    -13.8749777 -0.215527E-09  0.118E-04   14.24     227.4  T
   4    -13.8749777 -0.174101E-10  0.589E-05   14.24     453.4  T
     SCC iter.                  ...        0 min,  0.002 sec
     gradient                   ...        0 min,  0.002 sec
 * total energy  :   -13.6641741 Eh     change       -0.1091095E-05 Eh
   gradient norm :     0.0001355 Eh/α   predicted    -0.4329593E-06 ( -60.32%)
   displ. norm   :     0.0131172 α      lambda       -0.7017187E-06
   maximum displ.:     0.0109199 α      in ANC's #1, #3, #5, ...

........................................................................
.............................. CYCLE   31 ..............................
........................................................................

 iter      E             dE          RMSdq      gap      omega  full diag
   1    -13.8749722 -0.138750E+02  0.366E-03   14.24       0.0  T
   2    -13.8749722 -0.410886E-09  0.219E-03   14.24      12.2  T
   3    -13.8749722 -0.140609E-09  0.911E-05   14.24     293.2  T
   4    -13.8749722 -0.989786E-11  0.444E-05   14.24     601.3  T
     SCC iter.                  ...        0 min,  0.002 sec
     gradient                   ...        0 min,  0.002 sec
 * total energy  :   -13.6641750 Eh     change       -0.9250033E-06 Eh
   gradient norm :     0.0001843 Eh/α   predicted    -0.3501510E-06 ( -62.15%)
   displ. norm   :     0.0176119 α      lambda       -0.7779853E-06
   maximum displ.:     0.0134995 α      in ANC's #1, #3, #5, ...

   *** GEOMETRY OPTIMIZATION CONVERGED AFTER 31 ITERATIONS ***

------------------------------------------------------------------------
 total energy gain   :        -0.0089213 Eh       -5.5982 kcal/mol
 total RMSD          :         1.2482538 a0        0.6605 Å
 total power (kW/mol):        -0.7555802 (step)  -33.3712 (real)
------------------------------------------------------------------------

 ANCopt (total)                0 d,  0 h,  0 min,  0.702 sec
 optimizer setup                ...        0 min,  0.000 sec (  0.026%)
 model hessian                  ...        0 min,  0.021 sec (  3.056%)
 ANC generation                 ...        0 min,  0.001 sec (  0.157%)
 coordinate transformation      ...        0 min,  0.000 sec (  0.042%)
 single point calculation       ...        0 min,  0.643 sec ( 91.616%)
 optimization log               ...        0 min,  0.005 sec (  0.782%)
 hessian update                 ...        0 min,  0.020 sec (  2.882%)
 rational function              ...        0 min,  0.006 sec (  0.833%)

================
 final structure:
================
14
 xtb: 6.7.1 (edcfbbe)
C           -2.83534149896702        0.17568868857953        1.97283131503142
H           -3.88045119134212        0.25237983094149        1.67968987436927
H           -2.75460512242675        0.42262278662271        3.02811228536746
H           -2.51808577989307       -0.85649095966910        1.84194161787233
C           -1.97524596197631        1.10523120353375        1.12445576031813
H           -2.01308456226753        0.76875299980657        0.08533879827939
H           -0.93577284991371        1.03990716311872        1.45454105875423
C           -2.42974831616344        2.56416293074636        1.18204970158309
H           -1.87742928541940        3.13181206721481        0.42891631846252
H           -3.49019209502935        2.62001446854434        0.92487724004909
C           -2.20452315742146        3.20859035249924        2.54486650301922
H           -2.80187512040269        2.72170922440239        3.31117468947686
H           -1.15637703063253        3.13987568019161        2.82900875941373
H           -2.48294436814480        4.25968611346736        2.51612317800335

 Bond Distances (Angstroems)
 ---------------------------
C1-H2=1.0881         C1-H3=1.0868         C1-H4=1.0877         C1-C5=1.5243         H2-C1=1.0881         H3-C1=1.0868         
H4-C1=1.0877         C5-C1=1.5243         C5-H6=1.0929         C5-H7=1.0926         C5-C8=1.5292         H6-C5=1.0929         
H7-C5=1.0926         C8-C5=1.5292         C8-H9=1.0929         C8-H10=1.0926        C8-C11=1.5242        H9-C8=1.0929         
H10-C8=1.0926        C11-C8=1.5242        C11-H12=1.0868       C11-H13=1.0881       C11-H14=1.0877       H12-C11=1.0868       
H13-C11=1.0881       H14-C11=1.0877       
 C  H  Rav=1.0896 sigma=0.0026  Rmin=1.0868  Rmax=1.0929    10
 C  C  Rav=1.5259 sigma=0.0023  Rmin=1.5242  Rmax=1.5292     3

 selected bond angles (degree)
 --------------------
H3-C1-H2=108.48                H4-C1-H2=108.34                H4-C1-H3=108.11                C5-C1-H2=110.43                
C5-C1-H3=111.10                C5-C1-H4=110.31                H6-C5-C1=108.78                H7-C5-C1=109.40                
H7-C5-H6=107.56                C8-C5-C1=113.15                C8-C5-H6=108.62                C8-C5-H7=109.17                
H9-C8-C5=108.62                H10-C8-C5=109.17               H10-C8-H9=107.56               C11-C8-C5=113.15               
C11-C8-H9=108.78               C11-C8-H10=109.41              

 selected dihedral angles (degree)
 ---------------------------------
H6-C5-C1-H2=295.36            H6-C5-C1-H3=174.95            H6-C5-C1-H4= 55.09            H7-C5-C1-H2=178.12            
H7-C5-C1-H3= 57.71            H7-C5-C1-H4=297.85            C8-C5-C1-H2= 56.17            C8-C5-C1-H3=295.76            
C8-C5-C1-H4=175.89            H9-C8-C5-C1=189.31            H9-C8-C5-H6=310.21            H9-C8-C5-H7= 67.23            
H10-C8-C5-C1=306.33           H10-C8-C5-H6= 67.23           H10-C8-C5-H7=184.25           C11-C8-C5-C1= 68.42           
C11-C8-C5-H6=189.31           C11-C8-C5-H7=306.33           
           -------------------------------------------------
          |                Final Singlepoint                |
           -------------------------------------------------

          ...................................................
          :                      SETUP                      :
          :.................................................:
          :  # basis functions                  26          :
          :  # atomic orbitals                  26          :
          :  # shells                           18          :
          :  # electrons                        26          :
          :  max. iterations                   250          :
          :  Hamiltonian                  GFN2-xTB          :
          :  restarted?                      false          :
          :  GBSA solvation                  false          :
          :  PC potential                    false          :
          :  electronic temp.          300.0000000     K    :
          :  accuracy                    1.0000000          :
          :  -> integral cutoff          0.2500000E+02      :
          :  -> integral neglect         0.1000000E-07      :
          :  -> SCF convergence          0.1000000E-05 Eh   :
          :  -> wf. convergence          0.1000000E-03 e    :
          :  Broyden damping             0.4000000          :
          :  net charge                          0          :
          :  unpaired electrons                  0          :
          ...................................................

 iter      E             dE          RMSdq      gap      omega  full diag
   1    -13.8749722 -0.138750E+02  0.762E-06   14.24       0.0  T
   2    -13.8749722 -0.230926E-13  0.440E-06   14.24    6076.9  T
   3    -13.8749722 -0.159872E-13  0.117E-06   14.24   22887.2  T

   *** convergence criteria satisfied after 3 iterations ***

         #    Occupation            Energy/Eh            Energy/eV
      -------------------------------------------------------------
         1        2.0000           -0.6178021             -16.8113
       ...           ...                  ...                  ...
         7        2.0000           -0.4850723             -13.1995
         8        2.0000           -0.4661355             -12.6842
         9        2.0000           -0.4620661             -12.5735
        10        2.0000           -0.4482107             -12.1964
        11        2.0000           -0.4258370             -11.5876
        12        2.0000           -0.4236947             -11.5293
        13        2.0000           -0.4219660             -11.4823 (HOMO)
        14                          0.1013790               2.7587 (LUMO)
        15                          0.1115435               3.0353
        16                          0.1370909               3.7304
        17                          0.1487354               4.0473
        18                          0.1496828               4.0731
       ...                                ...                  ...
        26                          0.3010765               8.1927
      -------------------------------------------------------------
                  HL-Gap            0.5233450 Eh           14.2409 eV
             Fermi-level           -0.1602935 Eh           -4.3618 eV

 SCC (total)                   0 d,  0 h,  0 min,  0.005 sec
 SCC setup                      ...        0 min,  0.000 sec (  2.833%)
 Dispersion                     ...        0 min,  0.000 sec (  2.432%)
 classical contributions        ...        0 min,  0.000 sec (  1.029%)
 integral evaluation            ...        0 min,  0.001 sec ( 14.199%)
 iterations                     ...        0 min,  0.002 sec ( 34.616%)
 molecular gradient             ...        0 min,  0.002 sec ( 39.222%)
 printout                       ...        0 min,  0.000 sec (  5.287%)

         :::::::::::::::::::::::::::::::::::::::::::::::::::::
         ::                     SUMMARY                     ::
         :::::::::::::::::::::::::::::::::::::::::::::::::::::
         :: total energy             -13.664175041432 Eh    ::
         :: gradient norm              0.000184246750 Eh/a0 ::
         :: HOMO-LUMO gap             14.240941584947 eV    ::
         ::.................................................::
         :: SCC energy               -13.874965116881 Eh    ::
         :: -> isotropic ES            0.002971014174 Eh    ::
         :: -> anisotropic ES          0.004974691846 Eh    ::
         :: -> anisotropic XC          0.008993249429 Eh    ::
         :: -> dispersion             -0.006299102773 Eh    ::
         :: repulsion energy           0.210790075449 Eh    ::
         :: add. restraining           0.000000000000 Eh    ::
         :: total charge              -0.000000000000 e     ::
         :::::::::::::::::::::::::::::::::::::::::::::::::::::

           -------------------------------------------------
          |                Property Printout                |
           -------------------------------------------------

    * Orbital Energies and Occupations

         #    Occupation            Energy/Eh            Energy/eV
      -------------------------------------------------------------
         1        2.0000           -0.6178021             -16.8113
         2        2.0000           -0.5961005             -16.2207
         3        2.0000           -0.5730767             -15.5942
         4        2.0000           -0.5476092             -14.9012
         5        2.0000           -0.5065501             -13.7839
         6        2.0000           -0.5057523             -13.7622
         7        2.0000           -0.4850723             -13.1995
         8        2.0000           -0.4661355             -12.6842
         9        2.0000           -0.4620661             -12.5735
        10        2.0000           -0.4482107             -12.1964
        11        2.0000           -0.4258370             -11.5876
        12        2.0000           -0.4236947             -11.5293
        13        2.0000           -0.4219660             -11.4823 (HOMO)
        14                          0.1013790               2.7587 (LUMO)
        15                          0.1115435               3.0353
        16                          0.1370909               3.7304
        17                          0.1487354               4.0473
        18                          0.1496828               4.0731
        19                          0.1575418               4.2869
        20                          0.2025830               5.5126
        21                          0.2068169               5.6278
        22                          0.2344630               6.3801
        23                          0.2488759               6.7723
        24                          0.2784106               7.5759
       ...                                ...                  ...
        26                          0.3010765               8.1927
      -------------------------------------------------------------
                  HL-Gap            0.5233450 Eh           14.2409 eV
             Fermi-level           -0.1602935 Eh           -4.3618 eV

     #   Z          covCN         q      C6AA      α(0)
     1   6 C        3.751    -0.101    22.492     6.763
     2   1 H        0.925     0.033     2.551     2.498
     3   1 H        0.925     0.035     2.513     2.479
     4   1 H        0.925     0.030     2.585     2.514
     5   6 C        3.800    -0.053    21.519     6.605
     6   1 H        0.924     0.026     2.643     2.543
     7   1 H        0.924     0.030     2.590     2.517
     8   6 C        3.800    -0.053    21.519     6.605
     9   1 H        0.924     0.026     2.644     2.543
    10   1 H        0.924     0.030     2.591     2.517
    11   6 C        3.751    -0.101    22.492     6.763
    12   1 H        0.925     0.035     2.512     2.478
    13   1 H        0.925     0.032     2.552     2.498
    14   1 H        0.925     0.030     2.585     2.514

 Mol. C6AA /au·bohr⁶  :       1208.191077
 Mol. C8AA /au·bohr⁸  :      24487.142846
 Mol. α(0) /au        :         51.836702


Wiberg/Mayer (AO) data.
largest (>0.10) Wiberg bond orders for each atom

 ---------------------------------------------------------------------------
     #   Z sym  total        # sym  WBO       # sym  WBO       # sym  WBO
 ---------------------------------------------------------------------------
     1   6 C    3.997 --     5 C    1.020     2 H    0.988     4 H    0.988
                             3 H    0.986
     2   1 H    0.999 --     1 C    0.988
     3   1 H    0.999 --     1 C    0.986
     4   1 H    0.999 --     1 C    0.988
     5   6 C    3.998 --     1 C    1.020     8 C    1.008     6 H    0.979
                             7 H    0.978
     6   1 H    0.999 --     5 C    0.979
     7   1 H    0.999 --     5 C    0.978
     8   6 C    3.998 --    11 C    1.020     5 C    1.008     9 H    0.979
                            10 H    0.978
     9   1 H    0.999 --     8 C    0.979
    10   1 H    0.999 --     8 C    0.978
    11   6 C    3.997 --     8 C    1.020    13 H    0.988    14 H    0.988
                            12 H    0.986
    12   1 H    0.999 --    11 C    0.986
    13   1 H    0.999 --    11 C    0.988
    14   1 H    0.999 --    11 C    0.988
 ---------------------------------------------------------------------------

Topologies differ in total number of bonds
Writing topology from bond orders to xtbtopo.mol

molecular dipole:
                 x           y           z       tot (Debye)
 q only:       -0.004      -0.002       0.014
   full:       -0.003      -0.002       0.011       0.031
molecular quadrupole (traceless):
                xx          xy          yy          xz          yz          zz
 q only:       -0.056      -0.000      -0.103      -0.158       0.050       0.158
  q+dip:        0.561      -0.124      -0.539       0.090      -0.029      -0.022
   full:        0.249      -0.061      -0.286      -0.015       0.011       0.037

           -------------------------------------------------
          |                Geometry Summary                 |
           -------------------------------------------------

      molecular mass/u    :       58.1223511
   center of mass at/Å    :       -2.3663944       1.7610962       1.7240728
Note: The following floating-point exceptions are signalling: IEEE_UNDERFLOW_FLAG IEEE_DENORMAL
normal termination of xtb
  moments of inertia/u·Å² :        0.3748123E+02   0.1059431E+03   0.1229860E+03
rotational constants/cm⁻¹ :        0.4497620E+00   0.1591197E+00   0.1370695E+00

 * 13 selected distances

     #   Z          #   Z                                           value/Å
     1   6 C        2   1 H                                       1.0881489
     1   6 C        3   1 H                                       1.0867902
     1   6 C        4   1 H                                       1.0877400
     1   6 C        5   6 C                                       1.5243212
     5   6 C        6   1 H                                       1.0928923
     5   6 C        7   1 H                                       1.0925787
     5   6 C        8   6 C                                       1.5291735 (max)
     8   6 C        9   1 H                                       1.0929282
     8   6 C       10   1 H                                       1.0926108
     8   6 C       11   6 C                                       1.5242320
    11   6 C       12   1 H                                       1.0867893 (min)
    11   6 C       13   1 H                                       1.0881494
    11   6 C       14   1 H                                       1.0877256

 * 2 distinct bonds (by element types)

   Z      Z             #   av. dist./Å        max./Å        min./Å
   1 H    6 C          10     1.0896353     1.0929282     1.0867893
   6 C    6 C           3     1.5259089     1.5291735     1.5242320


optimized geometry written to: xtbopt.xyz


           -------------------------------------------------
          | TOTAL ENERGY              -13.664175041432 Eh   |
          | GRADIENT NORM               0.000184246750 Eh/α |
          | HOMO-LUMO GAP              14.240941584947 eV   |
           -------------------------------------------------

------------------------------------------------------------------------
 * finished run on 2026/08/17 at 12:14:26.266     
------------------------------------------------------------------------
 total:
 * wall-time:     0 d,  0 h,  0 min,  0.833 sec
 *  cpu-time:     0 d,  0 h,  0 min,  2.941 sec
 * ratio c/w:     3.531 speedup
 SCF:
 * wall-time:     0 d,  0 h,  0 min,  0.097 sec
 *  cpu-time:     0 d,  0 h,  0 min,  0.337 sec
 * ratio c/w:     3.478 speedup
 ANC optimizer:
 * wall-time:     0 d,  0 h,  0 min,  0.708 sec
 *  cpu-time:     0 d,  0 h,  0 min,  2.499 sec
 * ratio c/w:     3.531 speedup

