14
 energy: -13.664175041432 gnorm: 0.000184246750 xtb: 6.7.1 (edcfbbe)
C           -2.83534149896702        0.17568868857953        1.97283131503142
H           -3.88045119134212        0.25237983094149        1.67968987436927
H           -2.75460512242675        0.42262278662271        3.02811228536746
H           -2.51808577989307       -0.85649095966910        1.84194161787233
C           -1.97524596197631        1.10523120353375        1.12445576031813
H           -2.01308456226753        0.76875299980657        0.08533879827939
H           -0.93577284991371        1.03990716311872        1.45454105875423
C           -2.42974831616344        2.56416293074636        1.18204970158309
H           -1.87742928541940        3.13181206721481        0.42891631846252
H           -3.49019209502935        2.62001446854434        0.92487724004909
C           -2.20452315742146        3.20859035249924        2.54486650301922
H           -2.80187512040269        2.72170922440239        3.31117468947686
H           -1.15637703063253        3.13987568019161        2.82900875941373
H           -2.48294436814480        4.25968611346736        2.51612317800335
