14
 energy: -13.665126236715 gnorm: 0.000129895923 xtb: 6.7.1 (edcfbbe)
C           -2.49104611525016        0.36312036311791        0.00072999777070
H           -3.57792013279769        0.36912951401545       -0.04869207401363
H           -2.15331035624411       -0.67070072880432        0.00695243085006
H           -2.10620122105922        0.84469864568208       -0.89587653914794
C           -2.00922145230190        1.09394784705832        1.24777211597108
H           -0.91779589035227        1.06360045276526        1.28710908061224
H           -2.38616488811939        0.58254987349255        2.13662604917407
C           -2.47213760344655        2.54863193632085        1.27117925447087
H           -2.10363653731176        3.05741919067690        0.37724881507281
H           -3.56389676364644        2.57882340487337        1.24206562104717
C           -1.97822970416416        3.28334474248953        2.51118483656135
H           -0.89070975777897        3.28783102533306        2.54393856386785
H           -2.32572651536463        4.31397273626546        2.51086908378047
H           -2.34451686216274        2.79782733671358        3.41335299398292
