%mem=1GB
%nprocshared=1
%chk=conf_007.chk
#P B3LYP/def2TZVPP Geom=Connectivity 
    opt=(calcall,tight,maxstep=7,maxcycles=100) Freq

HessFit conformer conf_007
0 1
C  -3.02105794  0.10175848  1.77493160
H  -2.65164475 -0.92324193  1.71714827
H  -3.95742660  0.14832025  1.21459516
H  -3.25386791  0.31131181  2.82126654
C  -2.00023900  1.09707300  1.22694500
H  -1.76099610  0.84152243  0.18984192
H  -1.06281638  1.00326852  1.78422944
C  -2.47573600  2.54906500  1.28786500
H  -2.14216000  3.07351700  0.38686300
H  -3.56979700  2.56933900  1.26055900
C  -1.98256300  3.29668400  2.52514300
H  -0.89126000  3.32285300  2.56126900
H  -2.33875400  4.32789100  2.53819100
H  -2.32989700  2.81479100  3.44169600

