%mem=1GB
%nprocshared=1
%chk=conf_016.chk
#P B3LYP/def2TZVPP Geom=Connectivity 
    opt=(calcall,tight,maxstep=7,maxcycles=100) Freq

HessFit conformer conf_016
0 1
C  -2.49341300  0.34945400 -0.01033300
H  -1.90765886  0.60751903 -0.89391967
H  -3.53777455  0.58691486 -0.22446490
H  -2.42439018 -0.73169752  0.12850910
C  -2.00023900  1.09707300  1.22694500
H  -0.90617800  1.07679900  1.25425000
H  -2.33381500  0.57262200  2.12794700
C  -2.47573600  2.54906500  1.28786500
H  -2.14216000  3.07351700  0.38686300
H  -3.56979700  2.56933900  1.26055900
C  -1.98256300  3.29668400  2.52514300
H  -2.41796491  2.88128080  3.43662394
H  -0.89723487  3.23956990  2.62122102
H  -2.25605483  4.35324843  2.48265772

