%mem=1GB
%nprocshared=1
%chk=conf_010.chk
#P B3LYP/def2TZVPP Geom=Connectivity 
    opt=(calcall,tight,maxstep=7,maxcycles=100) Freq

HessFit conformer conf_010
0 1
C  -0.49577276  0.94275113  1.44090223
H  -0.18963803 -0.10332286  1.39148983
H  -0.19433252  1.33022455  2.41657087
H   0.06864028  1.48911690  0.68205292
C  -2.00023900  1.09707300  1.22694500
H  -2.53829553  0.51189032  1.97939597
H  -2.27733377  0.66956837  0.25813920
C  -2.47573600  2.54906500  1.28786500
H  -2.14216000  3.07351700  0.38686300
H  -3.56979700  2.56933900  1.26055900
C  -1.98256300  3.29668400  2.52514300
H  -1.70657778  4.32482237  2.28081576
H  -2.74846419  3.33534075  3.30124298
H  -1.10164501  2.81318246  2.95309267

