%mem=1GB
%nprocshared=1
%chk=conf_013.chk
#P B3LYP/def2TZVPP Geom=Connectivity 
    opt=(calcall,tight,maxstep=7,maxcycles=100) Freq

HessFit conformer conf_013
0 1
C  -2.49341300  0.34945400 -0.01033300
H  -1.67049635 -0.12946506 -0.54313276
H  -2.99025202  1.02672833 -0.70846024
H  -3.21093981 -0.42872850  0.25895710
C  -2.00023900  1.09707300  1.22694500
H  -0.90617800  1.07679900  1.25425000
H  -2.33381500  0.57262200  2.12794700
C  -2.47573600  2.54906500  1.28786500
H  -2.14216000  3.07351700  0.38686300
H  -3.56979700  2.56933900  1.26055900
C  -1.98256300  3.29668400  2.52514300
H  -1.79810414  2.60947552  3.35378742
H  -1.05264837  3.83134923  2.32558841
H  -2.71927910  4.02861757  2.86345322

