%mem=1GB
%nprocshared=1
%chk=conf_015.chk
#P B3LYP/def2TZVPP Geom=Connectivity 
    opt=(calcall,tight,maxstep=7,maxcycles=100) Freq

HessFit conformer conf_015
0 1
C  -1.55078237  0.66473401 -0.16735889
H  -0.68248570  1.23408233 -0.50252191
H  -2.34624461  0.81130202 -0.90131313
H  -1.27960026 -0.39314733 -0.18400873
C  -2.00023900  1.09707300  1.22694500
H  -1.17714886  0.95948888  1.93526647
H  -2.80634337  0.44125526  1.57078399
C  -2.47573600  2.54906500  1.28786500
H  -2.14216000  3.07351700  0.38686300
H  -3.56979700  2.56933900  1.26055900
C  -1.98256300  3.29668400  2.52514300
H  -0.89126000  3.32285300  2.56126900
H  -2.33875400  4.32789100  2.53819100
H  -2.32989700  2.81479100  3.44169600

