%mem=1GB
%nprocshared=1
%chk=conf_001.chk
#P B3LYP/def2TZVPP Geom=Connectivity 
    opt=(calcall,tight,maxstep=7,maxcycles=100) Freq

HessFit conformer conf_001
0 1
C  -1.09209717  0.80650867  0.03368795
H  -0.10838007  0.46017438  0.35428754
H  -0.94566568  1.69991474 -0.57730679
H  -1.52108283  0.03534678 -0.60990395
C  -2.00023900  1.09707300  1.22694500
H  -1.47352787  0.85321296  2.15497180
H  -2.87175183  0.43570658  1.19250284
C  -2.47573600  2.54906500  1.28786500
H  -2.14216000  3.07351700  0.38686300
H  -3.56979700  2.56933900  1.26055900
C  -1.98256300  3.29668400  2.52514300
H  -1.10598595  2.80906307  2.95731270
H  -1.70558105  4.32492782  2.28760183
H  -2.75332655  3.33156740  3.29821342

