%mem=1GB
%nprocshared=1
%chk=conf_012.chk
#P B3LYP/def2TZVPP Geom=Connectivity 
    opt=(calcall,tight,maxstep=7,maxcycles=100) Freq

HessFit conformer conf_012
0 1
C  -0.59904439  0.89386620  1.79998276
H  -0.60952390  0.21005771  2.65011628
H  -0.17134537  1.83930695  2.14078550
H   0.07760054  0.47899053  1.04967636
C  -2.00023900  1.09707300  1.22694500
H  -2.71133336  0.46412791  1.76717772
H  -2.02284032  0.75588879  0.18713304
C  -2.47573600  2.54906500  1.28786500
H  -2.14216000  3.07351700  0.38686300
H  -3.56979700  2.56933900  1.26055900
C  -1.98256300  3.29668400  2.52514300
H  -0.89126000  3.32285300  2.56126900
H  -2.33875400  4.32789100  2.53819100
H  -2.32989700  2.81479100  3.44169600

