%mem=1GB
%nprocshared=1
%chk=conf_019.chk
#P B3LYP/def2TZVPP Geom=Connectivity 
    opt=(calcall,tight,maxstep=7,maxcycles=100) Freq

HessFit conformer conf_019
0 1
C  -0.47947293  0.95619124  1.24778979
H  -0.17374659 -0.09021952  1.20321641
H  -0.05593826  1.38639459  2.15799560
H  -0.02401875  1.47065799  0.39878134
C  -2.00023900  1.09707300  1.22694500
H  -2.43008043  0.54361906  2.06780833
H  -2.39840545  0.62723872  0.32204410
C  -2.47573600  2.54906500  1.28786500
H  -2.14216000  3.07351700  0.38686300
H  -3.56979700  2.56933900  1.26055900
C  -1.98256300  3.29668400  2.52514300
H  -2.26174014  2.77105901  3.44095446
H  -0.89664915  3.40258119  2.52248880
H  -2.41286992  4.29917616  2.57783635

