%mem=1GB
%nprocshared=1
%chk=conf_003.chk
#P B3LYP/def2TZVPP Geom=Connectivity 
    opt=(calcall,tight,maxstep=7,maxcycles=100) Freq

HessFit conformer conf_003
0 1
C  -2.85761800  0.21631646  0.32020316
H  -3.91970863  0.43850429  0.43433873
H  -2.71438012 -0.84213312  0.54845428
H  -2.59968530  0.36330427 -0.73088922
C  -2.00023900  1.09707300  1.22694500
H  -0.96150640  1.07427723  0.88250197
H  -1.99122002  0.68015596  2.23898514
C  -2.47573600  2.54906500  1.28786500
H  -2.14216000  3.07351700  0.38686300
H  -3.56979700  2.56933900  1.26055900
C  -1.98256300  3.29668400  2.52514300
H  -1.54602830  4.26086486  2.25546752
H  -2.79485699  3.48647590  3.22841227
H  -1.21543661  2.72481552  3.05184474

