%mem=1GB
%nprocshared=1
%chk=conf_006.chk
#P B3LYP/def2TZVPP Geom=Connectivity 
    opt=(calcall,tight,maxstep=7,maxcycles=100) Freq

HessFit conformer conf_006
0 1
C  -3.14387063  0.08802834  1.14359529
H  -2.77137982 -0.93662796  1.10163194
H  -3.75347973  0.25545614  0.25293494
H  -3.80240969  0.16565121  2.01148404
C  -2.00023900  1.09707300  1.22694500
H  -1.33919432  0.97236906  0.36346661
H  -1.38775010  0.88325141  2.10857081
C  -2.47573600  2.54906500  1.28786500
H  -2.14216000  3.07351700  0.38686300
H  -3.56979700  2.56933900  1.26055900
C  -1.98256300  3.29668400  2.52514300
H  -0.89126000  3.32285300  2.56126900
H  -2.33875400  4.32789100  2.53819100
H  -2.32989700  2.81479100  3.44169600

