14
HessFit conformer 011
C  -3.04562856  0.09621550  1.71526512
H  -3.77571374  0.56919167  2.37382418
H  -2.58005556 -0.72135035  2.27002547
H  -3.59140974 -0.34419268  0.87795190
C  -2.00023900  1.09707300  1.22694500
H  -1.71612519  0.85588474  0.19775423
H  -1.08830726  0.99327823  1.82337903
C  -2.47573600  2.54906500  1.28786500
H  -2.14216000  3.07351700  0.38686300
H  -3.56979700  2.56933900  1.26055900
C  -1.98256300  3.29668400  2.52514300
H  -0.89162725  3.29546883  2.57796213
H  -2.31241298  4.33669432  2.52237224
H  -2.35607805  2.83330258  3.44094611
