14
HessFit conformer 018
C  -2.49341300  0.34945400 -0.01033300
H  -2.13722100 -0.68175300 -0.02338100
H  -2.14607900  0.83134700 -0.92688600
H  -3.58471500  0.32328500 -0.04645800
C  -2.00023900  1.09707300  1.22694500
H  -0.90617800  1.07679900  1.25425000
H  -2.33381500  0.57262200  2.12794700
C  -2.47573600  2.54906500  1.28786500
H  -2.14216000  3.07351700  0.38686300
H  -3.56979700  2.56933900  1.26055900
C  -1.98256300  3.29668400  2.52514300
H  -2.07988928  2.68167025  3.42248230
H  -0.93304919  3.57940003  2.43015579
H  -2.55803429  4.21035466  2.68936810
