HessFit high-level Opt+Freq starting from 02_conf_010                   
Freq      RM052X                                                      6-31+G(d)           
Number of atoms                            I               14
Info1-9                                    I   N=           9
          23          23        1002           0           0         100
           6          18       -3802
Full Title                                 C   N=           5
HessFit high-level Opt+Freq starting from 02_conf_010       
Route                                      C   N=           6
#p m052x/6-31+G(d) opt(calcall,tight,maxstep=7) freq=intmode
s           
Charge                                     I                0
Multiplicity                               I                1
Number of electrons                        I               34
Number of alpha electrons                  I               17
Number of beta electrons                   I               17
Number of basis functions                  I               96
Number of independent functions            I               96
Number of point charges in /Mol/           I                0
Number of translation vectors              I                0
Atomic numbers                             I   N=          14
           6           1           1           1           6           1
           1           6           1           1           6           1
           1           1
Nuclear charges                            R   N=          14
  6.00000000E+00  1.00000000E+00  1.00000000E+00  1.00000000E+00  6.00000000E+00
  1.00000000E+00  1.00000000E+00  6.00000000E+00  1.00000000E+00  1.00000000E+00
  6.00000000E+00  1.00000000E+00  1.00000000E+00  1.00000000E+00
Current cartesian coordinates              R   N=          42
 -1.10896390E+00  2.71549490E+00 -1.07140635E+00 -2.60961302E+00  4.12243470E+00
 -9.08873489E-01 -1.40050734E+00  1.69429842E+00 -2.83997815E+00  6.91947769E-01
  3.72074936E+00 -1.20937726E+00 -1.10896390E+00  9.29645075E-01  1.20063292E+00
 -2.88437894E+00 -1.34179016E-01  1.24284769E+00 -1.04790631E+00  2.04532939E+00
  2.94002182E+00  1.10896390E+00 -9.29645075E-01  1.20063292E+00  2.88437894E+00
  1.34179016E-01  1.24284769E+00  1.04790631E+00 -2.04532939E+00  2.94002182E+00
  1.10896390E+00 -2.71549490E+00 -1.07140635E+00  2.60961302E+00 -4.12243470E+00
 -9.08873489E-01 -6.91947769E-01 -3.72074936E+00 -1.20937726E+00  1.40050734E+00
 -1.69429842E+00 -2.83997815E+00
Number of symbols in /Mol/                 I                0
Force Field                                I                0
Atom Types                                 C   N=          14
                                                            
                                                            
                                                
Int Atom Types                             I   N=          14
           0           0           0           0           0           0
           0           0           0           0           0           0
           0           0
MM charges                                 R   N=          14
  0.00000000E+00  0.00000000E+00  0.00000000E+00  0.00000000E+00  0.00000000E+00
  0.00000000E+00  0.00000000E+00  0.00000000E+00  0.00000000E+00  0.00000000E+00
  0.00000000E+00  0.00000000E+00  0.00000000E+00  0.00000000E+00
Integer atomic weights                     I   N=          14
          12           1           1           1          12           1
           1          12           1           1          12           1
           1           1
Real atomic weights                        R   N=          14
  1.20000000E+01  1.00782504E+00  1.00782504E+00  1.00782504E+00  1.20000000E+01
  1.00782504E+00  1.00782504E+00  1.20000000E+01  1.00782504E+00  1.00782504E+00
  1.20000000E+01  1.00782504E+00  1.00782504E+00  1.00782504E+00
Atom fragment info                         I   N=          14
           0           0           0           0           0           0
           0           0           0           0           0           0
           0           0
Atom residue num                           I   N=          14
           0           0           0           0           0           0
           0           0           0           0           0           0
           0           0
Nuclear spins                              I   N=          14
           0           1           1           1           0           1
           1           0           1           1           0           1
           1           1
Nuclear ZEff                               R   N=          14
 -3.60000000E+00 -1.00000000E+00 -1.00000000E+00 -1.00000000E+00 -3.60000000E+00
 -1.00000000E+00 -1.00000000E+00 -3.60000000E+00 -1.00000000E+00 -1.00000000E+00
 -3.60000000E+00 -1.00000000E+00 -1.00000000E+00 -1.00000000E+00
Nuclear ZNuc                               R   N=          14
  6.00000000E+00  1.00000000E+00  1.00000000E+00  1.00000000E+00  6.00000000E+00
  1.00000000E+00  1.00000000E+00  6.00000000E+00  1.00000000E+00  1.00000000E+00
  6.00000000E+00  1.00000000E+00  1.00000000E+00  1.00000000E+00
Nuclear QMom                               R   N=          14
  0.00000000E+00  0.00000000E+00  0.00000000E+00  0.00000000E+00  0.00000000E+00
  0.00000000E+00  0.00000000E+00  0.00000000E+00  0.00000000E+00  0.00000000E+00
  0.00000000E+00  0.00000000E+00  0.00000000E+00  0.00000000E+00
Nuclear GFac                               R   N=          14
  0.00000000E+00  2.79284600E+00  2.79284600E+00  2.79284600E+00  0.00000000E+00
  2.79284600E+00  2.79284600E+00  0.00000000E+00  2.79284600E+00  2.79284600E+00
  0.00000000E+00  2.79284600E+00  2.79284600E+00  2.79284600E+00
MicOpt                                     I   N=          14
          -1          -1          -1          -1          -1          -1
          -1          -1          -1          -1          -1          -1
          -1          -1
Number of residues                         I                0
Number of secondary structures             I                0
Redundant internal dimensions              I   N=           4
          64          13          24          27
Redundant internal coordinate indices      I   N=         256
           1           2           0           0           1           3
           0           0           1           4           0           0
           1           5           0           0           5           6
           0           0           5           7           0           0
           5           8           0           0           8           9
           0           0           8          10           0           0
           8          11           0           0          11          12
           0           0          11          13           0           0
          11          14           0           0           2           1
           3           0           2           1           4           0
           2           1           5           0           3           1
           4           0           3           1           5           0
           4           1           5           0           1           5
           6           0           1           5           7           0
           1           5           8           0           6           5
           7           0           6           5           8           0
           7           5           8           0           5           8
           9           0           5           8          10           0
           5           8          11           0           9           8
          10           0           9           8          11           0
          10           8          11           0           8          11
          12           0           8          11          13           0
           8          11          14           0          12          11
          13           0          12          11          14           0
          13          11          14           0           2           1
           5           6           2           1           5           7
           2           1           5           8           3           1
           5           6           3           1           5           7
           3           1           5           8           4           1
           5           6           4           1           5           7
           4           1           5           8           1           5
           8           9           1           5           8          10
           1           5           8          11           6           5
           8           9           6           5           8          10
           6           5           8          11           7           5
           8           9           7           5           8          10
           7           5           8          11           5           8
          11          12           5           8          11          13
           5           8          11          14           9           8
          11          12           9           8          11          13
           9           8          11          14          10           8
          11          12          10           8          11          13
          10           8          11          14
Redundant internal coordinates             R   N=          64
  2.06345447E+00  2.06293141E+00  2.06708862E+00  2.88988270E+00  2.07016964E+00
  2.06735417E+00  2.89416026E+00  2.07016964E+00  2.06735417E+00  2.88988270E+00
  2.06345447E+00  2.06708862E+00  2.06293141E+00  1.87787348E+00  1.88312338E+00
  1.93844798E+00  1.88245766E+00  1.94777639E+00  1.93157418E+00  1.91091004E+00
  1.90496577E+00  1.97904104E+00  1.86032225E+00  1.90402890E+00  1.90081888E+00
  1.90402890E+00  1.90081888E+00  1.97904104E+00  1.86032225E+00  1.91091004E+00
  1.90496577E+00  1.93844798E+00  1.93157418E+00  1.94777639E+00  1.88312338E+00
  1.87787348E+00  1.88245766E+00  1.10536161E+00 -9.24865276E-01 -3.04712191E+00
 -9.90044940E-01 -3.02027183E+00  1.14065685E+00 -3.08659656E+00  1.16636186E+00
 -9.55894771E-01  1.05022625E+00  3.07430821E+00 -1.08430151E+00 -3.09843130E+00
 -1.07434933E+00  1.05022625E+00 -1.07434933E+00  9.49732632E-01  3.07430821E+00
 -3.04712191E+00 -9.55894771E-01  1.14065685E+00  1.10536161E+00 -3.08659656E+00
 -9.90044940E-01 -9.24865276E-01  1.16636186E+00 -3.02027183E+00
ZRed-IntVec                                I   N=          64
           0           0           0           0           0           0
           0           0           0           0           0           0
           0           0           0           0           0           0
           0           0           0           0           0           0
           0           0           0           0           0           0
           0           0           0           0           0           0
           0           0           0           0           0           0
           0           0           0           0           0           0
           0           0           0           0           0           0
           0           0           0           0           0           0
           0           0           0           0
ZRed-FPVec                                 R   N=          64
  0.00000000E+00  0.00000000E+00  0.00000000E+00  0.00000000E+00  0.00000000E+00
  0.00000000E+00  0.00000000E+00  0.00000000E+00  0.00000000E+00  0.00000000E+00
  0.00000000E+00  0.00000000E+00  0.00000000E+00  0.00000000E+00  0.00000000E+00
  0.00000000E+00  0.00000000E+00  0.00000000E+00  0.00000000E+00  0.00000000E+00
  0.00000000E+00  0.00000000E+00  0.00000000E+00  0.00000000E+00  0.00000000E+00
  0.00000000E+00  0.00000000E+00  0.00000000E+00  0.00000000E+00  0.00000000E+00
  0.00000000E+00  0.00000000E+00  0.00000000E+00  0.00000000E+00  0.00000000E+00
  0.00000000E+00  0.00000000E+00  0.00000000E+00  0.00000000E+00  0.00000000E+00
  0.00000000E+00  0.00000000E+00  0.00000000E+00  0.00000000E+00  0.00000000E+00
  0.00000000E+00  0.00000000E+00  0.00000000E+00  0.00000000E+00  0.00000000E+00
  0.00000000E+00  0.00000000E+00  0.00000000E+00  0.00000000E+00  0.00000000E+00
  0.00000000E+00  0.00000000E+00  0.00000000E+00  0.00000000E+00  0.00000000E+00
  0.00000000E+00  0.00000000E+00  0.00000000E+00  0.00000000E+00
ZRed-Constraint1                           R   N=          64
  2.06345447E+00  2.06293141E+00  2.06708862E+00  2.88988270E+00  2.07016964E+00
  2.06735417E+00  2.89416026E+00  2.07016964E+00  2.06735417E+00  2.88988270E+00
  2.06345447E+00  2.06708862E+00  2.06293141E+00  1.87787348E+00  1.88312338E+00
  1.93844798E+00  1.88245766E+00  1.94777639E+00  1.93157418E+00  1.91091004E+00
  1.90496577E+00  1.97904104E+00  1.86032225E+00  1.90402890E+00  1.90081888E+00
  1.90402890E+00  1.90081888E+00  1.97904104E+00  1.86032225E+00  1.91091004E+00
  1.90496577E+00  1.93844798E+00  1.93157418E+00  1.94777639E+00  1.88312338E+00
  1.87787348E+00  1.88245766E+00  1.10536161E+00 -9.24865276E-01 -3.04712191E+00
 -9.90044940E-01 -3.02027183E+00  1.14065685E+00 -3.08659656E+00  1.16636186E+00
 -9.55894771E-01  1.05022625E+00  3.07430821E+00 -1.08430151E+00 -3.09843130E+00
 -1.07434933E+00  1.05022625E+00 -1.07434933E+00  9.49732632E-01  3.07430821E+00
 -3.04712191E+00 -9.55894771E-01  1.14065685E+00  1.10536161E+00 -3.08659656E+00
 -9.90044940E-01 -9.24865276E-01  1.16636186E+00 -3.02027183E+00
ZRed-Constraint2                           R   N=          64
  2.05554350E+00  2.05361737E+00  2.05610243E+00  2.88052887E+00  2.06468824E+00
  2.06527192E+00  2.88962851E+00  2.06465881E+00  2.06525899E+00  2.88048839E+00
  2.05558769E+00  2.05625731E+00  2.05374379E+00  1.88634446E+00  1.89097429E+00
  1.92535318E+00  1.89353623E+00  1.93868914E+00  1.92763439E+00  1.90911292E+00
  1.89882030E+00  1.97509360E+00  1.87740482E+00  1.90567046E+00  1.89523346E+00
  1.90563350E+00  1.89526865E+00  1.97512068E+00  1.87738483E+00  1.90909036E+00
  1.89883588E+00  1.92524005E+00  1.92752715E+00  1.93877234E+00  1.89094762E+00
  1.88645352E+00  1.89359558E+00  1.08507097E+00 -9.61159424E-01 -3.06931460E+00
 -1.00625776E+00 -3.05248816E+00  1.12254197E+00 -3.10812113E+00  1.12883378E+00
 -9.79321389E-01  9.52851085E-01  2.99509924E+00 -1.17783709E+00  3.08357653E+00
 -1.15736062E+00  9.52888360E-01 -1.15733599E+00  8.84912166E-01  2.99516115E+00
 -3.07010752E+00 -9.80288534E-01  1.12163287E+00  1.08432337E+00 -3.10904294E+00
 -1.00712154E+00 -9.61879186E-01  1.12793980E+00 -3.05332410E+00
SymInf integers                            I   N=          26
           2           2           1           1           1          -1
          -1           1           0           0           0           0
           0           0           0           0           0           0
           0           0           0           0           0           0
           0           0
RotTr to input orientation                 R   N=          12
  2.86857904E-01  8.40948901E-01 -4.58821849E-01  6.43332996E-01 -5.23988682E-01
 -5.58174271E-01 -7.09813496E-01 -1.35058534E-01 -6.91320471E-01 -3.21784068E+00
  3.75338670E+00  3.09352574E+00
Number of contracted shells                I               40
Number of primitive shells                 I               88
Pure/Cartesian d shells                    I                1
Pure/Cartesian f shells                    I                0
Highest angular momentum                   I                2
Largest degree of contraction              I                6
Shell types                                I   N=          40
           0          -1          -1          -1           2           0
           0           0           0           0           0           0
          -1          -1          -1           2           0           0
           0           0           0          -1          -1          -1
           2           0           0           0           0           0
          -1          -1          -1           2           0           0
           0           0           0           0
Number of primitives per shell             I   N=          40
           6           3           1           1           1           3
           1           3           1           3           1           6
           3           1           1           1           3           1
           3           1           6           3           1           1
           1           3           1           3           1           6
           3           1           1           1           3           1
           3           1           3           1
Shell to atom map                          I   N=          40
           1           1           1           1           1           2
           2           3           3           4           4           5
           5           5           5           5           6           6
           7           7           8           8           8           8
           8           9           9          10          10          11
          11          11          11          11          12          12
          13          13          14          14
Primitive exponents                        R   N=          88
  3.04752488E+03  4.57369518E+02  1.03948685E+02  2.92101553E+01  9.28666296E+00
  3.16392696E+00  7.86827235E+00  1.88128854E+00  5.44249258E-01  1.68714478E-01
  4.38000000E-02  8.00000000E-01  1.87311370E+01  2.82539436E+00  6.40121692E-01
  1.61277759E-01  1.87311370E+01  2.82539436E+00  6.40121692E-01  1.61277759E-01
  1.87311370E+01  2.82539436E+00  6.40121692E-01  1.61277759E-01  3.04752488E+03
  4.57369518E+02  1.03948685E+02  2.92101553E+01  9.28666296E+00  3.16392696E+00
  7.86827235E+00  1.88128854E+00  5.44249258E-01  1.68714478E-01  4.38000000E-02
  8.00000000E-01  1.87311370E+01  2.82539436E+00  6.40121692E-01  1.61277759E-01
  1.87311370E+01  2.82539436E+00  6.40121692E-01  1.61277759E-01  3.04752488E+03
  4.57369518E+02  1.03948685E+02  2.92101553E+01  9.28666296E+00  3.16392696E+00
  7.86827235E+00  1.88128854E+00  5.44249258E-01  1.68714478E-01  4.38000000E-02
  8.00000000E-01  1.87311370E+01  2.82539436E+00  6.40121692E-01  1.61277759E-01
  1.87311370E+01  2.82539436E+00  6.40121692E-01  1.61277759E-01  3.04752488E+03
  4.57369518E+02  1.03948685E+02  2.92101553E+01  9.28666296E+00  3.16392696E+00
  7.86827235E+00  1.88128854E+00  5.44249258E-01  1.68714478E-01  4.38000000E-02
  8.00000000E-01  1.87311370E+01  2.82539436E+00  6.40121692E-01  1.61277759E-01
  1.87311370E+01  2.82539436E+00  6.40121692E-01  1.61277759E-01  1.87311370E+01
  2.82539436E+00  6.40121692E-01  1.61277759E-01
Contraction coefficients                   R   N=          88
  1.83473713E-03  1.40373228E-02  6.88426223E-02  2.32184443E-01  4.67941348E-01
  3.62311985E-01 -1.19332420E-01 -1.60854152E-01  1.14345644E+00  1.00000000E+00
  1.00000000E+00  1.00000000E+00  3.34946043E-02  2.34726953E-01  8.13757326E-01
  1.00000000E+00  3.34946043E-02  2.34726953E-01  8.13757326E-01  1.00000000E+00
  3.34946043E-02  2.34726953E-01  8.13757326E-01  1.00000000E+00  1.83473713E-03
  1.40373228E-02  6.88426223E-02  2.32184443E-01  4.67941348E-01  3.62311985E-01
 -1.19332420E-01 -1.60854152E-01  1.14345644E+00  1.00000000E+00  1.00000000E+00
  1.00000000E+00  3.34946043E-02  2.34726953E-01  8.13757326E-01  1.00000000E+00
  3.34946043E-02  2.34726953E-01  8.13757326E-01  1.00000000E+00  1.83473713E-03
  1.40373228E-02  6.88426223E-02  2.32184443E-01  4.67941348E-01  3.62311985E-01
 -1.19332420E-01 -1.60854152E-01  1.14345644E+00  1.00000000E+00  1.00000000E+00
  1.00000000E+00  3.34946043E-02  2.34726953E-01  8.13757326E-01  1.00000000E+00
  3.34946043E-02  2.34726953E-01  8.13757326E-01  1.00000000E+00  1.83473713E-03
  1.40373228E-02  6.88426223E-02  2.32184443E-01  4.67941348E-01  3.62311985E-01
 -1.19332420E-01 -1.60854152E-01  1.14345644E+00  1.00000000E+00  1.00000000E+00
  1.00000000E+00  3.34946043E-02  2.34726953E-01  8.13757326E-01  1.00000000E+00
  3.34946043E-02  2.34726953E-01  8.13757326E-01  1.00000000E+00  3.34946043E-02
  2.34726953E-01  8.13757326E-01  1.00000000E+00
P(S=P) Contraction coefficients            R   N=          88
  0.00000000E+00  0.00000000E+00  0.00000000E+00  0.00000000E+00  0.00000000E+00
  0.00000000E+00  6.89990666E-02  3.16423961E-01  7.44308291E-01  1.00000000E+00
  1.00000000E+00  0.00000000E+00  0.00000000E+00  0.00000000E+00  0.00000000E+00
  0.00000000E+00  0.00000000E+00  0.00000000E+00  0.00000000E+00  0.00000000E+00
  0.00000000E+00  0.00000000E+00  0.00000000E+00  0.00000000E+00  0.00000000E+00
  0.00000000E+00  0.00000000E+00  0.00000000E+00  0.00000000E+00  0.00000000E+00
  6.89990666E-02  3.16423961E-01  7.44308291E-01  1.00000000E+00  1.00000000E+00
  0.00000000E+00  0.00000000E+00  0.00000000E+00  0.00000000E+00  0.00000000E+00
  0.00000000E+00  0.00000000E+00  0.00000000E+00  0.00000000E+00  0.00000000E+00
  0.00000000E+00  0.00000000E+00  0.00000000E+00  0.00000000E+00  0.00000000E+00
  6.89990666E-02  3.16423961E-01  7.44308291E-01  1.00000000E+00  1.00000000E+00
  0.00000000E+00  0.00000000E+00  0.00000000E+00  0.00000000E+00  0.00000000E+00
  0.00000000E+00  0.00000000E+00  0.00000000E+00  0.00000000E+00  0.00000000E+00
  0.00000000E+00  0.00000000E+00  0.00000000E+00  0.00000000E+00  0.00000000E+00
  6.89990666E-02  3.16423961E-01  7.44308291E-01  1.00000000E+00  1.00000000E+00
  0.00000000E+00  0.00000000E+00  0.00000000E+00  0.00000000E+00  0.00000000E+00
  0.00000000E+00  0.00000000E+00  0.00000000E+00  0.00000000E+00  0.00000000E+00
  0.00000000E+00  0.00000000E+00  0.00000000E+00
Coordinates of each shell                  R   N=         120
 -1.10896390E+00  2.71549490E+00 -1.07140635E+00 -1.10896390E+00  2.71549490E+00
 -1.07140635E+00 -1.10896390E+00  2.71549490E+00 -1.07140635E+00 -1.10896390E+00
  2.71549490E+00 -1.07140635E+00 -1.10896390E+00  2.71549490E+00 -1.07140635E+00
 -2.60961302E+00  4.12243470E+00 -9.08873489E-01 -2.60961302E+00  4.12243470E+00
 -9.08873489E-01 -1.40050734E+00  1.69429842E+00 -2.83997815E+00 -1.40050734E+00
  1.69429842E+00 -2.83997815E+00  6.91947769E-01  3.72074936E+00 -1.20937726E+00
  6.91947769E-01  3.72074936E+00 -1.20937726E+00 -1.10896390E+00  9.29645075E-01
  1.20063292E+00 -1.10896390E+00  9.29645075E-01  1.20063292E+00 -1.10896390E+00
  9.29645075E-01  1.20063292E+00 -1.10896390E+00  9.29645075E-01  1.20063292E+00
 -1.10896390E+00  9.29645075E-01  1.20063292E+00 -2.88437894E+00 -1.34179016E-01
  1.24284769E+00 -2.88437894E+00 -1.34179016E-01  1.24284769E+00 -1.04790631E+00
  2.04532939E+00  2.94002182E+00 -1.04790631E+00  2.04532939E+00  2.94002182E+00
  1.10896390E+00 -9.29645075E-01  1.20063292E+00  1.10896390E+00 -9.29645075E-01
  1.20063292E+00  1.10896390E+00 -9.29645075E-01  1.20063292E+00  1.10896390E+00
 -9.29645075E-01  1.20063292E+00  1.10896390E+00 -9.29645075E-01  1.20063292E+00
  2.88437894E+00  1.34179016E-01  1.24284769E+00  2.88437894E+00  1.34179016E-01
  1.24284769E+00  1.04790631E+00 -2.04532939E+00  2.94002182E+00  1.04790631E+00
 -2.04532939E+00  2.94002182E+00  1.10896390E+00 -2.71549490E+00 -1.07140635E+00
  1.10896390E+00 -2.71549490E+00 -1.07140635E+00  1.10896390E+00 -2.71549490E+00
 -1.07140635E+00  1.10896390E+00 -2.71549490E+00 -1.07140635E+00  1.10896390E+00
 -2.71549490E+00 -1.07140635E+00  2.60961302E+00 -4.12243470E+00 -9.08873489E-01
  2.60961302E+00 -4.12243470E+00 -9.08873489E-01 -6.91947769E-01 -3.72074936E+00
 -1.20937726E+00 -6.91947769E-01 -3.72074936E+00 -1.20937726E+00  1.40050734E+00
 -1.69429842E+00 -2.83997815E+00  1.40050734E+00 -1.69429842E+00 -2.83997815E+00
Num ILSW                                   I              100
ILSW                                       I   N=         100
           0           1           0           0           2           0
           0           0           0           0        3428          -1
           5           0           0           0           2           0
           0           0           0           0           1           0
           1           0           0           0           0           0
           0           0      100000           0          -1           0
           0           0           0           0           0           0
           0           0           0           1           0           0
           0 -2000000000           1           0           0           0
           0           0           4          52           0           0
           0           0          38           0           0           0
           0           0           0          14           0           1
           0           0           0           0           0           0
           0           0           0           0           0           0
           0           0           0           0           0           0
           0           0           0           0           0           0
           0           0           0           0
Num RLSW                                   I               52
RLSW                                       R   N=          52
  4.40000000E-01  4.40000000E-01  1.00000000E+00  1.00000000E+00  5.60000000E-01
  0.00000000E+00  0.00000000E+00  1.00000000E+00  0.00000000E+00  0.00000000E+00
  0.00000000E+00  0.00000000E+00  1.00000000E+00  0.00000000E+00  0.00000000E+00
  0.00000000E+00  0.00000000E+00  1.00000000E+00  0.00000000E+00  0.00000000E+00
  0.00000000E+00  0.00000000E+00  1.00000000E+00  0.00000000E+00  0.00000000E+00
  0.00000000E+00  0.00000000E+00  1.00000000E+00  0.00000000E+00  0.00000000E+00
  0.00000000E+00  0.00000000E+00  1.00000000E+00  0.00000000E+00  0.00000000E+00
  0.00000000E+00  0.00000000E+00  0.00000000E+00  1.00000000E+00  1.00000000E+00
  0.00000000E+00  1.00000000E+00  0.00000000E+00  0.00000000E+00  0.00000000E+00
  0.00000000E+00  0.00000000E+00  0.00000000E+00  0.00000000E+00  0.00000000E+00
  0.00000000E+00  0.00000000E+00
MxBond                                     I                4
NBond                                      I   N=          14
           4           1           1           1           4           1
           1           4           1           1           4           1
           1           1
IBond                                      I   N=          56
           2           3           4           5           1           0
           0           0           1           0           0           0
           1           0           0           0           1           6
           7           8           5           0           0           0
           5           0           0           0           5           9
          10          11           8           0           0           0
           8           0           0           0           8          12
          13          14          11           0           0           0
          11           0           0           0          11           0
           0           0
RBond                                      R   N=          56
  1.00000000E+00  1.00000000E+00  1.00000000E+00  1.00000000E+00  1.00000000E+00
  0.00000000E+00  0.00000000E+00  0.00000000E+00  1.00000000E+00  0.00000000E+00
  0.00000000E+00  0.00000000E+00  1.00000000E+00  0.00000000E+00  0.00000000E+00
  0.00000000E+00  1.00000000E+00  1.00000000E+00  1.00000000E+00  1.00000000E+00
  1.00000000E+00  0.00000000E+00  0.00000000E+00  0.00000000E+00  1.00000000E+00
  0.00000000E+00  0.00000000E+00  0.00000000E+00  1.00000000E+00  1.00000000E+00
  1.00000000E+00  1.00000000E+00  1.00000000E+00  0.00000000E+00  0.00000000E+00
  0.00000000E+00  1.00000000E+00  0.00000000E+00  0.00000000E+00  0.00000000E+00
  1.00000000E+00  1.00000000E+00  1.00000000E+00  1.00000000E+00  1.00000000E+00
  0.00000000E+00  0.00000000E+00  0.00000000E+00  1.00000000E+00  0.00000000E+00
  0.00000000E+00  0.00000000E+00  1.00000000E+00  0.00000000E+00  0.00000000E+00
  0.00000000E+00
Virial Ratio                               R      2.010025826827743E+00
SCF Energy                                 R     -1.584177635040631E+02
Total Energy                               R     -1.584177635040631E+02
RMS Force                                  R      4.059859137949372E-07
RMS Density                                R      1.121863589079467E-09
NImag                                      I                0
Job Status                                 I                1
Nuclear derivative order                   I                2
External E-field                           R   N=          35
  0.00000000E+00  0.00000000E+00  0.00000000E+00  0.00000000E+00  0.00000000E+00
  0.00000000E+00  0.00000000E+00  0.00000000E+00  0.00000000E+00  0.00000000E+00
  0.00000000E+00  0.00000000E+00  0.00000000E+00  0.00000000E+00  0.00000000E+00
  0.00000000E+00  0.00000000E+00  0.00000000E+00  0.00000000E+00  0.00000000E+00
  0.00000000E+00  0.00000000E+00  0.00000000E+00  0.00000000E+00  0.00000000E+00
  0.00000000E+00  0.00000000E+00  0.00000000E+00  0.00000000E+00  0.00000000E+00
  0.00000000E+00  0.00000000E+00  0.00000000E+00  0.00000000E+00  0.00000000E+00
IOpCl                                      I                0
IROHF                                      I                0
Alpha Orbital Energies                     R   N=          96
 -1.05648388E+01 -1.05644705E+01 -1.05568011E+01 -1.05567996E+01 -9.03666004E-01
 -8.21318263E-01 -7.36330968E-01 -6.54714297E-01 -5.35385546E-01 -5.31578964E-01
 -4.88341640E-01 -4.52001080E-01 -4.50689599E-01 -4.25690995E-01 -3.87926553E-01
 -3.84975787E-01 -3.83649934E-01  5.44331703E-02  6.84414912E-02  7.30727194E-02
  7.78854849E-02  1.04047079E-01  1.13248788E-01  1.14585390E-01  1.18417346E-01
  1.20621913E-01  1.46381099E-01  1.50508873E-01  1.59918759E-01  1.61755101E-01
  1.66274601E-01  2.00891576E-01  2.15900710E-01  2.42443140E-01  2.64986238E-01
  2.74032957E-01  2.87290179E-01  3.01318438E-01  3.14420061E-01  3.26612725E-01
  3.54755494E-01  3.56686804E-01  3.73326048E-01  3.98481175E-01  4.04904508E-01
  4.62446154E-01  6.50865856E-01  6.78473535E-01  6.88660013E-01  7.08881448E-01
  7.21385006E-01  7.52838428E-01  7.80906383E-01  7.95766472E-01  7.97010978E-01
  8.30321392E-01  9.46363593E-01  9.82128040E-01  1.00993679E+00  1.04048405E+00
  1.07208247E+00  1.07429633E+00  1.10703964E+00  1.11128003E+00  1.14441060E+00
  1.20261016E+00  1.21831710E+00  1.24131761E+00  1.24207048E+00  1.36270544E+00
  1.52971247E+00  1.53983815E+00  1.63318602E+00  1.66277965E+00  1.76749313E+00
  1.81185414E+00  1.95296477E+00  2.03713637E+00  2.06136104E+00  2.08005794E+00
  2.11184221E+00  2.21497446E+00  2.23443017E+00  2.39437342E+00  2.40833308E+00
  2.42516063E+00  2.45052161E+00  2.51789216E+00  2.53083381E+00  2.70226345E+00
  2.71427561E+00  2.79211223E+00  4.22437303E+00  4.32804459E+00  4.47730042E+00
  4.57871506E+00
Alpha MO coefficients                      R   N=        9216
  1.53640787E-02  3.11290280E-04 -5.29812697E-05  4.67768965E-05 -1.38814458E-05
  4.45608206E-03  3.76926974E-04 -1.49457766E-03  1.39308963E-03 -4.66023137E-03
 -2.16336172E-04  7.59380884E-04 -1.20777382E-03 -2.81069390E-04 -3.45005833E-04
 -4.25904980E-04 -3.18897209E-05  1.75206991E-05  7.09159670E-05 -1.49599884E-04
  2.79243916E-04 -1.47484222E-04 -4.08158474E-04 -2.24778652E-04 -1.70347220E-04
  7.02459891E-01  3.19570106E-02  9.12602112E-05 -5.14711980E-05 -1.32859663E-04
 -1.12436292E-02  5.45535706E-04 -1.21277356E-03  1.03398491E-03  4.47533155E-03
  7.00367837E-04  1.41179936E-03 -1.36562315E-03 -5.56570661E-03 -5.50819517E-03
 -5.49198487E-03  1.38950924E-04 -2.40432235E-06  7.32221132E-05  2.10521876E-05
  2.33091213E-03  4.17189853E-05  2.07318278E-03  7.02459891E-01  3.19570106E-02
 -9.12602112E-05  5.14711980E-05 -1.32859663E-04 -1.12436292E-02 -5.45535706E-04
  1.21277356E-03  1.03398491E-03  4.47533155E-03 -7.00367837E-04 -1.41179936E-03
 -1.36562315E-03 -5.56570661E-03 -5.50819517E-03 -5.49198487E-03  1.38950924E-04
  2.40432235E-06 -7.32221132E-05  2.10521876E-05  2.33091213E-03  4.17189853E-05
  2.07318278E-03  1.53640787E-02  3.11290280E-04  5.29812697E-05 -4.67768965E-05
 -1.38814458E-05  4.45608206E-03 -3.76926974E-04  1.49457766E-03  1.39308963E-03
 -4.66023137E-03  2.16336172E-04 -7.59380884E-04 -1.20777382E-03 -2.81069390E-04
 -3.45005833E-04 -4.25904980E-04 -3.18897209E-05 -1.75206991E-05 -7.09159670E-05
 -1.49599884E-04  2.79243916E-04 -2.24778652E-04 -1.70347220E-04 -1.47484222E-04
 -4.08158474E-04  1.74175938E-02  8.00663190E-04  1.20070111E-04 -1.41372074E-04
  3.16135634E-05  3.20524887E-03 -3.36240371E-04 -8.00240682E-04  1.51655910E-03
  4.15312701E-03 -1.91998056E-04 -5.29174307E-04  9.47993466E-04 -2.01388058E-04
 -2.14499310E-04 -3.07368070E-04  2.18084793E-05  4.72935554E-05  1.18163733E-04
 -1.06940598E-04 -5.43319472E-04 -1.30329716E-04  3.96096626E-04 -5.73312432E-05
  1.01595654E-04  7.02627840E-01  3.22496613E-02  2.90190888E-05  3.69851722E-05
 -9.07797973E-05 -1.87005694E-02 -2.09690407E-03  1.49698557E-03  6.23186397E-04
 -7.10174267E-03 -1.68016606E-04 -5.01744581E-04  8.98488789E-04 -5.18079426E-03
 -5.23064531E-03 -5.23440553E-03 -2.82798551E-05  2.83234269E-05  2.06450297E-05
  2.77071467E-04  2.80158109E-03  2.35753596E-04  2.77500961E-03 -7.02627840E-01
 -3.22496613E-02  2.90190888E-05  3.69851722E-05  9.07797973E-05  1.87005694E-02
 -2.09690407E-03  1.49698557E-03 -6.23186397E-04  7.10174267E-03 -1.68016606E-04
 -5.01744581E-04 -8.98488789E-04  5.18079426E-03  5.23064531E-03  5.23440553E-03
  2.82798551E-05  2.83234269E-05  2.06450297E-05 -2.77071467E-04 -2.80158109E-03
 -2.35753596E-04 -2.77500961E-03 -1.74175938E-02 -8.00663190E-04  1.20070111E-04
 -1.41372074E-04 -3.16135634E-05 -3.20524887E-03 -3.36240371E-04 -8.00240682E-04
 -1.51655910E-03 -4.15312701E-03 -1.91998056E-04 -5.29174307E-04 -9.47993466E-04
  2.01388058E-04  2.14499310E-04  3.07368070E-04 -2.18084793E-05  4.72935554E-05
  1.18163733E-04  1.06940598E-04  5.43319472E-04  5.73312432E-05 -1.01595654E-04
  1.30329716E-04 -3.96096626E-04  7.02418957E-01  3.18929565E-02  4.92461133E-06
 -9.02532690E-05  5.09295262E-05 -1.25106008E-02  1.25563282E-04  4.66541269E-04
 -6.72129215E-04 -1.17239953E-03  8.54366443E-05 -7.12561723E-05 -1.94275428E-05
 -5.48050788E-03 -5.51513693E-03 -5.57700364E-03 -5.77491800E-06  7.05833508E-06
  3.44241352E-05  4.72049793E-05  2.39490085E-03  1.24630139E-04  2.10317024E-03
  5.14281964E-05  2.19539094E-03 -1.75640339E-02 -7.32504073E-04  2.53274061E-05
 -7.56206089E-05 -6.35407199E-05  3.08593863E-03 -3.18897460E-04  1.41481587E-03
 -9.72815835E-04  9.19473063E-03  1.89008416E-03 -1.45791748E-03 -3.87811330E-04
  5.86058412E-05  2.38557041E-05 -2.62064841E-05  4.68406165E-05  6.16786631E-06
  7.34401888E-05 -6.96228708E-05 -1.62174033E-04 -9.67439279E-05 -5.80146763E-04
  1.75640339E-02  7.32504073E-04  2.53274061E-05 -7.56206089E-05  6.35407199E-05
 -3.08593863E-03 -3.18897460E-04  1.41481587E-03  9.72815835E-04 -9.19473063E-03
  1.89008416E-03 -1.45791748E-03  3.87811330E-04 -5.86058412E-05 -2.38557041E-05
  2.62064841E-05 -4.68406165E-05  6.16786631E-06  7.34401888E-05  6.96228708E-05
  1.62174033E-04  9.67439279E-05  5.80146763E-04 -7.02418957E-01 -3.18929565E-02
  4.92461133E-06 -9.02532690E-05 -5.09295262E-05  1.25106008E-02  1.25563282E-04
  4.66541269E-04  6.72129215E-04  1.17239953E-03  8.54366443E-05 -7.12561723E-05
  1.94275428E-05  5.48050788E-03  5.51513693E-03  5.57700364E-03  5.77491800E-06
  7.05833508E-06  3.44241352E-05 -4.72049793E-05 -2.39490085E-03 -5.14281964E-05
 -2.19539094E-03 -1.24630139E-04 -2.10317024E-03  7.02490025E-01  3.20484986E-02
  4.49002375E-05 -3.19258600E-05  4.61880450E-05 -1.38252514E-02 -2.13624968E-04
  1.07227945E-03 -8.91946663E-04 -1.08816197E-02 -5.27233673E-04  1.70065652E-03
 -1.97138647E-03 -5.50569346E-03 -5.54636799E-03 -5.52084037E-03  1.23973156E-06
 -3.34916116E-06  7.81741352E-05  7.17597446E-05  2.24802153E-03  4.03346823E-05
  2.73495777E-03  1.33556022E-04  2.39244700E-03 -1.56775781E-02 -1.04856194E-03
 -1.72091055E-05  1.16838127E-04  1.18859650E-04  4.49933204E-03 -4.74658512E-04
  9.68435013E-04 -1.91537567E-03  1.09036539E-02  9.37123737E-04  1.71938227E-03
 -2.77144366E-03 -7.08876885E-05 -1.29749178E-04 -1.32799746E-04  8.66026913E-07
  2.57446673E-05  8.04823319E-05 -1.14019636E-04 -1.26770441E-03 -6.84809149E-05
 -2.93570273E-04 -1.56775781E-02 -1.04856194E-03  1.72091055E-05 -1.16838127E-04
  1.18859650E-04  4.49933204E-03  4.74658512E-04 -9.68435013E-04 -1.91537567E-03
  1.09036539E-02 -9.37123737E-04 -1.71938227E-03 -2.77144366E-03 -7.08876885E-05
 -1.29749178E-04 -1.32799746E-04  8.66026913E-07 -2.57446673E-05 -8.04823319E-05
 -1.14019636E-04 -1.26770441E-03 -6.84809149E-05 -2.93570273E-04  7.02490025E-01
  3.20484986E-02 -4.49002375E-05  3.19258600E-05  4.61880450E-05 -1.38252514E-02
  2.13624968E-04 -1.07227945E-03 -8.91946663E-04 -1.08816197E-02  5.27233673E-04
 -1.70065652E-03 -1.97138647E-03 -5.50569346E-03 -5.54636799E-03 -5.52084037E-03
  1.23973156E-06  3.34916116E-06 -7.81741352E-05  7.17597446E-05  2.24802153E-03
  1.33556022E-04  2.39244700E-03  4.03346823E-05  2.73495777E-03 -8.43005871E-02
  1.55816879E-01  5.49340837E-03 -3.29415820E-02  3.38791824E-02  1.33499784E-01
  3.56998780E-03 -2.77640542E-03  1.51565095E-03 -2.52310423E-02 -7.96123755E-04
  4.01641209E-03 -5.69948372E-03 -1.42533138E-03  1.02689975E-03  1.89821028E-03
 -2.34735446E-04  4.15532797E-04 -3.27267738E-03  4.19497961E-02  2.19266860E-03
  4.65779833E-02  1.88709020E-03  4.59761653E-02 -3.98215549E-04 -1.25130176E-01
  2.31448762E-01  3.19239309E-02 -1.38980344E-02 -2.23810977E-02  1.98396869E-01
 -1.70361571E-04 -2.66152457E-03 -1.14603043E-03  4.40107376E-02  4.44193862E-03
  6.28549721E-03 -9.79443891E-03 -2.00700175E-04 -9.45506680E-05 -1.67269865E-03
 -2.44877424E-03 -2.34240970E-04 -7.47169116E-04  6.68022442E-02 -2.62363472E-03
  6.50595823E-02 -1.19694550E-03 -1.25130176E-01  2.31448762E-01 -3.19239309E-02
  1.38980344E-02 -2.23810977E-02  1.98396869E-01  1.70361571E-04  2.66152457E-03
 -1.14603043E-03  4.40107376E-02 -4.44193862E-03 -6.28549721E-03 -9.79443891E-03
 -2.00700175E-04 -9.45506680E-05 -1.67269865E-03 -2.44877424E-03  2.34240970E-04
  7.47169116E-04  6.68022442E-02 -2.62363472E-03  6.50595823E-02 -1.19694550E-03
 -8.43005871E-02  1.55816879E-01 -5.49340837E-03  3.29415820E-02  3.38791824E-02
  1.33499784E-01 -3.56998780E-03  2.77640542E-03  1.51565095E-03 -2.52310423E-02
  7.96123755E-04 -4.01641209E-03 -5.69948372E-03 -1.42533138E-03  1.02689975E-03
  1.89821028E-03 -2.34735446E-04 -4.15532797E-04  3.27267738E-03  4.19497961E-02
  2.19266860E-03  4.59761653E-02 -3.98215549E-04  4.65779833E-02  1.88709020E-03
 -1.26393786E-01  2.36575963E-01 -6.49728477E-03 -6.41514414E-03  2.18303957E-02
  2.32310490E-01 -1.89566361E-03  3.03587791E-03 -3.18828886E-04  6.87113609E-02
 -1.17664825E-04 -1.19268396E-02  1.19139442E-02  3.59939560E-04 -2.62677631E-04
  8.41738676E-04  1.92870771E-04 -2.85851337E-04 -2.68623801E-04  8.31754892E-02
  1.04316897E-02  7.51078214E-02  6.32596069E-03  7.78014350E-02  8.27560649E-03
 -7.41512388E-02  1.39549792E-01 -3.52452241E-02  7.29848337E-02 -3.73599993E-02
  1.34115635E-01 -9.37665445E-03  1.56887243E-02 -5.13861114E-03  2.60215080E-02
  1.62886266E-02 -2.17527811E-02  1.26135095E-02 -4.92299532E-03 -1.25993776E-03
  4.34143909E-03  5.04571306E-03  4.96018730E-04 -4.16456135E-03  4.41026218E-02
  4.30318099E-03  5.04886587E-02  6.58346955E-03  7.41512388E-02 -1.39549792E-01
 -3.52452241E-02  7.29848337E-02  3.73599993E-02 -1.34115635E-01 -9.37665445E-03
  1.56887243E-02  5.13861114E-03 -2.60215080E-02  1.62886266E-02 -2.17527811E-02
 -1.26135095E-02  4.92299532E-03  1.25993776E-03 -4.34143909E-03 -5.04571306E-03
  4.96018730E-04 -4.16456135E-03 -4.41026218E-02 -4.30318099E-03 -5.04886587E-02
 -6.58346955E-03  1.26393786E-01 -2.36575963E-01 -6.49728477E-03 -6.41514414E-03
 -2.18303957E-02 -2.32310490E-01 -1.89566361E-03  3.03587791E-03  3.18828886E-04
 -6.87113609E-02 -1.17664825E-04 -1.19268396E-02 -1.19139442E-02 -3.59939560E-04
  2.62677631E-04 -8.41738676E-04 -1.92870771E-04 -2.85851337E-04 -2.68623801E-04
 -8.31754892E-02 -1.04316897E-02 -7.78014350E-02 -8.27560649E-03 -7.51078214E-02
 -6.32596069E-03 -1.08113812E-01  2.05532971E-01 -6.11140181E-03  4.13616093E-02
 -6.08467177E-02  2.29576975E-01  1.84752763E-03  1.12332105E-02 -1.97218142E-02
  1.01829379E-01  2.25086164E-03 -1.53035219E-02  2.04619608E-02  3.73329288E-03
 -4.95836589E-04 -3.40972221E-03  6.16980430E-05 -3.39576845E-04  7.39799865E-03
  8.94091810E-02  2.61839657E-02  9.38026834E-02  2.62209518E-02  8.52208336E-02
  1.94385217E-02  7.77997191E-02 -1.49617997E-01 -3.46029564E-02  7.29274134E-02
 -9.05914261E-02 -1.59916902E-01 -6.88972982E-03  1.66429177E-02 -2.89371921E-02
 -9.69797870E-02 -2.56247321E-03 -1.58368984E-02  1.79199624E-02 -4.50757844E-03
  1.80400964E-03  5.47101794E-03  1.44770926E-03 -1.00953410E-03 -7.16530144E-03
 -5.87043675E-02 -1.33622628E-02 -7.18971474E-02 -1.55994659E-02  7.77997191E-02
 -1.49617997E-01  3.46029564E-02 -7.29274134E-02 -9.05914261E-02 -1.59916902E-01
  6.88972982E-03 -1.66429177E-02 -2.89371921E-02 -9.69797870E-02  2.56247321E-03
  1.58368984E-02  1.79199624E-02 -4.50757844E-03  1.80400964E-03  5.47101794E-03
  1.44770926E-03  1.00953410E-03  7.16530144E-03 -5.87043675E-02 -1.33622628E-02
 -7.18971474E-02 -1.55994659E-02 -1.08113812E-01  2.05532971E-01  6.11140181E-03
 -4.13616093E-02 -6.08467177E-02  2.29576975E-01 -1.84752763E-03 -1.12332105E-02
 -1.97218142E-02  1.01829379E-01 -2.25086164E-03  1.53035219E-02  2.04619608E-02
  3.73329288E-03 -4.95836589E-04 -3.40972221E-03  6.16980430E-05  3.39576845E-04
 -7.39799865E-03  8.94091810E-02  2.61839657E-02  8.52208336E-02  1.94385217E-02
  9.38026834E-02  2.62209518E-02  5.81356051E-02 -1.11743719E-01 -3.63820242E-02
 -6.98268447E-02  9.84914036E-02 -1.45124678E-01 -1.46069075E-02 -2.06753334E-02
  3.36946881E-02 -1.12268257E-01  2.03802385E-04  2.00891254E-02 -1.72556358E-02
 -5.82755202E-03  6.58256108E-04  4.96128000E-03  2.44348063E-05 -1.79758822E-03
 -7.90887958E-03 -5.25456548E-02 -1.98022938E-02 -6.56560691E-02 -2.02917516E-02
 -8.23941702E-02 -3.19323815E-02 -1.02367039E-01  2.00335756E-01 -1.24167291E-01
  1.13681105E-02  5.65387952E-02  2.41772325E-01 -4.78156819E-02  1.84604313E-04
  1.90087748E-02  1.67731503E-01  7.76813347E-03  5.27192064E-03 -2.70477724E-02
 -1.96459177E-03 -2.42885019E-03 -2.89840087E-04  1.06160013E-02 -1.25947613E-04
  7.99903954E-03  1.30449092E-01  4.82612151E-02  1.04339571E-01  4.18709560E-02
  1.02367039E-01 -2.00335756E-01 -1.24167291E-01  1.13681105E-02 -5.65387952E-02
 -2.41772325E-01 -4.78156819E-02  1.84604313E-04 -1.90087748E-02 -1.67731503E-01
  7.76813347E-03  5.27192064E-03  2.70477724E-02  1.96459177E-03  2.42885019E-03
  2.89840087E-04 -1.06160013E-02 -1.25947613E-04  7.99903954E-03 -1.30449092E-01
 -4.82612151E-02 -1.04339571E-01 -4.18709560E-02 -5.81356051E-02  1.11743719E-01
 -3.63820242E-02 -6.98268447E-02 -9.84914036E-02  1.45124678E-01 -1.46069075E-02
 -2.06753334E-02 -3.36946881E-02  1.12268257E-01  2.03802385E-04  2.00891254E-02
  1.72556358E-02  5.82755202E-03 -6.58256108E-04 -4.96128000E-03 -2.44348063E-05
 -1.79758822E-03 -7.90887958E-03  5.25456548E-02  1.98022938E-02  8.23941702E-02
  3.19323815E-02  6.56560691E-02  2.02917516E-02  1.20268468E-02 -2.28299987E-02
  1.37029017E-01  3.46851175E-02  1.35971253E-01 -3.78942842E-02  6.64931392E-02
  1.30990834E-02  5.81899484E-02 -7.02260643E-03  5.10423226E-03 -2.03513133E-03
  3.25273592E-03  3.31419049E-03 -4.02620474E-03 -1.15032795E-03  2.95017793E-03
  9.49045978E-04 -6.84076899E-03 -4.84414149E-02 -2.53753799E-02 -9.69808112E-02
 -5.76646157E-02  6.51229019E-02  4.31206627E-02 -1.73497693E-02  3.64715922E-02
  1.44136188E-01  1.93444436E-01  6.44027823E-02  3.78611447E-02  6.75871754E-02
  9.47726836E-02  3.92911344E-02 -2.34001358E-04  5.75797733E-03  1.10459209E-02
  7.56483428E-03 -5.90797630E-03 -2.89262316E-03  6.40158554E-03 -2.29600192E-03
 -2.53999062E-03  5.90731282E-03 -1.12729687E-01 -6.77706697E-02  1.09949288E-01
  6.10678427E-02  1.73497693E-02 -3.64715922E-02  1.44136188E-01  1.93444436E-01
 -6.44027823E-02 -3.78611447E-02  6.75871754E-02  9.47726836E-02 -3.92911344E-02
  2.34001358E-04  5.75797733E-03  1.10459209E-02 -7.56483428E-03  5.90797630E-03
  2.89262316E-03 -6.40158554E-03  2.29600192E-03 -2.53999062E-03  5.90731282E-03
  1.12729687E-01  6.77706697E-02 -1.09949288E-01 -6.10678427E-02 -1.20268468E-02
  2.28299987E-02  1.37029017E-01  3.46851175E-02 -1.35971253E-01  3.78942842E-02
  6.64931392E-02  1.30990834E-02 -5.81899484E-02  7.02260643E-03  5.10423226E-03
 -2.03513133E-03 -3.25273592E-03 -3.31419049E-03  4.02620474E-03  1.15032795E-03
 -2.95017793E-03  9.49045978E-04 -6.84076899E-03  4.84414149E-02  2.53753799E-02
 -6.51229019E-02 -4.31206627E-02  9.69808112E-02  5.76646157E-02 -1.01764637E-02
  1.93827573E-02 -8.67527602E-02  1.95413013E-01  7.11182989E-02  3.12637470E-02
 -4.81372094E-02  9.35750443E-02  3.67481078E-02  1.49514537E-02 -4.97359497E-03
  6.47056169E-03  3.97495088E-03  7.34007084E-03 -1.25745424E-03 -4.03734155E-03
 -5.76441788E-03 -3.59720336E-03 -7.27664043E-04  1.26160531E-01  7.25792592E-02
 -7.90045185E-02 -5.18983645E-02  1.69425172E-02  1.29149989E-02  7.77234545E-03
 -1.89801733E-02 -8.06703087E-02  1.32733079E-01  1.79847089E-01 -6.74553940E-03
 -2.87462985E-02  6.17603813E-02  8.48581160E-02 -5.15589594E-03 -3.44509072E-03
  5.16772726E-03  1.03703262E-02 -4.28815048E-03  5.06958704E-03  4.69890369E-03
  1.52954882E-03  4.63438911E-03  3.29297468E-03 -5.03005017E-03 -8.09248522E-05
  1.19888140E-01  7.30182560E-02  7.77234545E-03 -1.89801733E-02  8.06703087E-02
 -1.32733079E-01  1.79847089E-01 -6.74553940E-03  2.87462985E-02 -6.17603813E-02
  8.48581160E-02 -5.15589594E-03  3.44509072E-03 -5.16772726E-03  1.03703262E-02
 -4.28815048E-03  5.06958704E-03  4.69890369E-03  1.52954882E-03 -4.63438911E-03
 -3.29297468E-03 -5.03005017E-03 -8.09248522E-05  1.19888140E-01  7.30182560E-02
 -1.01764637E-02  1.93827573E-02  8.67527602E-02 -1.95413013E-01  7.11182989E-02
  3.12637470E-02  4.81372094E-02 -9.35750443E-02  3.67481078E-02  1.49514537E-02
  4.97359497E-03 -6.47056169E-03  3.97495088E-03  7.34007084E-03 -1.25745424E-03
 -4.03734155E-03 -5.76441788E-03  3.59720336E-03  7.27664043E-04  1.26160531E-01
  7.25792592E-02  1.69425172E-02  1.29149989E-02 -7.90045185E-02 -5.18983645E-02
 -3.76273407E-03  6.13315151E-03  2.47409963E-01  9.94731032E-02 -1.76584068E-03
  1.90670113E-02  1.21394346E-01  4.85875294E-02  3.61786211E-03  3.20804161E-02
  1.30095839E-02  1.84438396E-03  6.43071897E-03  8.59021259E-03 -2.34517325E-03
 -4.86953729E-03  1.02229941E-02  1.65559954E-03 -1.92790701E-03 -6.61286739E-02
 -4.84835767E-02 -4.71594760E-02 -3.45578343E-02  1.64117039E-01  1.11084168E-01
  3.79378101E-03 -5.87793778E-03  1.90866734E-01 -1.01099583E-02  7.74282445E-02
 -2.14432023E-02  9.33961557E-02 -2.41591508E-05  3.64157735E-02 -3.24959803E-02
  1.15226719E-02 -7.03016183E-03  9.06258728E-03 -7.16076731E-03  4.12248632E-03
  1.09549901E-03 -4.57842569E-03 -2.64685573E-03  2.06353635E-03 -9.66342129E-02
 -6.05993444E-02  3.70487902E-02  2.70567836E-02  3.79378101E-03 -5.87793778E-03
 -1.90866734E-01  1.01099583E-02  7.74282445E-02 -2.14432023E-02 -9.33961557E-02
  2.41591508E-05  3.64157735E-02 -3.24959803E-02 -1.15226719E-02  7.03016183E-03
  9.06258728E-03 -7.16076731E-03  4.12248632E-03  1.09549901E-03 -4.57842569E-03
  2.64685573E-03 -2.06353635E-03 -9.66342129E-02 -6.05993444E-02  3.70487902E-02
  2.70567836E-02 -3.76273407E-03  6.13315151E-03 -2.47409963E-01 -9.94731032E-02
 -1.76584068E-03  1.90670113E-02 -1.21394346E-01 -4.85875294E-02  3.61786211E-03
  3.20804161E-02 -1.30095839E-02 -1.84438396E-03  6.43071897E-03  8.59021259E-03
 -2.34517325E-03 -4.86953729E-03  1.02229941E-02 -1.65559954E-03  1.92790701E-03
 -6.61286739E-02 -4.84835767E-02  1.64117039E-01  1.11084168E-01 -4.71594760E-02
 -3.45578343E-02 -7.71012659E-03  2.14460180E-02  3.09069340E-02  7.97964355E-04
  2.83197172E-01 -8.03806172E-04  1.19099117E-02  1.63349596E-02  1.33828650E-01
 -7.67629232E-02 -3.91645039E-04  1.44294511E-02  5.02012301E-03  2.34263008E-03
  1.54819750E-03 -8.47589450E-03 -1.41840611E-03 -2.50351429E-03 -1.38239655E-02
  9.93644124E-03  5.53319785E-03 -1.60057941E-01 -1.27834802E-01  1.39136944E-02
  1.23838992E-02 -9.98859673E-03  2.15470275E-02 -1.16090889E-02  9.61581699E-02
 -2.22702576E-01  2.90238340E-02 -3.73334232E-03  4.46557243E-02 -1.15343649E-01
  6.02638492E-02  1.16362633E-03  1.73568309E-02 -3.08210069E-02 -3.25901456E-03
  4.09397388E-03 -5.41783738E-03 -2.37184369E-04 -4.47747196E-03 -7.25492500E-03
 -1.80381062E-02 -1.53089059E-02 -7.94070568E-02 -6.39809711E-02 -9.98859673E-03
  2.15470275E-02  1.16090889E-02 -9.61581699E-02 -2.22702576E-01  2.90238340E-02
  3.73334232E-03 -4.46557243E-02 -1.15343649E-01  6.02638492E-02 -1.16362633E-03
 -1.73568309E-02 -3.08210069E-02 -3.25901456E-03  4.09397388E-03 -5.41783738E-03
 -2.37184369E-04  4.47747196E-03  7.25492500E-03 -1.80381062E-02 -1.53089059E-02
 -7.94070568E-02 -6.39809711E-02 -7.71012659E-03  2.14460180E-02 -3.09069340E-02
 -7.97964355E-04  2.83197172E-01 -8.03806172E-04 -1.19099117E-02 -1.63349596E-02
  1.33828650E-01 -7.67629232E-02  3.91645039E-04 -1.44294511E-02  5.02012301E-03
  2.34263008E-03  1.54819750E-03 -8.47589450E-03 -1.41840611E-03  2.50351429E-03
  1.38239655E-02  9.93644124E-03  5.53319785E-03  1.39136944E-02  1.23838992E-02
 -1.60057941E-01 -1.27834802E-01  7.01346711E-03 -1.47976319E-02 -2.09593553E-01
  2.22113228E-01  9.51271177E-02 -1.92022304E-02 -1.05120911E-01  1.12480183E-01
  5.42079945E-02 -1.04054910E-02 -1.74163399E-02  2.17564709E-02  8.20432378E-03
  6.64589675E-03  4.77031378E-03 -9.94535374E-03 -1.77789381E-02 -2.75150881E-03
 -1.64249446E-03  1.99286791E-01  1.57557006E-01 -1.05692271E-01 -7.16752266E-02
 -5.99959341E-02 -4.47117668E-02  2.07754712E-02 -3.96052497E-02  4.12179079E-03
  1.56954253E-02  6.64256555E-02 -8.04825536E-02 -1.23154300E-02  1.98931562E-02
  2.73472825E-02 -9.48861165E-02 -1.72466138E-02  1.50367302E-02  6.27499478E-03
  2.61571049E-04  5.60502035E-03 -2.95401868E-03 -6.26257361E-03  2.14404040E-03
  3.70856957E-03 -2.61465373E-02 -1.65519213E-02  2.20782824E-02  2.33657501E-02
 -2.07754712E-02  3.96052497E-02  4.12179079E-03  1.56954253E-02 -6.64256555E-02
  8.04825536E-02 -1.23154300E-02  1.98931562E-02 -2.73472825E-02  9.48861165E-02
 -1.72466138E-02  1.50367302E-02 -6.27499478E-03 -2.61571049E-04 -5.60502035E-03
  2.95401868E-03  6.26257361E-03  2.14404040E-03  3.70856957E-03  2.61465373E-02
  1.65519213E-02 -2.20782824E-02 -2.33657501E-02 -7.01346711E-03  1.47976319E-02
 -2.09593553E-01  2.22113228E-01 -9.51271177E-02  1.92022304E-02 -1.05120911E-01
  1.12480183E-01 -5.42079945E-02  1.04054910E-02 -1.74163399E-02  2.17564709E-02
 -8.20432378E-03 -6.64589675E-03 -4.77031378E-03  9.94535374E-03  1.77789381E-02
 -2.75150881E-03 -1.64249446E-03 -1.99286791E-01 -1.57557006E-01  5.99959341E-02
  4.47117668E-02  1.05692271E-01  7.16752266E-02  7.85847675E-03 -2.03176382E-02
  1.84777473E-01  2.14061187E-01 -2.92202525E-02 -6.30299258E-03  1.06685087E-01
  1.05764678E-01 -9.56777591E-03  5.03502621E-02  2.25473832E-02  7.56498280E-03
  7.71696163E-03  1.38457992E-02  1.13341158E-03 -1.16576761E-02  1.06872491E-02
 -4.94155698E-03 -2.38652275E-03 -3.10959700E-03 -5.74410908E-04 -8.08540884E-02
 -6.94932357E-02  1.73760488E-01  1.38243964E-01  2.09605842E-03 -6.29683348E-03
 -1.11180727E-01 -1.50676116E-01  9.20540308E-02 -1.00508833E-03 -6.51698653E-02
 -7.81487581E-02  5.02857675E-02 -1.81433390E-02 -1.33776374E-02 -1.91126440E-02
  1.39308841E-02  5.31409012E-03  5.98258335E-03 -7.84637380E-03  8.46907722E-03
 -5.52173413E-03  2.71763352E-03  1.12670932E-01  8.68200111E-02 -8.02145052E-03
 -1.02684163E-02 -2.09605842E-03  6.29683348E-03 -1.11180727E-01 -1.50676116E-01
 -9.20540308E-02  1.00508833E-03 -6.51698653E-02 -7.81487581E-02 -5.02857675E-02
  1.81433390E-02 -1.33776374E-02 -1.91126440E-02 -1.39308841E-02 -5.31409012E-03
 -5.98258335E-03  7.84637380E-03 -8.46907722E-03 -5.52173413E-03  2.71763352E-03
 -1.12670932E-01 -8.68200111E-02  8.02145052E-03  1.02684163E-02 -7.85847675E-03
  2.03176382E-02  1.84777473E-01  2.14061187E-01  2.92202525E-02  6.30299258E-03
  1.06685087E-01  1.05764678E-01  9.56777591E-03 -5.03502621E-02  2.25473832E-02
  7.56498280E-03 -7.71696163E-03 -1.38457992E-02 -1.13341158E-03  1.16576761E-02
 -1.06872491E-02 -4.94155698E-03 -2.38652275E-03  3.10959700E-03  5.74410908E-04
 -1.73760488E-01 -1.38243964E-01  8.08540884E-02  6.94932357E-02 -1.19778759E-02
  2.36024873E-02 -8.86906807E-02 -1.55082143E-01  4.28774295E-02  4.83481267E-02
 -4.04794575E-02 -8.87670911E-02  2.47021165E-02  1.24023386E-02 -8.06995567E-03
 -2.12010841E-02  2.98160050E-04 -1.21198431E-02 -3.35415665E-03  1.13573295E-02
 -7.74550853E-03  4.77099755E-03  2.58345861E-03 -1.44235724E-02 -8.30808880E-03
  5.72388124E-02  5.91966159E-02 -1.10382978E-01 -1.16906668E-01 -5.89819159E-03
  1.65632709E-02  1.90106206E-01  2.01112059E-01  7.26896288E-03  8.82506477E-03
  1.00531429E-01  1.03631508E-01  1.43520580E-02 -3.26978679E-02  2.32330956E-02
  3.43475293E-02  1.30634892E-02 -2.20017720E-02  4.10813254E-03  1.52052708E-02
 -1.53382496E-02  2.29795598E-03  3.41468166E-03 -1.94828035E-01 -1.89661781E-01
  9.71040553E-02  9.52163411E-02 -5.89819159E-03  1.65632709E-02 -1.90106206E-01
 -2.01112059E-01  7.26896288E-03  8.82506477E-03 -1.00531429E-01 -1.03631508E-01
  1.43520580E-02 -3.26978679E-02 -2.32330956E-02 -3.43475293E-02  1.30634892E-02
 -2.20017720E-02  4.10813254E-03  1.52052708E-02 -1.53382496E-02 -2.29795598E-03
 -3.41468166E-03 -1.94828035E-01 -1.89661781E-01  9.71040553E-02  9.52163411E-02
 -1.19778759E-02  2.36024873E-02  8.86906807E-02  1.55082143E-01  4.28774295E-02
  4.83481267E-02  4.04794575E-02  8.87670911E-02  2.47021165E-02  1.24023386E-02
  8.06995567E-03  2.12010841E-02  2.98160050E-04 -1.21198431E-02 -3.35415665E-03
  1.13573295E-02 -7.74550853E-03 -4.77099755E-03 -2.58345861E-03 -1.44235724E-02
 -8.30808880E-03 -1.10382978E-01 -1.16906668E-01  5.72388124E-02  5.91966159E-02
  1.75228763E-02 -3.72504897E-02 -3.88080855E-02  3.48702642E-02 -2.53134321E-01
 -6.08366059E-02 -2.13124753E-02  2.25608875E-02 -1.41139287E-01  1.93368863E-02
 -1.02519516E-02 -4.39750965E-03 -2.22920533E-02 -1.43637386E-03 -2.90808411E-03
  1.02899301E-02 -1.31784993E-03  3.02321800E-03  1.27108070E-02  3.47461535E-03
  2.92659798E-03  1.28475129E-01  1.20412662E-01 -2.01484380E-02 -2.06489892E-02
  3.34679772E-03 -1.39435074E-02  2.91683326E-02  1.51263845E-02  2.72286473E-01
  1.97990658E-02  2.04447009E-02  1.68022589E-02  1.36257749E-01  4.30145958E-02
  1.63581718E-02 -7.63277451E-04  4.68919148E-02 -2.80373735E-03 -2.67474171E-03
  9.17093870E-03 -1.40674019E-03 -3.35961717E-03  2.17323304E-02 -2.52192418E-02
 -2.26386543E-02  1.72265436E-01  1.60476337E-01 -3.34679772E-03  1.39435074E-02
  2.91683326E-02  1.51263845E-02 -2.72286473E-01 -1.97990658E-02  2.04447009E-02
  1.68022589E-02 -1.36257749E-01 -4.30145958E-02  1.63581718E-02 -7.63277451E-04
 -4.68919148E-02  2.80373735E-03  2.67474171E-03 -9.17093870E-03  1.40674019E-03
 -3.35961717E-03  2.17323304E-02  2.52192418E-02  2.26386543E-02 -1.72265436E-01
 -1.60476337E-01 -1.75228763E-02  3.72504897E-02 -3.88080855E-02  3.48702642E-02
  2.53134321E-01  6.08366059E-02 -2.13124753E-02  2.25608875E-02  1.41139287E-01
 -1.93368863E-02 -1.02519516E-02 -4.39750965E-03  2.22920533E-02  1.43637386E-03
  2.90808411E-03 -1.02899301E-02  1.31784993E-03  3.02321800E-03  1.27108070E-02
 -3.47461535E-03 -2.92659798E-03  2.01484380E-02  2.06489892E-02 -1.28475129E-01
 -1.20412662E-01  4.01791122E-03 -8.98828843E-03 -1.49425407E-01  1.35850937E-01
 -1.59876817E-02 -7.88205450E-03 -8.72226134E-02  7.71446718E-02 -9.86363931E-03
 -1.32415169E-03 -2.86416847E-02  2.18026090E-02 -2.18926641E-04  3.85569220E-03
  7.64849518E-03 -9.05998681E-03 -1.69923812E-02  3.64411523E-03 -1.24797506E-03
  1.46076995E-01  1.34067140E-01 -3.79847062E-02 -4.08513936E-02 -5.51241171E-02
 -5.03902892E-02 -1.71834783E-02  3.89618874E-02  2.49795214E-01 -2.33082594E-01
 -3.04924417E-02  5.01550627E-02  1.31233450E-01 -1.16563318E-01 -2.18464753E-02
 -9.75740733E-03  2.66593045E-02 -2.64679297E-02 -6.93099114E-03  4.55093678E-03
  1.10137429E-03 -1.17279231E-02 -1.37175881E-02  1.97043405E-03 -3.80932562E-03
 -5.35768866E-02 -5.21463268E-02 -8.78367364E-02 -8.27794704E-02 -1.71834783E-02
  3.89618874E-02 -2.49795214E-01  2.33082594E-01 -3.04924417E-02  5.01550627E-02
 -1.31233450E-01  1.16563318E-01 -2.18464753E-02 -9.75740733E-03 -2.66593045E-02
  2.64679297E-02 -6.93099114E-03  4.55093678E-03  1.10137429E-03 -1.17279231E-02
 -1.37175881E-02 -1.97043405E-03  3.80932562E-03 -5.35768866E-02 -5.21463268E-02
 -8.78367364E-02 -8.27794704E-02  4.01791122E-03 -8.98828843E-03  1.49425407E-01
 -1.35850937E-01 -1.59876817E-02 -7.88205450E-03  8.72226134E-02 -7.71446718E-02
 -9.86363931E-03 -1.32415169E-03  2.86416847E-02 -2.18026090E-02 -2.18926641E-04
  3.85569220E-03  7.64849518E-03 -9.05998681E-03 -1.69923812E-02 -3.64411523E-03
  1.24797506E-03  1.46076995E-01  1.34067140E-01 -5.51241171E-02 -5.03902892E-02
 -3.79847062E-02 -4.08513936E-02  3.71340525E-02 -8.38025149E-02 -6.18892839E-03
 -4.13187805E-02  4.77140649E-02 -2.18545364E-01  1.16761725E-02 -1.00819960E-01
  1.05293631E-01  3.78146558E+00  2.38443109E-01 -4.10762947E-01  6.49639058E-01
 -1.99563259E-03  1.33333102E-03 -3.48203416E-03 -3.24258697E-03  1.38524656E-03
  1.89978132E-04  1.92188734E-02 -2.77398636E-02 -3.33787915E-03 -5.20629027E-02
 -8.11496703E-03 -8.03880731E-02  2.82954083E-02 -4.84488366E-02  6.86707036E-02
 -5.73753219E-03 -7.59385643E-02 -3.01440512E-01  1.16417794E-01 -4.33846075E-02
 -7.35560540E-02 -2.84754350E+00 -6.15896776E-01 -7.13150988E-01  1.02840678E+00
 -2.22207319E-03 -4.30122047E-04 -8.91068476E-04 -1.34277593E-03 -2.77470701E-03
  4.80212502E-03 -1.43645810E-02  4.71730850E-02  7.00289983E-03  7.80181605E-02
  2.82954083E-02 -4.84488366E-02 -6.86707036E-02  5.73753219E-03 -7.59385643E-02
 -3.01440512E-01 -1.16417794E-01  4.33846075E-02 -7.35560540E-02 -2.84754350E+00
  6.15896776E-01  7.13150988E-01  1.02840678E+00 -2.22207319E-03 -4.30122047E-04
 -8.91068476E-04 -1.34277593E-03  2.77470701E-03 -4.80212502E-03 -1.43645810E-02
  4.71730850E-02  7.00289983E-03  7.80181605E-02  3.71340525E-02 -8.38025149E-02
  6.18892839E-03  4.13187805E-02  4.77140649E-02 -2.18545364E-01 -1.16761725E-02
  1.00819960E-01  1.05293631E-01  3.78146558E+00 -2.38443109E-01  4.10762947E-01
  6.49639058E-01 -1.99563259E-03  1.33333102E-03 -3.48203416E-03 -3.24258697E-03
 -1.38524656E-03 -1.89978132E-04  1.92188734E-02 -2.77398636E-02 -8.11496703E-03
 -8.03880731E-02 -3.33787915E-03 -5.20629027E-02  3.58976926E-02 -6.08560598E-02
  7.52501099E-03  1.76309245E-02  5.27829460E-02 -3.14607831E-01 -1.42764461E-02
  8.83306497E-02  4.40380188E-02 -5.35981657E+00 -1.01129596E-01  1.15118832E+00
 -1.81476314E+00 -1.72397575E-03 -1.88339562E-03  5.48957048E-03  9.76580282E-04
 -1.84473411E-03 -6.79616027E-03 -1.22946043E-02 -3.35334305E-02 -4.14182633E-04
  8.99052263E-04  5.03616416E-04 -3.57143810E-03 -2.59035907E-02  6.36044129E-02
 -1.56220624E-02  5.25799754E-02  2.45275814E-02  1.84462903E-01 -4.57233948E-02
  9.53980561E-02  4.16894404E-02  5.65160585E+00  2.53382849E-01  1.36731537E+00
 -1.62527175E+00  3.02427791E-03  5.06555175E-03 -2.96529882E-03 -1.52397959E-03
  1.18972146E-03  4.12041780E-03  1.67544238E-03 -1.11155306E-01  4.31686201E-03
 -9.29742545E-02 -2.59035907E-02  6.36044129E-02  1.56220624E-02 -5.25799754E-02
  2.45275814E-02  1.84462903E-01  4.57233948E-02 -9.53980561E-02  4.16894404E-02
  5.65160585E+00 -2.53382849E-01 -1.36731537E+00 -1.62527175E+00  3.02427791E-03
  5.06555175E-03 -2.96529882E-03 -1.52397959E-03 -1.18972146E-03 -4.12041780E-03
  1.67544238E-03 -1.11155306E-01  4.31686201E-03 -9.29742545E-02  3.58976926E-02
 -6.08560598E-02 -7.52501099E-03 -1.76309245E-02  5.27829460E-02 -3.14607831E-01
  1.42764461E-02 -8.83306497E-02  4.40380188E-02 -5.35981657E+00  1.01129596E-01
 -1.15118832E+00 -1.81476314E+00 -1.72397575E-03 -1.88339562E-03  5.48957048E-03
  9.76580282E-04  1.84473411E-03  6.79616027E-03 -1.22946043E-02 -3.35334305E-02
  5.03616416E-04 -3.57143810E-03 -4.14182633E-04  8.99052263E-04 -3.42738873E-02
  7.52246407E-02 -3.54263734E-02  8.50674047E-02 -1.26910786E-02  2.44188378E-01
  4.15080859E-02  1.09645762E-01 -4.27667645E-02  3.12618073E+00  2.55026515E-01
 -1.19618375E+00  9.12643763E-01  4.53996773E-03  4.27760800E-04 -5.91471788E-04
 -3.13139694E-03  1.79307748E-04  2.12953783E-03  1.62315639E-02  8.66467564E-02
 -8.47357563E-04 -8.54744567E-02 -1.38159150E-03 -1.54028397E-01 -9.74206864E-03
  2.02666436E-02  1.94520519E-03  2.77845880E-03  6.97386192E-02  8.02207860E-02
 -3.99440227E-02 -8.25887889E-03  5.81225645E-02  2.10734544E+00  1.38412935E+00
 -1.90128091E+00  5.73629037E-01 -4.20126005E-03  2.95112254E-03  3.61633720E-03
  2.01610445E-03 -1.07307603E-03 -5.92839467E-04 -2.96423795E-03 -8.73875057E-02
  1.42406862E-02  3.36491203E-02  9.74206864E-03 -2.02666436E-02  1.94520519E-03
  2.77845880E-03 -6.97386192E-02 -8.02207860E-02 -3.99440227E-02 -8.25887889E-03
 -5.81225645E-02 -2.10734544E+00  1.38412935E+00 -1.90128091E+00 -5.73629037E-01
  4.20126005E-03 -2.95112254E-03 -3.61633720E-03 -2.01610445E-03 -1.07307603E-03
 -5.92839467E-04  2.96423795E-03  8.73875057E-02 -1.42406862E-02 -3.36491203E-02
  3.42738873E-02 -7.52246407E-02 -3.54263734E-02  8.50674047E-02  1.26910786E-02
 -2.44188378E-01  4.15080859E-02  1.09645762E-01  4.27667645E-02 -3.12618073E+00
  2.55026515E-01 -1.19618375E+00 -9.12643763E-01 -4.53996773E-03 -4.27760800E-04
  5.91471788E-04  3.13139694E-03  1.79307748E-04  2.12953783E-03 -1.62315639E-02
 -8.66467564E-02  1.38159150E-03  1.54028397E-01  8.47357563E-04  8.54744567E-02
  1.08396774E-02 -1.72961517E-02 -8.84941213E-02 -1.83295097E-02 -1.29767316E-02
 -1.04451419E-01 -1.15004065E-01 -2.13237130E-03 -2.89508803E-02 -3.14369216E+00
  3.58324690E-01  9.08235167E-01 -6.89492884E-01 -5.46323218E-03  3.74072449E-03
  3.07647591E-03 -1.05426313E-03 -2.04953273E-03 -2.47227687E-03  9.45338879E-04
  2.90042577E-02 -1.72727472E-03  3.12365509E-02 -7.51579439E-03 -5.49439851E-02
 -2.71965085E-02  5.57772941E-02 -7.13087940E-02 -4.55300678E-02 -1.28355599E-02
  2.12727784E-01 -1.11302227E-01 -9.94725016E-02 -6.03338935E-02  6.11829485E+00
  1.00864162E+00 -1.18066307E-02 -1.41645517E+00 -2.25520194E-03  2.65142210E-03
  6.25781002E-04  2.58682545E-03  5.60209003E-03  3.20015515E-03 -8.45239837E-03
 -6.11903021E-02  1.03382768E-02  2.45243119E-02  2.71965085E-02 -5.57772941E-02
 -7.13087940E-02 -4.55300678E-02  1.28355599E-02 -2.12727784E-01 -1.11302227E-01
 -9.94725016E-02  6.03338935E-02 -6.11829485E+00  1.00864162E+00 -1.18066307E-02
  1.41645517E+00  2.25520194E-03 -2.65142210E-03 -6.25781002E-04 -2.58682545E-03
  5.60209003E-03  3.20015515E-03  8.45239837E-03  6.11903021E-02 -1.03382768E-02
 -2.45243119E-02 -1.08396774E-02  1.72961517E-02 -8.84941213E-02 -1.83295097E-02
  1.29767316E-02  1.04451419E-01 -1.15004065E-01 -2.13237130E-03  2.89508803E-02
  3.14369216E+00  3.58324690E-01  9.08235167E-01  6.89492884E-01  5.46323218E-03
 -3.74072449E-03 -3.07647591E-03  1.05426313E-03 -2.04953273E-03 -2.47227687E-03
 -9.45338879E-04 -2.90042577E-02  7.51579439E-03  5.49439851E-02  1.72727472E-03
 -3.12365509E-02  1.53022335E-02 -3.06814800E-02  5.12538630E-02  5.48845630E-02
  3.37918645E-02 -1.23729434E-01  4.39120035E-02  1.04610437E-01  5.38078633E-03
 -3.21726191E+00 -5.76493866E-01  9.28392370E-01 -1.12703190E+00 -2.27454768E-03
  8.10489369E-04  1.04286522E-03  3.24652404E-03  5.72094890E-03 -8.64759138E-03
 -1.09322074E-02 -8.12312754E-02 -9.86674071E-03 -6.64925190E-02  3.96767162E-04
  4.73259177E-02 -2.64279104E-02  4.80785730E-02  4.67606151E-02  4.59794991E-02
  2.04259403E-02  2.74327261E-01  1.45707550E-01  4.43904109E-02  1.79133673E-02
  9.85688888E+00  1.97260663E+00 -9.94539812E-01 -1.60331862E+00  1.23720348E-04
 -5.28397055E-04  2.03729671E-05  6.70490478E-03  2.85058780E-03  4.05675701E-03
  2.10914362E-02  2.42642101E-03  4.32564298E-03 -3.54623520E-02  2.64279104E-02
 -4.80785730E-02  4.67606151E-02  4.59794991E-02 -2.04259403E-02 -2.74327261E-01
  1.45707550E-01  4.43904109E-02 -1.79133673E-02 -9.85688888E+00  1.97260663E+00
 -9.94539812E-01  1.60331862E+00 -1.23720348E-04  5.28397055E-04 -2.03729671E-05
 -6.70490478E-03  2.85058780E-03  4.05675701E-03 -2.10914362E-02 -2.42642101E-03
 -4.32564298E-03  3.54623520E-02 -1.53022335E-02  3.06814800E-02  5.12538630E-02
  5.48845630E-02 -3.37918645E-02  1.23729434E-01  4.39120035E-02  1.04610437E-01
 -5.38078633E-03  3.21726191E+00 -5.76493866E-01  9.28392370E-01  1.12703190E+00
  2.27454768E-03 -8.10489369E-04 -1.04286522E-03 -3.24652404E-03  5.72094890E-03
 -8.64759138E-03  1.09322074E-02  8.12312754E-02 -3.96767162E-04 -4.73259177E-02
  9.86674071E-03  6.64925190E-02  3.20566963E-03  8.20031514E-03  4.44881228E-02
  3.14181576E-02 -9.76697941E-03 -1.32752180E-01 -3.97860631E-02  1.19816204E-01
  2.35886543E-02 -8.12300302E-01 -9.66766516E-01 -2.00735059E-02  5.57930978E-01
  3.81943539E-03  4.10650974E-03 -3.50466888E-03  1.00293363E-02  4.04486557E-03
  9.14455146E-03 -1.38383809E-02 -2.29667645E-01  1.97626231E-02  1.21860862E-01
  3.37910223E-02  1.10989470E-01  1.18239704E-02 -3.86290648E-02 -2.85129069E-02
 -7.08347266E-02 -1.58637013E-02 -5.23554426E-03  1.04612483E-01 -2.11211788E-01
 -1.05854765E-01  8.55967783E+00  2.73475904E+00 -1.19134834E+00 -5.28404652E-01
  1.86458079E-03  4.30700412E-03 -3.79606626E-03  7.96146533E-04  5.65118293E-03
  5.58919259E-03  1.44030081E-02  2.35265286E-02  1.92667336E-02 -1.75306685E-02
 -1.18239704E-02  3.86290648E-02 -2.85129069E-02 -7.08347266E-02  1.58637013E-02
  5.23554426E-03  1.04612483E-01 -2.11211788E-01  1.05854765E-01 -8.55967783E+00
  2.73475904E+00 -1.19134834E+00  5.28404652E-01 -1.86458079E-03 -4.30700412E-03
  3.79606626E-03 -7.96146533E-04  5.65118293E-03  5.58919259E-03 -1.44030081E-02
 -2.35265286E-02 -1.92667336E-02  1.75306685E-02 -3.20566963E-03 -8.20031514E-03
  4.44881228E-02  3.14181576E-02  9.76697941E-03  1.32752180E-01 -3.97860631E-02
  1.19816204E-01 -2.35886543E-02  8.12300302E-01 -9.66766516E-01 -2.00735059E-02
 -5.57930978E-01 -3.81943539E-03 -4.10650974E-03  3.50466888E-03 -1.00293363E-02
  4.04486557E-03  9.14455146E-03  1.38383809E-02  2.29667645E-01 -3.37910223E-02
 -1.10989470E-01 -1.97626231E-02 -1.21860862E-01  5.35331958E-03 -1.48166552E-02
  4.72569413E-02 -7.54987415E-02 -9.89821828E-02 -5.17365414E-02  1.51441628E-01
 -9.58240449E-02 -1.31959606E-01 -2.87011453E+00 -3.33053890E-01  1.25310756E+00
 -4.36565635E-01 -8.92330685E-03  4.58961143E-03  3.88028963E-03  3.49439618E-03
  1.19452132E-03 -1.07762425E-03 -1.58949931E-02 -1.57201612E-02  4.40167412E-03
  1.69554739E-01 -8.67052203E-03 -7.73598727E-02 -1.16702873E-02  2.03060008E-02
 -5.69340745E-02 -1.87140858E-02 -3.03028676E-02  1.34169588E-01 -1.46101248E-01
 -8.47909779E-02 -1.00399170E-01  2.89972984E+00  5.21661245E-01  8.89664855E-01
 -8.66719497E-01  2.13938467E-03 -2.51231931E-03  1.01395331E-03  4.58947275E-04
 -4.23107422E-03  5.61802062E-03  2.34460777E-03 -7.48995149E-02  2.01713509E-02
  4.98620577E-02 -1.16702873E-02  2.03060008E-02  5.69340745E-02  1.87140858E-02
 -3.03028676E-02  1.34169588E-01  1.46101248E-01  8.47909779E-02 -1.00399170E-01
  2.89972984E+00 -5.21661245E-01 -8.89664855E-01 -8.66719497E-01  2.13938467E-03
 -2.51231931E-03  1.01395331E-03  4.58947275E-04  4.23107422E-03 -5.61802062E-03
  2.34460777E-03 -7.48995149E-02  2.01713509E-02  4.98620577E-02  5.35331958E-03
 -1.48166552E-02 -4.72569413E-02  7.54987415E-02 -9.89821828E-02 -5.17365414E-02
 -1.51441628E-01  9.58240449E-02 -1.31959606E-01 -2.87011453E+00  3.33053890E-01
 -1.25310756E+00 -4.36565635E-01 -8.92330685E-03  4.58961143E-03  3.88028963E-03
  3.49439618E-03 -1.19452132E-03  1.07762425E-03 -1.58949931E-02 -1.57201612E-02
 -8.67052203E-03 -7.73598727E-02  4.40167412E-03  1.69554739E-01 -4.13357839E-03
 -2.26810259E-04 -9.79611910E-02  1.90389731E-02  2.75223365E-02  8.51789998E-02
 -1.32528563E-01  5.06737958E-02  3.21852556E-02  1.55408581E-01  7.86482038E-01
  1.86355869E-02 -3.67384274E-01 -9.58199049E-03  4.40700568E-03  9.71089011E-04
 -2.77249216E-03 -2.07910424E-03 -2.17095676E-03 -6.43853657E-04  9.32974796E-03
  2.63887737E-03  3.08610585E-02 -1.92544412E-02 -1.41480887E-01 -4.40892929E-03
  8.18424186E-03 -5.74889029E-02 -2.60183917E-02 -5.70784692E-02  4.62985254E-02
 -5.31598567E-02 -1.97240872E-02 -7.20058397E-02 -1.75640760E-01  5.06645349E-01
  4.79337670E-01  4.65375593E-01 -3.00034086E-04  3.36264380E-04 -4.80300068E-04
  3.37378289E-03  2.15526652E-03 -2.83839468E-03  7.49880077E-03  1.11033550E-01
 -7.56854556E-03 -4.02505474E-02 -4.40892929E-03  8.18424186E-03  5.74889029E-02
  2.60183917E-02 -5.70784692E-02  4.62985254E-02  5.31598567E-02  1.97240872E-02
 -7.20058397E-02 -1.75640760E-01 -5.06645349E-01 -4.79337670E-01  4.65375593E-01
 -3.00034086E-04  3.36264380E-04 -4.80300068E-04  3.37378289E-03 -2.15526652E-03
  2.83839468E-03  7.49880077E-03  1.11033550E-01 -7.56854556E-03 -4.02505474E-02
 -4.13357839E-03 -2.26810259E-04  9.79611910E-02 -1.90389731E-02  2.75223365E-02
  8.51789998E-02  1.32528563E-01 -5.06737958E-02  3.21852556E-02  1.55408581E-01
 -7.86482038E-01 -1.86355869E-02 -3.67384274E-01 -9.58199049E-03  4.40700568E-03
  9.71089011E-04 -2.77249216E-03  2.07910424E-03  2.17095676E-03 -6.43853657E-04
  9.32974796E-03 -1.92544412E-02 -1.41480887E-01  2.63887737E-03  3.08610585E-02
  1.28192302E-02 -1.86995361E-02 -9.05372135E-02 -5.37740173E-02 -1.69485396E-02
 -1.03564686E-01 -2.00257501E-01 -5.67128372E-03  3.73369835E-02  2.86156228E+00
  5.13068341E-01  9.75853075E-02  1.47035246E+00  4.56342514E-04  3.94556549E-04
  2.56061753E-03 -6.19307729E-04  2.70814150E-03  7.49892797E-03  3.13226990E-03
 -1.46995661E-01  2.86228837E-02  3.75974682E-02  2.32944497E-03 -9.45384484E-02
  9.61245059E-03 -1.95779894E-04  4.61116114E-02  4.66383517E-02  6.80771127E-02
 -2.11802274E-01  7.35944084E-02  3.13294131E-02  1.09932362E-01 -2.78778280E+00
 -4.42195548E-01 -1.78533697E+00 -1.59757286E-01 -1.36132785E-03  5.01638201E-03
  2.05571684E-03  1.04023010E-03  7.57671102E-03  2.70768848E-03 -1.39850196E-03
 -5.98172237E-02  1.02875805E-02  1.06241592E-01  9.61245059E-03 -1.95779894E-04
 -4.61116114E-02 -4.66383517E-02  6.80771127E-02 -2.11802274E-01 -7.35944084E-02
 -3.13294131E-02  1.09932362E-01 -2.78778280E+00  4.42195548E-01  1.78533697E+00
 -1.59757286E-01 -1.36132785E-03  5.01638201E-03  2.05571684E-03  1.04023010E-03
 -7.57671102E-03 -2.70768848E-03 -1.39850196E-03 -5.98172237E-02  1.02875805E-02
  1.06241592E-01  1.28192302E-02 -1.86995361E-02  9.05372135E-02  5.37740173E-02
 -1.69485396E-02 -1.03564686E-01  2.00257501E-01  5.67128372E-03  3.73369835E-02
  2.86156228E+00 -5.13068341E-01 -9.75853075E-02  1.47035246E+00  4.56342514E-04
  3.94556549E-04  2.56061753E-03 -6.19307729E-04 -2.70814150E-03 -7.49892797E-03
  3.13226990E-03 -1.46995661E-01  2.32944497E-03 -9.45384484E-02  2.86228837E-02
  3.75974682E-02 -3.27882417E-02  6.11304735E-02 -1.13698853E-02 -6.28785266E-02
 -2.15635025E-02  3.25573966E-01 -7.91912391E-02 -4.56601892E-02 -1.06615020E-01
 -2.74197173E+00 -4.04339025E-01  1.62613009E+00 -9.20588231E-01 -1.66886462E-03
 -3.51290445E-03  8.78063936E-04  1.83807069E-03  5.03112923E-03 -9.81855343E-03
 -2.45684226E-02 -6.61195180E-02 -3.04059595E-02 -6.11387299E-02 -4.01903011E-03
  1.26574332E-01 -1.38175105E-03 -9.68622891E-03  1.57677006E-02  6.94058780E-02
 -6.79791744E-03  9.48460337E-02 -1.77976354E-02  6.73717856E-02 -6.25968279E-02
  2.85243060E+00 -3.34268975E-01 -1.95640861E+00 -5.39415061E-01 -7.16571685E-03
 -5.60226679E-03  8.83044012E-03  1.65303625E-03  1.34178599E-03 -1.00601749E-02
 -8.01192676E-03 -2.01866939E-01 -3.11032709E-03  3.77003339E-03 -1.38175105E-03
 -9.68622891E-03 -1.57677006E-02 -6.94058780E-02 -6.79791744E-03  9.48460337E-02
  1.77976354E-02 -6.73717856E-02 -6.25968279E-02  2.85243060E+00  3.34268975E-01
  1.95640861E+00 -5.39415061E-01 -7.16571685E-03 -5.60226679E-03  8.83044012E-03
  1.65303625E-03 -1.34178599E-03  1.00601749E-02 -8.01192676E-03 -2.01866939E-01
 -3.11032709E-03  3.77003339E-03 -3.27882417E-02  6.11304735E-02  1.13698853E-02
  6.28785266E-02 -2.15635025E-02  3.25573966E-01  7.91912391E-02  4.56601892E-02
 -1.06615020E-01 -2.74197173E+00  4.04339025E-01 -1.62613009E+00 -9.20588231E-01
 -1.66886462E-03 -3.51290445E-03  8.78063936E-04  1.83807069E-03 -5.03112923E-03
  9.81855343E-03 -2.45684226E-02 -6.61195180E-02 -4.01903011E-03  1.26574332E-01
 -3.04059595E-02 -6.11387299E-02 -2.31857835E-02  3.97680618E-02  6.28026724E-02
 -3.83831552E-02 -2.88579474E-02  2.59591487E-01  1.53756613E-01  3.76144343E-02
  5.84358915E-03  8.15850517E-01 -8.67350531E-01  1.54542941E+00  1.23875355E+00
 -1.21623521E-02  9.19150816E-03 -6.02714392E-04 -4.40533663E-03  3.66643123E-03
  3.59525843E-03  1.16008712E-02  3.29078120E-02  1.30230257E-02  2.72915383E-01
 -4.36939571E-02 -1.55419203E-01 -1.58708512E-02  2.27959620E-02  5.17163577E-02
 -2.77225030E-02  9.88991185E-03  2.40825480E-01  9.20298395E-02 -8.57180608E-02
 -2.49533853E-02  7.71145088E+00  2.86587004E+00 -3.36419187E+00  1.18961118E+00
 -1.17832552E-02  1.79154697E-03  8.09482608E-03  6.30042538E-03 -5.14253425E-03
 -2.26410754E-03 -6.46642418E-03 -7.00140039E-02  1.55051443E-02  8.04277429E-02
  1.58708512E-02 -2.27959620E-02  5.17163577E-02 -2.77225030E-02 -9.88991185E-03
 -2.40825480E-01  9.20298395E-02 -8.57180608E-02  2.49533853E-02 -7.71145088E+00
  2.86587004E+00 -3.36419187E+00 -1.18961118E+00  1.17832552E-02 -1.79154697E-03
 -8.09482608E-03 -6.30042538E-03 -5.14253425E-03 -2.26410754E-03  6.46642418E-03
  7.00140039E-02 -1.55051443E-02 -8.04277429E-02  2.31857835E-02 -3.97680618E-02
  6.28026724E-02 -3.83831552E-02  2.88579474E-02 -2.59591487E-01  1.53756613E-01
  3.76144343E-02 -5.84358915E-03 -8.15850517E-01 -8.67350531E-01  1.54542941E+00
 -1.23875355E+00  1.21623521E-02 -9.19150816E-03  6.02714392E-04  4.40533663E-03
  3.66643123E-03  3.59525843E-03 -1.16008712E-02 -3.29078120E-02  4.36939571E-02
  1.55419203E-01 -1.30230257E-02 -2.72915383E-01  5.28632122E-03  1.37872488E-02
 -5.56717690E-02  3.70488651E-02  9.66478103E-03 -2.57477282E-01 -9.82636276E-02
  2.22129036E-01 -1.85735733E-02 -9.94356339E+00  1.10943334E+00  2.21267064E+00
 -1.59411848E+00 -3.12412108E-03  4.63727780E-03  3.31219841E-03  8.70169953E-03
  1.04690861E-03  8.18275608E-03 -3.28095605E-02 -2.11963570E-01  2.50688165E-02
  1.87039295E-01  3.73790070E-03 -6.76546843E-02  3.23014814E-02 -9.40958122E-02
  5.95848491E-02  6.02611725E-02 -2.68410234E-02 -9.44887115E-02  2.37191659E-01
 -4.45014280E-02 -1.88954022E-01  2.23787597E+01  1.88328360E+00 -7.81681864E-01
 -4.67633657E+00  5.14210522E-03 -2.92039586E-05 -5.42789991E-03 -7.01358001E-03
  6.05267682E-03  3.41585410E-03  2.63934524E-02 -2.30786021E-01  1.31264840E-02
 -9.56467307E-02 -3.23014814E-02  9.40958122E-02  5.95848491E-02  6.02611725E-02
  2.68410234E-02  9.44887115E-02  2.37191659E-01 -4.45014280E-02  1.88954022E-01
 -2.23787597E+01  1.88328360E+00 -7.81681864E-01  4.67633657E+00 -5.14210522E-03
  2.92039586E-05  5.42789991E-03  7.01358001E-03  6.05267682E-03  3.41585410E-03
 -2.63934524E-02  2.30786021E-01 -1.31264840E-02  9.56467307E-02 -5.28632122E-03
 -1.37872488E-02 -5.56717690E-02  3.70488651E-02 -9.66478103E-03  2.57477282E-01
 -9.82636276E-02  2.22129036E-01  1.85735733E-02  9.94356339E+00  1.10943334E+00
  2.21267064E+00  1.59411848E+00  3.12412108E-03 -4.63727780E-03 -3.31219841E-03
 -8.70169953E-03  1.04690861E-03  8.18275608E-03  3.28095605E-02  2.11963570E-01
 -3.73790070E-03  6.76546843E-02 -2.50688165E-02 -1.87039295E-01  1.80882942E-02
 -1.36915385E-02  2.80794915E-02 -2.28683129E-02  5.71857022E-02 -2.38600751E-01
 -7.44469164E-02  1.56187754E-02  8.18791320E-02  4.63403952E+00 -1.52035970E+00
 -7.17418668E-01  1.30384183E+00  7.87720000E-03  2.01838077E-03 -3.14071526E-03
  5.83622416E-04  6.54635327E-03  4.76554076E-03  1.65938000E-02 -1.64929259E-01
  8.07511875E-03 -1.42490583E-01  1.01718384E-02  1.05438641E-02  3.27493968E-02
 -2.93139572E-02 -3.21343043E-02  7.80147724E-03 -1.56944885E-03 -5.73669294E-01
  6.73003934E-02  5.68701593E-02  2.38525182E-02 -4.42471021E+00  2.36823422E+00
 -1.79212903E+00  7.16292496E-01  1.19151973E-03  5.08897711E-03  6.99095098E-03
  1.41822493E-02  5.03653549E-03 -1.93209246E-03  3.33914221E-02  1.72722094E-01
  1.27699435E-02 -3.77170962E-02  3.27493968E-02 -2.93139572E-02  3.21343043E-02
 -7.80147724E-03 -1.56944885E-03 -5.73669294E-01 -6.73003934E-02 -5.68701593E-02
  2.38525182E-02 -4.42471021E+00 -2.36823422E+00  1.79212903E+00  7.16292496E-01
  1.19151973E-03  5.08897711E-03  6.99095098E-03  1.41822493E-02 -5.03653549E-03
  1.93209246E-03  3.33914221E-02  1.72722094E-01  1.27699435E-02 -3.77170962E-02
  1.80882942E-02 -1.36915385E-02 -2.80794915E-02  2.28683129E-02  5.71857022E-02
 -2.38600751E-01  7.44469164E-02 -1.56187754E-02  8.18791320E-02  4.63403952E+00
  1.52035970E+00  7.17418668E-01  1.30384183E+00  7.87720000E-03  2.01838077E-03
 -3.14071526E-03  5.83622416E-04 -6.54635327E-03 -4.76554076E-03  1.65938000E-02
 -1.64929259E-01  1.01718384E-02  1.05438641E-02  8.07511875E-03 -1.42490583E-01
 -2.46062915E-02  4.72551054E-02  1.00401810E-02  4.88692654E-02  5.58490335E-02
  2.28987944E-01  6.87945942E-03  1.56292978E-01  4.97369768E-02 -4.90121759E+00
 -8.15430764E-01  8.86026632E-01 -2.12909434E+00 -3.74406202E-03  3.38106685E-03
 -2.20763405E-03 -1.96857596E-03  5.52358297E-04 -3.68850736E-03 -8.75195953E-03
  3.41242604E-02 -1.93601026E-02  6.60897393E-02 -2.02194818E-02  1.32731368E-02
  6.41183990E-03 -3.37347949E-02 -5.55877537E-03 -4.99102486E-02 -8.52492432E-02
  1.27648418E-01  2.22741688E-02 -1.09257708E-01 -1.42288958E-01  1.59512994E+01
  3.33554016E+00 -1.14467166E+00  1.34170964E+00 -8.56542395E-03  3.82169031E-03
 -2.15408344E-04 -3.68576620E-04 -9.30326244E-04 -5.96649801E-03 -8.91042585E-03
 -1.17143635E-01  1.09854879E-02 -1.52092125E-01 -6.41183990E-03  3.37347949E-02
 -5.55877537E-03 -4.99102486E-02  8.52492432E-02 -1.27648418E-01  2.22741688E-02
 -1.09257708E-01  1.42288958E-01 -1.59512994E+01  3.33554016E+00 -1.14467166E+00
 -1.34170964E+00  8.56542395E-03 -3.82169031E-03  2.15408344E-04  3.68576620E-04
 -9.30326244E-04 -5.96649801E-03  8.91042585E-03  1.17143635E-01 -1.09854879E-02
  1.52092125E-01  2.46062915E-02 -4.72551054E-02  1.00401810E-02  4.88692654E-02
 -5.58490335E-02 -2.28987944E-01  6.87945942E-03  1.56292978E-01 -4.97369768E-02
  4.90121759E+00 -8.15430764E-01  8.86026632E-01  2.12909434E+00  3.74406202E-03
 -3.38106685E-03  2.20763405E-03  1.96857596E-03  5.52358297E-04 -3.68850736E-03
  8.75195953E-03 -3.41242604E-02  2.02194818E-02 -1.32731368E-02  1.93601026E-02
 -6.60897393E-02  3.61492118E-02 -4.87080582E-02 -6.52181790E-02 -3.31758499E-02
  7.64127184E-02 -4.53427001E-01 -2.12237458E-01 -2.56927248E-02  2.16772549E-01
  1.95242189E+01 -7.18519803E-01 -3.52859480E+00  4.20748418E+00  2.35218695E-03
  8.01343077E-04  3.97975332E-03  5.69935172E-03  5.85173365E-03  2.26070743E-03
 -9.91205098E-03 -4.49273900E-01  3.21110532E-02 -5.21908265E-02  3.55967180E-02
 -4.84685069E-02  6.33761593E-03 -1.12146701E-02 -1.53498593E-02  6.35929387E-03
 -4.57477734E-03 -9.75840582E-02  2.55764202E-02 -1.43836733E-01  1.02307134E-01
  2.77501806E+00  5.75273249E+00 -8.03479594E+00  6.41978227E+00  2.26291381E-04
  2.10510391E-03 -1.65999634E-03 -3.46994355E-03 -1.58966195E-03 -2.01801696E-03
 -1.50654989E-02 -1.87761540E-01 -7.53712978E-03 -1.82317480E-01 -6.33761593E-03
  1.12146701E-02 -1.53498593E-02  6.35929387E-03  4.57477734E-03  9.75840582E-02
  2.55764202E-02 -1.43836733E-01 -1.02307134E-01 -2.77501806E+00  5.75273249E+00
 -8.03479594E+00 -6.41978227E+00 -2.26291381E-04 -2.10510391E-03  1.65999634E-03
  3.46994355E-03 -1.58966195E-03 -2.01801696E-03  1.50654989E-02  1.87761540E-01
  7.53712978E-03  1.82317480E-01 -3.61492118E-02  4.87080582E-02 -6.52181790E-02
 -3.31758499E-02 -7.64127184E-02  4.53427001E-01 -2.12237458E-01 -2.56927248E-02
 -2.16772549E-01 -1.95242189E+01 -7.18519803E-01 -3.52859480E+00 -4.20748418E+00
 -2.35218695E-03 -8.01343077E-04 -3.97975332E-03 -5.69935172E-03  5.85173365E-03
  2.26070743E-03  9.91205098E-03  4.49273900E-01 -3.55967180E-02  4.84685069E-02
 -3.21110532E-02  5.21908265E-02 -3.47246288E-03  5.52010213E-02 -1.60782926E-03
  2.13750805E-03 -7.63230710E-03 -2.61504643E-01  5.59300285E-03  1.72739815E-01
 -9.11968749E-02 -2.24628989E+01 -1.53240125E-01  3.66975039E+00 -5.34944371E+00
  9.09285081E-03  2.83591725E-03  8.04610626E-04 -9.18621328E-03  6.12856962E-03
  1.08245168E-02  1.95459485E-02  2.35277623E-01  6.17997871E-03  1.97004243E-01
 -3.33302119E-02 -9.55465892E-02  5.99016742E-02 -7.68238096E-02  9.02477291E-02
 -1.14156263E-02 -3.55372639E-02 -9.24244913E-01  1.66302269E-01  1.74431684E-01
 -1.31639716E-01  2.28013954E+01  1.05811995E+00  5.48725015E+00 -5.61928727E+00
  1.56155844E-03  9.98273402E-03  4.63653715E-03  1.01967746E-02 -2.10529694E-03
 -7.44448764E-04  4.74265841E-02 -4.18959584E-02  3.00350802E-02 -2.68620521E-01
  5.99016742E-02 -7.68238096E-02 -9.02477291E-02  1.14156263E-02 -3.55372639E-02
 -9.24244913E-01 -1.66302269E-01 -1.74431684E-01 -1.31639716E-01  2.28013954E+01
 -1.05811995E+00 -5.48725015E+00 -5.61928727E+00  1.56155844E-03  9.98273402E-03
  4.63653715E-03  1.01967746E-02  2.10529694E-03  7.44448764E-04  4.74265841E-02
 -4.18959584E-02  3.00350802E-02 -2.68620521E-01 -3.47246288E-03  5.52010213E-02
  1.60782926E-03 -2.13750805E-03 -7.63230710E-03 -2.61504643E-01 -5.59300285E-03
 -1.72739815E-01 -9.11968749E-02 -2.24628989E+01  1.53240125E-01 -3.66975039E+00
 -5.34944371E+00  9.09285081E-03  2.83591725E-03  8.04610626E-04 -9.18621328E-03
 -6.12856962E-03 -1.08245168E-02  1.95459485E-02  2.35277623E-01 -3.33302119E-02
 -9.55465892E-02  6.17997871E-03  1.97004243E-01  1.12929832E-02 -2.47459041E-02
 -8.96529237E-02 -8.94762625E-02 -1.11669914E-01 -8.22374838E-02 -4.12861090E-01
 -4.41697596E-01 -4.57547608E-01 -1.88189813E+00 -7.75586250E-02 -1.58636329E-01
 -6.00686175E-01  1.53722967E-02  4.80611417E-03 -1.88942398E-02  2.20047181E-03
 -5.83952153E-03 -1.12669889E-02  2.35174073E-02  1.79660062E-01 -9.49135085E-02
 -1.14048433E+00  7.74074495E-02  8.17420493E-01  8.56709219E-03 -6.52169464E-03
 -4.52311134E-02 -6.58223288E-02 -7.44402252E-02 -1.64479706E-01 -2.32653140E-01
 -2.67641582E-01 -2.11231212E-01  1.90488769E+00  2.28709390E-01  8.20874731E-01
 -5.87418023E-01 -2.29916209E-03 -1.18980704E-02  1.84447441E-02 -8.81407016E-03
  2.29452966E-03  1.40093144E-02 -5.86233337E-02 -5.43274303E-01  8.53910716E-02
  6.73663573E-01  8.56709219E-03 -6.52169464E-03  4.52311134E-02  6.58223288E-02
 -7.44402252E-02 -1.64479706E-01  2.32653140E-01  2.67641582E-01 -2.11231212E-01
  1.90488769E+00 -2.28709390E-01 -8.20874731E-01 -5.87418023E-01 -2.29916209E-03
 -1.18980704E-02  1.84447441E-02 -8.81407016E-03 -2.29452966E-03 -1.40093144E-02
 -5.86233337E-02 -5.43274303E-01  8.53910716E-02  6.73663573E-01  1.12929832E-02
 -2.47459041E-02  8.96529237E-02  8.94762625E-02 -1.11669914E-01 -8.22374838E-02
  4.12861090E-01  4.41697596E-01 -4.57547608E-01 -1.88189813E+00  7.75586250E-02
  1.58636329E-01 -6.00686175E-01  1.53722967E-02  4.80611417E-03 -1.88942398E-02
  2.20047181E-03  5.83952153E-03  1.12669889E-02  2.35174073E-02  1.79660062E-01
  7.74074495E-02  8.17420493E-01 -9.49135085E-02 -1.14048433E+00 -2.54722574E-02
  6.20358085E-02 -1.46834410E-01  5.76059056E-03 -8.50333883E-03  3.50820537E-01
 -9.70381135E-01  3.15362690E-01 -1.44312697E-01 -1.01242082E+00 -6.56745941E-01
 -7.11242642E-02 -3.07927924E-01  3.63919485E-03 -1.39199471E-02  1.28103179E-02
  2.61988385E-02  9.74635062E-03 -6.19775099E-04 -1.25277205E-01 -1.55668827E+00
  3.87981297E-02 -3.10570926E-01  6.23304054E-02  6.42727385E-01 -9.91754226E-03
  4.03490580E-02  5.30559037E-02  1.50163175E-03  1.63148331E-02  3.09181674E-02
  4.12171373E-01  3.23353957E-01  1.10904331E-01  1.56800316E+00  7.70212478E-01
  1.34084212E+00 -2.37037630E-01  7.42893933E-03  5.92797112E-03 -1.02210721E-02
 -2.42932551E-03  1.51056203E-02 -1.71767908E-02  1.12691251E-02  2.98293309E-01
 -5.51820929E-02 -6.79229141E-01 -9.91754226E-03  4.03490580E-02 -5.30559037E-02
 -1.50163175E-03  1.63148331E-02  3.09181674E-02 -4.12171373E-01 -3.23353957E-01
  1.10904331E-01  1.56800316E+00 -7.70212478E-01 -1.34084212E+00 -2.37037630E-01
  7.42893933E-03  5.92797112E-03 -1.02210721E-02 -2.42932551E-03 -1.51056203E-02
  1.71767908E-02  1.12691251E-02  2.98293309E-01 -5.51820929E-02 -6.79229141E-01
 -2.54722574E-02  6.20358085E-02  1.46834410E-01 -5.76059056E-03 -8.50333883E-03
  3.50820537E-01  9.70381135E-01 -3.15362690E-01 -1.44312697E-01 -1.01242082E+00
  6.56745941E-01  7.11242642E-02 -3.07927924E-01  3.63919485E-03 -1.39199471E-02
  1.28103179E-02  2.61988385E-02 -9.74635062E-03  6.19775099E-04 -1.25277205E-01
 -1.55668827E+00  6.23304054E-02  6.42727385E-01  3.87981297E-02 -3.10570926E-01
  1.89818869E-02 -2.93586726E-02  7.69215036E-02 -1.05450792E-01 -8.82986645E-02
 -2.45243706E-01  3.31278881E-01 -5.08268363E-01 -4.96046062E-01  3.15759875E+00
 -7.18318590E-03 -1.06174692E+00  4.29713067E-01  9.38490879E-03  1.18504518E-03
 -6.64350258E-03 -2.14730419E-02  8.38336610E-03 -7.72895836E-03  9.67349153E-02
  1.00506263E+00 -4.95922128E-02 -8.66694086E-01 -4.10657102E-02 -3.57847256E-01
 -2.30716768E-03  2.80724227E-02  1.77536685E-01 -1.34789625E-02 -3.99299501E-02
 -1.47935098E-01  5.49298968E-01  1.28318614E-01  1.25018712E-01  9.00480016E+00
  3.17216132E+00 -2.53999196E+00  1.04747805E+00  2.05987456E-02 -1.77169598E-02
  1.96503795E-03  2.08346160E-02 -2.76422857E-03 -4.13638077E-03  1.09795284E-01
  8.85265758E-01 -1.82226979E-02 -3.59919622E-01  2.30716768E-03 -2.80724227E-02
  1.77536685E-01 -1.34789625E-02  3.99299501E-02  1.47935098E-01  5.49298968E-01
  1.28318614E-01 -1.25018712E-01 -9.00480016E+00  3.17216132E+00 -2.53999196E+00
 -1.04747805E+00 -2.05987456E-02  1.77169598E-02 -1.96503795E-03 -2.08346160E-02
 -2.76422857E-03 -4.13638077E-03 -1.09795284E-01 -8.85265758E-01  1.82226979E-02
  3.59919622E-01 -1.89818869E-02  2.93586726E-02  7.69215036E-02 -1.05450792E-01
  8.82986645E-02  2.45243706E-01  3.31278881E-01 -5.08268363E-01  4.96046062E-01
 -3.15759875E+00 -7.18318590E-03 -1.06174692E+00 -4.29713067E-01 -9.38490879E-03
 -1.18504518E-03  6.64350258E-03  2.14730419E-02  8.38336610E-03 -7.72895836E-03
 -9.67349153E-02 -1.00506263E+00  4.10657102E-02  3.57847256E-01  4.95922128E-02
  8.66694086E-01 -1.36630205E-02  3.04523449E-02 -8.31143420E-02 -1.43918244E-01
 -6.28753223E-02  1.13116229E-01 -3.83893779E-01 -5.96700902E-01 -3.23758548E-01
 -2.96935815E+00 -1.75190948E-01  7.37955980E-01 -6.12718420E-01  1.53285036E-02
  8.10637743E-03 -2.35114833E-02  1.03833717E-02 -7.17936273E-03 -7.97097014E-03
  1.36399442E-02  1.81490716E-01 -9.68500283E-02 -1.06083686E+00  8.81876886E-02
  1.01716728E+00  1.20134975E-02 -1.82528654E-02 -3.05119972E-02 -1.13173498E-01
 -4.94329831E-02 -1.65773486E-01 -6.27858321E-02 -3.52312390E-01 -2.29626199E-01
  7.02378960E+00  8.69114382E-01 -7.00044354E-01 -1.24983624E+00 -1.54871844E-02
 -4.65296178E-03  2.09505321E-02 -1.00190915E-02  9.39713589E-03  6.86230154E-03
 -7.86438910E-02 -7.06890355E-01  9.37860081E-02  8.25967430E-01 -1.20134975E-02
  1.82528654E-02 -3.05119972E-02 -1.13173498E-01  4.94329831E-02  1.65773486E-01
 -6.27858321E-02 -3.52312390E-01  2.29626199E-01 -7.02378960E+00  8.69114382E-01
 -7.00044354E-01  1.24983624E+00  1.54871844E-02  4.65296178E-03 -2.09505321E-02
  1.00190915E-02  9.39713589E-03  6.86230154E-03  7.86438910E-02  7.06890355E-01
 -9.37860081E-02 -8.25967430E-01  1.36630205E-02 -3.04523449E-02 -8.31143420E-02
 -1.43918244E-01  6.28753223E-02 -1.13116229E-01 -3.83893779E-01 -5.96700902E-01
  3.23758548E-01  2.96935815E+00 -1.75190948E-01  7.37955980E-01  6.12718420E-01
 -1.53285036E-02 -8.10637743E-03  2.35114833E-02 -1.03833717E-02 -7.17936273E-03
 -7.97097014E-03 -1.36399442E-02 -1.81490716E-01 -8.81876886E-02 -1.01716728E+00
  9.68500283E-02  1.06083686E+00 -4.03173976E-02  4.94535537E-02 -1.82324647E-02
 -1.76245324E-01  1.77804148E-01  6.41161246E-01  1.43762689E-02 -8.87940793E-01
  7.79020624E-01 -5.30868468E+00  1.15347167E-01  8.99175136E-01 -1.49931493E+00
  1.31922469E-02 -3.35019359E-03 -1.12809454E-02  4.12034225E-03 -6.20671659E-03
  1.53190752E-02  2.64900405E-02  4.08140529E-01  3.27078297E-03  1.15302104E-01
  5.12030399E-02  4.44270537E-01  3.36994731E-02 -4.22097293E-02 -3.51078231E-02
 -1.13848936E-01  2.23628798E-01 -6.12333962E-01 -2.44669907E-01 -6.22717498E-01
  9.03235838E-01  5.39497749E+00  1.28444289E-02  1.70319640E+00 -1.06601712E+00
 -5.94148210E-04 -8.10443115E-03  8.97055022E-03 -2.73626609E-03  1.04043492E-02
 -2.56544936E-02 -2.83018191E-02 -3.91095467E-01 -8.03289701E-02 -6.48583965E-01
  3.36994731E-02 -4.22097293E-02  3.51078231E-02  1.13848936E-01  2.23628798E-01
 -6.12333962E-01  2.44669907E-01  6.22717498E-01  9.03235838E-01  5.39497749E+00
 -1.28444289E-02 -1.70319640E+00 -1.06601712E+00 -5.94148210E-04 -8.10443115E-03
  8.97055022E-03 -2.73626609E-03 -1.04043492E-02  2.56544936E-02 -2.83018191E-02
 -3.91095467E-01 -8.03289701E-02 -6.48583965E-01 -4.03173976E-02  4.94535537E-02
  1.82324647E-02  1.76245324E-01  1.77804148E-01  6.41161246E-01 -1.43762689E-02
  8.87940793E-01  7.79020624E-01 -5.30868468E+00 -1.15347167E-01 -8.99175136E-01
 -1.49931493E+00  1.31922469E-02 -3.35019359E-03 -1.12809454E-02  4.12034225E-03
  6.20671659E-03 -1.53190752E-02  2.64900405E-02  4.08140529E-01  5.12030399E-02
  4.44270537E-01  3.27078297E-03  1.15302104E-01 -2.36564597E-02  8.93291975E-04
 -4.01405195E-03 -9.69985540E-02  3.15613766E-02  5.77119291E-01  2.24940290E-01
 -8.38208385E-01  2.01768461E-01 -7.62009976E+00 -5.83294389E-01  1.85271165E+00
 -1.67488402E+00  1.30372291E-02 -1.36348431E-02  1.06633878E-03 -2.76181053E-03
 -7.90633006E-03  8.79499215E-03 -2.70878930E-04  4.67824354E-01  1.60572024E-02
 -2.59272033E-01  1.14387781E-02  2.85925018E-01  7.72601842E-02 -5.02687126E-02
 -1.66976057E-01  1.06411244E-01  1.51653556E-01 -1.59410204E+00 -1.02680492E+00
  7.49324963E-01  1.19858120E+00  2.05477610E+01  3.67841736E+00 -1.42789817E+00
 -1.74799071E+00  1.22382091E-02 -2.07552153E-03 -5.67531369E-03 -1.47766197E-02
 -1.41601222E-02 -1.11525362E-02 -1.38786757E-02 -1.95152033E-01 -5.72684885E-02
 -1.07472324E+00 -7.72601842E-02  5.02687126E-02 -1.66976057E-01  1.06411244E-01
 -1.51653556E-01  1.59410204E+00 -1.02680492E+00  7.49324963E-01 -1.19858120E+00
 -2.05477610E+01  3.67841736E+00 -1.42789817E+00  1.74799071E+00 -1.22382091E-02
  2.07552153E-03  5.67531369E-03  1.47766197E-02 -1.41601222E-02 -1.11525362E-02
  1.38786757E-02  1.95152033E-01  5.72684885E-02  1.07472324E+00  2.36564597E-02
 -8.93291975E-04 -4.01405195E-03 -9.69985540E-02 -3.15613766E-02 -5.77119291E-01
  2.24940290E-01 -8.38208385E-01 -2.01768461E-01  7.62009976E+00 -5.83294389E-01
  1.85271165E+00  1.67488402E+00 -1.30372291E-02  1.36348431E-02 -1.06633878E-03
  2.76181053E-03 -7.90633006E-03  8.79499215E-03  2.70878930E-04 -4.67824354E-01
 -1.14387781E-02 -2.85925018E-01 -1.60572024E-02  2.59272033E-01  8.97300203E-03
 -1.16365850E-02 -1.68127822E-01  1.06291252E-01 -1.52645631E-01 -1.45967234E-01
 -7.50948684E-01  2.33667314E-01 -7.68916054E-01  2.17942381E+00 -1.23909615E+00
  9.77425996E-02  6.32759586E-01  2.26007959E-03 -5.91541380E-03  1.43675471E-03
  9.58064972E-03  8.53630211E-04 -1.58115924E-02 -5.37170384E-02 -8.22978231E-01
 -5.33547336E-02 -5.00352404E-01  3.62039652E-02  8.86674341E-01 -1.90571743E-02
  5.22626301E-03 -5.34451624E-03  2.10290491E-01 -3.14638684E-02  4.69473969E-01
  1.58391974E-01  8.87396372E-01 -2.64066990E-01 -1.70677514E+00  1.19956384E+00
 -9.11302562E-01  2.55124297E+00  2.33460611E-02 -1.54034304E-02 -1.06513279E-02
 -1.88566495E-03  1.04049145E-02  4.32976136E-03  5.39002800E-02  8.00748268E-01
 -3.78857946E-02 -6.04600941E-01  1.90571743E-02 -5.22626301E-03 -5.34451624E-03
  2.10290491E-01  3.14638684E-02 -4.69473969E-01  1.58391974E-01  8.87396372E-01
  2.64066990E-01  1.70677514E+00  1.19956384E+00 -9.11302562E-01 -2.55124297E+00
 -2.33460611E-02  1.54034304E-02  1.06513279E-02  1.88566495E-03  1.04049145E-02
  4.32976136E-03 -5.39002800E-02 -8.00748268E-01  3.78857946E-02  6.04600941E-01
 -8.97300203E-03  1.16365850E-02 -1.68127822E-01  1.06291252E-01  1.52645631E-01
  1.45967234E-01 -7.50948684E-01  2.33667314E-01  7.68916054E-01 -2.17942381E+00
 -1.23909615E+00  9.77425996E-02 -6.32759586E-01 -2.26007959E-03  5.91541380E-03
 -1.43675471E-03 -9.58064972E-03  8.53630211E-04 -1.58115924E-02  5.37170384E-02
  8.22978231E-01 -3.62039652E-02 -8.86674341E-01  5.33547336E-02  5.00352404E-01
  1.33444885E-02  1.31065203E-02  5.94007840E-02 -1.50651281E-01 -1.31121338E-01
 -4.39474415E-01  4.51509022E-02 -5.61087949E-01 -8.40988064E-01  2.14147804E+00
  2.89708308E-01 -1.19253120E+00  1.20472112E-01  7.70966184E-03 -1.50055340E-02
  1.01967689E-02 -8.14828292E-03  1.13781915E-03 -6.66857264E-03  3.35989732E-02
  8.74016971E-01 -2.50469891E-02 -1.12761576E+00 -1.15058748E-02  1.57774749E-01
 -1.81158901E-02  2.78694375E-03  8.86623110E-02  2.00468775E-01  9.51609202E-02
  5.01630777E-01  6.45711355E-01  1.09998756E+00  3.29368711E-01 -2.12463340E+00
  6.14070482E-01  1.23514732E+00  1.03226746E+00 -9.52235570E-04  4.13266098E-03
 -6.57717937E-03  6.56942955E-03 -8.61981904E-04 -4.46861574E-03  3.23299296E-02
  1.21110759E+00 -3.12430762E-02 -1.28688562E+00 -1.81158901E-02  2.78694375E-03
 -8.86623110E-02 -2.00468775E-01  9.51609202E-02  5.01630777E-01 -6.45711355E-01
 -1.09998756E+00  3.29368711E-01 -2.12463340E+00 -6.14070482E-01 -1.23514732E+00
  1.03226746E+00 -9.52235570E-04  4.13266098E-03 -6.57717937E-03  6.56942955E-03
  8.61981904E-04  4.46861574E-03  3.23299296E-02  1.21110759E+00 -3.12430762E-02
 -1.28688562E+00  1.33444885E-02  1.31065203E-02 -5.94007840E-02  1.50651281E-01
 -1.31121338E-01 -4.39474415E-01 -4.51509022E-02  5.61087949E-01 -8.40988064E-01
  2.14147804E+00 -2.89708308E-01  1.19253120E+00  1.20472112E-01  7.70966184E-03
 -1.50055340E-02  1.01967689E-02 -8.14828292E-03 -1.13781915E-03  6.66857264E-03
  3.35989732E-02  8.74016971E-01 -1.15058748E-02  1.57774749E-01 -2.50469891E-02
 -1.12761576E+00  4.47617102E-02 -4.13062604E-02  1.33953486E-01  2.59144097E-02
 -9.71663863E-02 -1.07183694E+00  7.45777343E-01  4.40860171E-01 -6.85784839E-01
  4.82687764E+00  2.06747745E-01 -9.69651886E-01  1.25480352E+00 -8.77203889E-03
 -1.47571280E-03  1.12144846E-02  6.99538835E-03 -1.93119591E-02 -7.81176445E-03
 -3.18719554E-02  6.34962673E-01 -5.04854092E-03 -5.70485042E-02 -1.70786954E-02
 -7.08176547E-01  2.22130583E-02 -1.48831994E-02 -1.94632728E-01  1.40670013E-01
 -2.10310783E-01 -5.89659029E-01 -1.17029579E+00  8.78076605E-01 -1.13365732E+00
  1.12016759E+00  1.32926018E+00 -2.33748923E+00  8.93690192E-01  7.29703684E-03
  2.60923596E-03 -7.69267430E-03 -1.38238399E-02  7.73434910E-03  5.50543635E-03
 -2.51783788E-02 -4.88744047E-01  1.15302168E-03  7.78477591E-01 -2.22130583E-02
  1.48831994E-02 -1.94632728E-01  1.40670013E-01  2.10310783E-01  5.89659029E-01
 -1.17029579E+00  8.78076605E-01  1.13365732E+00 -1.12016759E+00  1.32926018E+00
 -2.33748923E+00 -8.93690192E-01 -7.29703684E-03 -2.60923596E-03  7.69267430E-03
  1.38238399E-02  7.73434910E-03  5.50543635E-03  2.51783788E-02  4.88744047E-01
 -1.15302168E-03 -7.78477591E-01 -4.47617102E-02  4.13062604E-02  1.33953486E-01
  2.59144097E-02  9.71663863E-02  1.07183694E+00  7.45777343E-01  4.40860171E-01
  6.85784839E-01 -4.82687764E+00  2.06747745E-01 -9.69651886E-01 -1.25480352E+00
  8.77203889E-03  1.47571280E-03 -1.12144846E-02 -6.99538835E-03 -1.93119591E-02
 -7.81176445E-03  3.18719554E-02 -6.34962673E-01  1.70786954E-02  7.08176547E-01
  5.04854092E-03  5.70485042E-02 -1.03020814E-01  1.15628440E-01  1.05223598E-01
  3.87714928E-03 -4.91648775E-02  2.32754307E+00  2.56378081E-01  4.62350359E-02
 -1.35416609E-01  9.87060267E+00  3.34591091E-01 -1.75348486E+00  2.15836967E+00
 -5.17130980E-03  4.24434262E-03 -3.71231626E-03 -5.59566379E-03 -2.08057087E-03
 -3.66649140E-03 -4.25710660E-03 -9.46692423E-01 -4.40611312E-02 -1.61673276E+00
 -5.63633916E-02 -1.78315736E+00  3.18692037E-02 -2.08159095E-03 -3.51221193E-02
 -4.70513574E-02  4.67098410E-02 -7.09931838E-01 -1.37588064E-02 -4.24823028E-01
  3.44314862E-01 -8.84883934E+00 -6.45689055E-02 -1.35650379E+00  1.74769304E+00
 -8.61133893E-04 -2.05683273E-03  1.25594961E-02  8.19119042E-03  8.02121635E-04
 -4.94876979E-03  3.24920803E-02  8.11216733E-02  1.23717415E-02  3.24078333E-01
  3.18692037E-02 -2.08159095E-03  3.51221193E-02  4.70513574E-02  4.67098410E-02
 -7.09931838E-01  1.37588064E-02  4.24823028E-01  3.44314862E-01 -8.84883934E+00
  6.45689055E-02  1.35650379E+00  1.74769304E+00 -8.61133893E-04 -2.05683273E-03
  1.25594961E-02  8.19119042E-03 -8.02121635E-04  4.94876979E-03  3.24920803E-02
  8.11216733E-02  1.23717415E-02  3.24078333E-01 -1.03020814E-01  1.15628440E-01
 -1.05223598E-01 -3.87714928E-03 -4.91648775E-02  2.32754307E+00 -2.56378081E-01
 -4.62350359E-02 -1.35416609E-01  9.87060267E+00 -3.34591091E-01  1.75348486E+00
  2.15836967E+00 -5.17130980E-03  4.24434262E-03 -3.71231626E-03 -5.59566379E-03
  2.08057087E-03  3.66649140E-03 -4.25710660E-03 -9.46692423E-01 -5.63633916E-02
 -1.78315736E+00 -4.40611312E-02 -1.61673276E+00 -3.65786200E-06  9.44129611E-03
  2.71889630E-02  8.88710841E-03 -1.03711285E-01  1.34887402E-01  2.62233777E-01
  1.75691751E-01 -6.74063698E-01 -3.09923798E+00  4.01716838E-01  2.65212082E-01
 -5.21883130E-01 -5.62146803E-03  6.99538748E-03  4.09979549E-03 -7.06968046E-03
  5.21197327E-04 -1.75878906E-02  1.37137064E-02 -1.48360582E-01 -4.72012694E-02
 -8.74435455E-01 -5.03358911E-02 -6.87030954E-01 -1.08327087E-01  1.17558558E-01
 -3.76930299E-02 -2.88065043E-02  2.88256637E-02  2.34744953E+00 -4.35483515E-02
 -2.82873311E-01  4.86206058E-01  2.21940629E+01  3.55531469E+00 -2.40870488E+00
 -1.88425346E+00 -4.53796226E-03 -3.92050610E-03  5.60593917E-03 -2.40330365E-03
 -7.07147044E-03 -6.46396640E-03 -6.90471629E-02 -1.82077296E+00 -4.90324611E-02
 -1.71847564E+00  1.08327087E-01 -1.17558558E-01 -3.76930299E-02 -2.88065043E-02
 -2.88256637E-02 -2.34744953E+00 -4.35483515E-02 -2.82873311E-01 -4.86206058E-01
 -2.21940629E+01  3.55531469E+00 -2.40870488E+00  1.88425346E+00  4.53796226E-03
  3.92050610E-03 -5.60593917E-03  2.40330365E-03 -7.07147044E-03 -6.46396640E-03
  6.90471629E-02  1.82077296E+00  4.90324611E-02  1.71847564E+00  3.65786200E-06
 -9.44129611E-03  2.71889630E-02  8.88710841E-03  1.03711285E-01 -1.34887402E-01
  2.62233777E-01  1.75691751E-01  6.74063698E-01  3.09923798E+00  4.01716838E-01
  2.65212082E-01  5.21883130E-01  5.62146803E-03 -6.99538748E-03 -4.09979549E-03
  7.06968046E-03  5.21197327E-04 -1.75878906E-02 -1.37137064E-02  1.48360582E-01
  5.03358911E-02  6.87030954E-01  4.72012694E-02  8.74435455E-01 -9.98416100E-02
  9.92865879E-02 -1.32785160E-03  4.16140613E-02 -2.53698934E-02  2.27216208E+00
  1.59852294E-01  1.45925118E-01 -1.53719381E-01  1.54978912E+01  1.05976229E-01
 -3.00048448E+00  3.06481516E+00 -5.00880131E-03 -4.45548135E-03  4.91016369E-03
 -5.13917104E-03 -2.74938576E-03 -5.04741294E-03 -4.79287219E-02 -1.49269831E+00
 -5.91712850E-02 -1.46057476E+00 -7.48281521E-02 -1.79941717E+00  5.87681828E-02
 -3.60680061E-02 -1.67034421E-02 -5.05170712E-03 -9.09342683E-03 -1.28122261E+00
 -1.15705506E-01 -2.20699132E-01  2.19876410E-01 -1.24474682E+01  4.27925766E-01
 -2.59414226E+00  2.98463762E+00 -1.24246307E-03  8.92521101E-03  1.48806446E-03
 -5.51722143E-03 -3.49898575E-03 -5.32855048E-03 -3.26269928E-03  3.79538667E-01
  2.21698678E-02  5.25278088E-01 -5.87681828E-02  3.60680061E-02 -1.67034421E-02
 -5.05170712E-03  9.09342683E-03  1.28122261E+00 -1.15705506E-01 -2.20699132E-01
 -2.19876410E-01  1.24474682E+01  4.27925766E-01 -2.59414226E+00 -2.98463762E+00
  1.24246307E-03 -8.92521101E-03 -1.48806446E-03  5.51722143E-03 -3.49898575E-03
 -5.32855048E-03  3.26269928E-03 -3.79538667E-01 -2.21698678E-02 -5.25278088E-01
  9.98416100E-02 -9.92865879E-02 -1.32785160E-03  4.16140613E-02  2.53698934E-02
 -2.27216208E+00  1.59852294E-01  1.45925118E-01  1.53719381E-01 -1.54978912E+01
  1.05976229E-01 -3.00048448E+00 -3.06481516E+00  5.00880131E-03  4.45548135E-03
 -4.91016369E-03  5.13917104E-03 -2.74938576E-03 -5.04741294E-03  4.79287219E-02
  1.49269831E+00  7.48281521E-02  1.79941717E+00  5.91712850E-02  1.46057476E+00
  2.65046999E-02  1.66905987E-02  4.15635750E-02  9.28561745E-02 -8.25998223E-02
 -6.48245066E-01  2.58924273E-01  5.34664671E-01 -6.89779658E-01 -1.56973941E+01
 -6.00457976E-01  2.54342345E+00 -3.27054536E+00  5.46028445E-03  1.03728522E-03
  7.27854081E-03 -3.39897415E-03 -1.40485296E-02 -1.09893449E-03  8.31632752E-03
 -4.26087076E-02 -7.30815833E-03 -3.76486179E-01  9.75371270E-04 -7.39759881E-01
 -6.21641351E-02  1.13224977E-01 -1.48724565E-01 -7.61594084E-03  3.14953650E-02
  1.42957609E+00 -9.63460840E-01  3.75114447E-01  1.84196202E-01  1.76486290E+01
  1.62955420E+00  2.91349255E+00 -4.33101541E+00  1.02517793E-02  6.76977633E-03
  1.78231763E-03 -1.64650307E-02 -1.84918141E-03 -3.56014549E-03 -7.36325245E-02
 -2.60338947E+00 -6.48987419E-02 -2.06515409E+00 -6.21641351E-02  1.13224977E-01
  1.48724565E-01  7.61594084E-03  3.14953650E-02  1.42957609E+00  9.63460840E-01
 -3.75114447E-01  1.84196202E-01  1.76486290E+01 -1.62955420E+00 -2.91349255E+00
 -4.33101541E+00  1.02517793E-02  6.76977633E-03  1.78231763E-03 -1.64650307E-02
  1.84918141E-03  3.56014549E-03 -7.36325245E-02 -2.60338947E+00 -6.48987419E-02
 -2.06515409E+00  2.65046999E-02  1.66905987E-02 -4.15635750E-02 -9.28561745E-02
 -8.25998223E-02 -6.48245066E-01 -2.58924273E-01 -5.34664671E-01 -6.89779658E-01
 -1.56973941E+01  6.00457976E-01 -2.54342345E+00 -3.27054536E+00  5.46028445E-03
  1.03728522E-03  7.27854081E-03 -3.39897415E-03  1.40485296E-02  1.09893449E-03
  8.31632752E-03 -4.26087076E-02  9.75371270E-04 -7.39759881E-01 -7.30815833E-03
 -3.76486179E-01 -1.35735862E-02 -1.15038006E-01 -3.04729004E-01  4.62532561E-01
 -2.71324298E-02  5.38576000E-01  3.68212693E-01 -7.64125530E-01  1.49207861E-01
  1.71003413E+00 -2.22618538E-01  2.74480220E-02  2.33270031E-01  1.33617271E-02
  9.41970073E-03 -4.74040200E-02 -3.63240261E-02 -9.21902512E-03 -2.10462714E-04
  1.88293922E-01 -2.72227540E-01 -1.57541765E-01  2.31142630E-02 -1.17193144E-02
  7.82509179E-02 -1.31641302E-03 -4.02933836E-02  6.70056273E-02  1.95205780E-01
  2.52987132E-01 -1.77930016E-01 -9.80753102E-02 -2.22211425E-01 -4.73525935E-02
 -1.67070260E+00  4.00263742E-02 -1.30056549E-01  6.65352803E-01 -1.44685177E-02
 -7.73555678E-03  3.12153160E-03  1.19658014E-04 -8.81674188E-03  6.85771868E-02
 -3.49803117E-02  2.82706692E-01  1.89857879E-01 -2.51370755E-01 -1.31641302E-03
 -4.02933836E-02 -6.70056273E-02 -1.95205780E-01  2.52987132E-01 -1.77930016E-01
  9.80753102E-02  2.22211425E-01 -4.73525935E-02 -1.67070260E+00 -4.00263742E-02
  1.30056549E-01  6.65352803E-01 -1.44685177E-02 -7.73555678E-03  3.12153160E-03
  1.19658014E-04  8.81674188E-03 -6.85771868E-02 -3.49803117E-02  2.82706692E-01
  1.89857879E-01 -2.51370755E-01 -1.35735862E-02 -1.15038006E-01  3.04729004E-01
 -4.62532561E-01 -2.71324298E-02  5.38576000E-01 -3.68212693E-01  7.64125530E-01
  1.49207861E-01  1.71003413E+00  2.22618538E-01 -2.74480220E-02  2.33270031E-01
  1.33617271E-02  9.41970073E-03 -4.74040200E-02 -3.63240261E-02  9.21902512E-03
  2.10462714E-04  1.88293922E-01 -2.72227540E-01 -1.17193144E-02  7.82509179E-02
 -1.57541765E-01  2.31142630E-02 -6.08372158E-03  1.07833044E-01  4.05852252E-01
 -2.69866472E-02  1.30888627E-01 -2.67121528E-01 -6.35639175E-01  8.36750849E-02
 -2.52468142E-01  2.27904836E+00  2.04134735E-01 -6.22134099E-01  4.13558765E-01
  2.42548905E-02 -2.36417198E-03 -1.24255347E-02  5.08167331E-02 -1.24644195E-02
 -9.52506812E-03 -1.10157107E-01  8.39990279E-02 -1.26521831E-01 -4.00781635E-02
  2.24034573E-01 -1.83346991E-01  3.22919947E-03 -1.32567296E-01  7.56989340E-02
  3.37087638E-01  2.75096536E-01  7.32225830E-01  2.79650947E-01 -5.05297359E-01
 -4.88377700E-01 -2.18589797E+00  7.45525321E-02 -9.77328203E-02  1.10957608E+00
 -3.98586669E-02  1.59475803E-02  2.53765205E-02 -4.42661562E-02  8.44129428E-03
  1.46483099E-02 -2.17655074E-01  3.17963821E-01  1.57874691E-01 -1.94403724E-01
 -3.22919947E-03  1.32567296E-01  7.56989340E-02  3.37087638E-01 -2.75096536E-01
 -7.32225830E-01  2.79650947E-01 -5.05297359E-01  4.88377700E-01  2.18589797E+00
  7.45525321E-02 -9.77328203E-02 -1.10957608E+00  3.98586669E-02 -1.59475803E-02
 -2.53765205E-02  4.42661562E-02  8.44129428E-03  1.46483099E-02  2.17655074E-01
 -3.17963821E-01 -1.57874691E-01  1.94403724E-01  6.08372158E-03 -1.07833044E-01
  4.05852252E-01 -2.69866472E-02 -1.30888627E-01  2.67121528E-01 -6.35639175E-01
  8.36750849E-02  2.52468142E-01 -2.27904836E+00  2.04134735E-01 -6.22134099E-01
 -4.13558765E-01 -2.42548905E-02  2.36417198E-03  1.24255347E-02 -5.08167331E-02
 -1.24644195E-02 -9.52506812E-03  1.10157107E-01 -8.39990279E-02 -2.24034573E-01
  1.83346991E-01  1.26521831E-01  4.00781635E-02  9.89251916E-03  2.71937108E-02
 -1.61208426E-01 -1.02404936E-01  4.01186124E-01  1.60461090E-01  1.45845520E-01
  3.11330393E-01 -7.37086401E-01 -2.21740690E+00 -8.67638867E-03  7.63802595E-02
 -1.47051900E-01 -1.58771109E-02  2.18524221E-02  1.78047245E-02 -2.77608387E-02
  1.35942602E-03 -6.47962428E-02  6.36360605E-02 -2.10525670E-01 -1.60688120E-01
 -2.43322894E-02 -1.25951106E-01  4.62931238E-04 -4.09646007E-03 -2.69831577E-02
 -2.27995118E-01  3.37586745E-01 -2.01323108E-01  1.55727754E-01  2.22873906E-01
 -5.26753634E-01  2.81907149E-01  2.29215827E+00 -1.55878840E-01  1.19101177E+00
 -7.70311859E-01 -4.34341830E-02 -1.43107261E-02  4.92748825E-02  4.87293875E-02
  6.92362302E-03 -5.32018290E-02  1.43343992E-02 -2.27566132E-01 -4.47462521E-02
 -8.02883104E-02 -4.09646007E-03 -2.69831577E-02  2.27995118E-01 -3.37586745E-01
 -2.01323108E-01  1.55727754E-01 -2.22873906E-01  5.26753634E-01  2.81907149E-01
  2.29215827E+00  1.55878840E-01 -1.19101177E+00 -7.70311859E-01 -4.34341830E-02
 -1.43107261E-02  4.92748825E-02  4.87293875E-02 -6.92362302E-03  5.32018290E-02
  1.43343992E-02 -2.27566132E-01 -4.47462521E-02 -8.02883104E-02  9.89251916E-03
  2.71937108E-02  1.61208426E-01  1.02404936E-01  4.01186124E-01  1.60461090E-01
 -1.45845520E-01 -3.11330393E-01 -7.37086401E-01 -2.21740690E+00  8.67638867E-03
 -7.63802595E-02 -1.47051900E-01 -1.58771109E-02  2.18524221E-02  1.78047245E-02
 -2.77608387E-02 -1.35942602E-03  6.47962428E-02  6.36360605E-02 -2.10525670E-01
 -1.25951106E-01  4.62931238E-04 -1.60688120E-01 -2.43322894E-02 -1.19330089E-02
  2.96731139E-02  2.46711383E-01  2.28952431E-01 -4.03902562E-01 -3.16544195E-01
 -4.62898641E-01 -3.11894093E-01  6.22525495E-01  3.35544996E+00  1.46408768E-01
 -3.82660124E-01  2.53566021E-01  3.35088892E-02 -1.74412969E-02 -2.88993125E-02
  1.99958517E-02  1.05522123E-02  5.16134343E-02  1.43729043E-02 -5.20452119E-02
  7.03492876E-02 -5.25618070E-02  1.10908532E-01 -5.97084112E-02 -1.66103074E-02
 -3.89173420E-02 -2.12248025E-01 -2.15407553E-01  2.82946443E-01 -3.19549196E-02
  4.85867100E-01  1.87077424E-01 -7.77571977E-01 -1.57997071E+00  1.97162491E-01
 -1.08536238E+00  1.59754676E+00  4.31618488E-02 -2.27407965E-02 -4.94309436E-02
  2.24684963E-02  2.51645539E-02  5.21524409E-02  1.68712071E-01 -5.89595033E-02
 -6.59577983E-03  2.24901044E-01  1.66103074E-02  3.89173420E-02 -2.12248025E-01
 -2.15407553E-01 -2.82946443E-01  3.19549196E-02  4.85867100E-01  1.87077424E-01
  7.77571977E-01  1.57997071E+00  1.97162491E-01 -1.08536238E+00 -1.59754676E+00
 -4.31618488E-02  2.27407965E-02  4.94309436E-02 -2.24684963E-02  2.51645539E-02
  5.21524409E-02 -1.68712071E-01  5.89595033E-02  6.59577983E-03 -2.24901044E-01
  1.19330089E-02 -2.96731139E-02  2.46711383E-01  2.28952431E-01  4.03902562E-01
  3.16544195E-01 -4.62898641E-01 -3.11894093E-01 -6.22525495E-01 -3.35544996E+00
  1.46408768E-01 -3.82660124E-01 -2.53566021E-01 -3.35088892E-02  1.74412969E-02
  2.88993125E-02 -1.99958517E-02  1.05522123E-02  5.16134343E-02 -1.43729043E-02
  5.20452119E-02 -1.10908532E-01  5.97084112E-02 -7.03492876E-02  5.25618070E-02
  5.58309652E-03  1.75543520E-02 -2.37375979E-01 -1.73208286E-01 -3.52406582E-01
 -1.41734703E-01  1.59227236E-01  2.97436205E-01  8.04699782E-01  2.84240017E-01
 -6.83389059E-02 -1.50488442E-01 -1.90756108E-01 -2.44704421E-02  1.51976495E-02
  1.87272263E-02 -2.40727466E-02  2.46779320E-02  3.31393557E-02  9.71300000E-02
 -9.98119677E-02  1.91734331E-01  2.58567891E-01 -1.30535316E-01  3.10917311E-01
 -1.26863193E-02  2.44515162E-02 -4.52967076E-01  1.93542565E-02  7.01296481E-02
 -4.15754771E-01  8.18566464E-01 -1.42682355E-01 -2.14794649E-01 -3.27827588E-01
 -6.85251014E-01 -1.35545964E-01  2.81765466E-01 -1.27809042E-02  7.69446980E-03
 -1.43877901E-02  7.17466698E-02  3.05726210E-04  3.30344273E-02  1.69922451E-01
  8.23817608E-02  7.42662183E-02  1.55642159E-01 -1.26863193E-02  2.44515162E-02
  4.52967076E-01 -1.93542565E-02  7.01296481E-02 -4.15754771E-01 -8.18566464E-01
  1.42682355E-01 -2.14794649E-01 -3.27827588E-01  6.85251014E-01  1.35545964E-01
  2.81765466E-01 -1.27809042E-02  7.69446980E-03 -1.43877901E-02  7.17466698E-02
 -3.05726210E-04 -3.30344273E-02  1.69922451E-01  8.23817608E-02  7.42662183E-02
  1.55642159E-01  5.58309652E-03  1.75543520E-02  2.37375979E-01  1.73208286E-01
 -3.52406582E-01 -1.41734703E-01 -1.59227236E-01 -2.97436205E-01  8.04699782E-01
  2.84240017E-01  6.83389059E-02  1.50488442E-01 -1.90756108E-01 -2.44704421E-02
  1.51976495E-02  1.87272263E-02 -2.40727466E-02 -2.46779320E-02 -3.31393557E-02
  9.71300000E-02 -9.98119677E-02 -1.30535316E-01  3.10917311E-01  1.91734331E-01
  2.58567891E-01  1.77580758E-02 -9.79755762E-02  1.49692164E-01  4.94707297E-01
 -8.12688890E-02  4.36164381E-01 -2.28089030E-01 -1.04606095E+00  2.06066465E-01
 -1.34685681E+00 -1.19248744E-01  7.17383664E-01 -9.53122484E-02  2.45550241E-02
  5.33963579E-03 -7.73455752E-03 -1.32549575E-02  6.79628559E-03 -5.14285824E-02
  5.96863818E-02  1.41417104E-02 -8.09053462E-02  1.06122423E-01  1.24164732E-01
  1.91258055E-01 -2.44770860E-02  2.65042389E-01  4.12991789E-01 -1.19533615E-01
 -3.93180411E-01 -1.27777004E+00 -9.41898940E-01  4.19166199E-01  1.11424130E+00
  4.02596246E+00  8.84288208E-01 -5.59649252E-01 -4.94985058E-01  2.18201771E-03
 -3.52808693E-02  1.04713752E-02  3.62178793E-02 -4.45782666E-03  2.17802541E-02
 -1.05313779E-01 -1.79313030E-01 -2.63457529E-02 -3.29625323E-01  2.44770860E-02
 -2.65042389E-01  4.12991789E-01 -1.19533615E-01  3.93180411E-01  1.27777004E+00
 -9.41898940E-01  4.19166199E-01 -1.11424130E+00 -4.02596246E+00  8.84288208E-01
 -5.59649252E-01  4.94985058E-01 -2.18201771E-03  3.52808693E-02 -1.04713752E-02
 -3.62178793E-02 -4.45782666E-03  2.17802541E-02  1.05313779E-01  1.79313030E-01
  2.63457529E-02  3.29625323E-01 -1.77580758E-02  9.79755762E-02  1.49692164E-01
  4.94707297E-01  8.12688890E-02 -4.36164381E-01 -2.28089030E-01 -1.04606095E+00
 -2.06066465E-01  1.34685681E+00 -1.19248744E-01  7.17383664E-01  9.53122484E-02
 -2.45550241E-02 -5.33963579E-03  7.73455752E-03  1.32549575E-02  6.79628559E-03
 -5.14285824E-02 -5.96863818E-02 -1.41417104E-02 -1.24164732E-01 -1.91258055E-01
  8.09053462E-02 -1.06122423E-01 -5.39457617E-03  5.24203478E-02 -5.10119387E-01
 -1.17124453E-01 -1.75140579E-01  3.00515387E-01  1.32535164E+00  1.58392266E-01
  2.91846975E-01  2.63667848E+00 -4.55517431E-01 -4.58939867E-01  6.72441903E-01
 -3.69660766E-02  1.02579248E-02  4.69332873E-02 -1.54267984E-02 -3.49400073E-02
 -1.36571628E-03 -9.40277262E-03  2.36693011E-01  8.05628529E-02 -1.54426613E-01
 -1.48285970E-01 -5.13468258E-01  5.58696417E-03 -4.29581605E-02  3.77857809E-01
  3.32143330E-02 -2.31261403E-01  3.81311518E-01 -1.23150253E+00 -3.34716286E-01
  5.05847929E-01 -2.51585484E+00  4.71095766E-01 -9.43159086E-01  3.58474236E-01
  1.72370054E-02  8.25766678E-03 -2.26226653E-02 -5.71753358E-02 -2.47318731E-02
 -1.14351310E-02 -9.87878437E-02 -5.39797416E-01 -1.81083109E-01 -1.65839103E-02
  5.58696417E-03 -4.29581605E-02 -3.77857809E-01 -3.32143330E-02 -2.31261403E-01
  3.81311518E-01  1.23150253E+00  3.34716286E-01  5.05847929E-01 -2.51585484E+00
 -4.71095766E-01  9.43159086E-01  3.58474236E-01  1.72370054E-02  8.25766678E-03
 -2.26226653E-02 -5.71753358E-02  2.47318731E-02  1.14351310E-02 -9.87878437E-02
 -5.39797416E-01 -1.81083109E-01 -1.65839103E-02 -5.39457617E-03  5.24203478E-02
  5.10119387E-01  1.17124453E-01 -1.75140579E-01  3.00515387E-01 -1.32535164E+00
 -1.58392266E-01  2.91846975E-01  2.63667848E+00  4.55517431E-01  4.58939867E-01
  6.72441903E-01 -3.69660766E-02  1.02579248E-02  4.69332873E-02 -1.54267984E-02
  3.49400073E-02  1.36571628E-03 -9.40277262E-03  2.36693011E-01 -1.48285970E-01
 -5.13468258E-01  8.05628529E-02 -1.54426613E-01 -5.11639518E-03  6.89379863E-02
  7.82369383E-02  2.50990338E-01  5.81274485E-01 -3.15380577E-01 -2.29307539E-01
 -5.51882177E-01 -1.22632454E+00 -5.52097853E-01 -1.79108771E-02  5.90085024E-01
  5.08581482E-01  5.74418999E-02 -2.86726947E-02 -3.41374620E-02 -1.98270451E-02
 -1.01959803E-03 -1.03883278E-02  1.05427517E-01  1.73146698E-02 -1.60739958E-01
 -2.64744453E-01  1.41825048E-02  1.15280618E-01  1.68962798E-02 -7.08208666E-02
 -3.36084022E-01 -2.38852928E-01  7.55152658E-02  3.85466408E-01  4.99819881E-01
  6.56847862E-01  6.00064680E-03  4.71107128E+00  9.44662983E-01 -1.10668391E+00
 -3.18634578E-01  2.45708549E-02 -7.62964025E-03  8.18505189E-03  6.59371639E-04
 -7.82444563E-04 -3.23011595E-02  1.06860859E-01  9.94705163E-02 -8.01414569E-04
 -2.20022086E-01 -1.68962798E-02  7.08208666E-02 -3.36084022E-01 -2.38852928E-01
 -7.55152658E-02 -3.85466408E-01  4.99819881E-01  6.56847862E-01 -6.00064680E-03
 -4.71107128E+00  9.44662983E-01 -1.10668391E+00  3.18634578E-01 -2.45708549E-02
  7.62964025E-03 -8.18505189E-03 -6.59371639E-04 -7.82444563E-04 -3.23011595E-02
 -1.06860859E-01 -9.94705163E-02  8.01414569E-04  2.20022086E-01  5.11639518E-03
 -6.89379863E-02  7.82369383E-02  2.50990338E-01 -5.81274485E-01  3.15380577E-01
 -2.29307539E-01 -5.51882177E-01  1.22632454E+00  5.52097853E-01 -1.79108771E-02
  5.90085024E-01 -5.08581482E-01 -5.74418999E-02  2.86726947E-02  3.41374620E-02
  1.98270451E-02 -1.01959803E-03 -1.03883278E-02 -1.05427517E-01 -1.73146698E-02
 -1.41825048E-02 -1.15280618E-01  1.60739958E-01  2.64744453E-01  1.99479095E-02
 -1.02472397E-01  1.93795056E-01  3.08741262E-01 -3.69496713E-01  7.74731177E-01
 -4.17769434E-01 -8.28521918E-01  1.08544468E+00  8.00755768E-01  3.60460177E-01
 -8.66002604E-02  3.92086116E-02 -1.03130909E-02  1.07720691E-02  3.15837870E-02
  2.48781145E-02  1.15351211E-02 -5.47257853E-02  4.15507888E-03  1.08351786E-01
  7.60625174E-02  1.93166159E-01  1.45119394E-01  2.61822163E-01 -1.50222525E-02
  1.38780547E-01 -1.46810122E-02  3.99487980E-01 -4.77868963E-01 -9.89830005E-01
  8.01352891E-02 -9.90886042E-01  9.98547718E-01 -9.67446711E-01 -4.10122759E-01
  2.79714294E-01  2.11463314E-01  9.85512654E-03 -1.71503619E-02 -1.54213814E-02
  1.80650608E-02 -3.25187322E-03  4.29961890E-02 -1.93360322E-02  8.06990964E-02
 -5.85867097E-02  1.38692489E-02 -1.50222525E-02  1.38780547E-01  1.46810122E-02
 -3.99487980E-01 -4.77868963E-01 -9.89830005E-01 -8.01352891E-02  9.90886042E-01
  9.98547718E-01 -9.67446711E-01  4.10122759E-01 -2.79714294E-01  2.11463314E-01
  9.85512654E-03 -1.71503619E-02 -1.54213814E-02  1.80650608E-02  3.25187322E-03
 -4.29961890E-02 -1.93360322E-02  8.06990964E-02 -5.85867097E-02  1.38692489E-02
  1.99479095E-02 -1.02472397E-01 -1.93795056E-01 -3.08741262E-01 -3.69496713E-01
  7.74731177E-01  4.17769434E-01  8.28521918E-01  1.08544468E+00  8.00755768E-01
 -3.60460177E-01  8.66002604E-02  3.92086116E-02 -1.03130909E-02  1.07720691E-02
  3.15837870E-02  2.48781145E-02 -1.15351211E-02  5.47257853E-02  4.15507888E-03
  1.08351786E-01  1.45119394E-01  2.61822163E-01  7.60625174E-02  1.93166159E-01
 -1.70245238E-02 -1.21248902E-02 -7.03340692E-02 -1.89077650E-01  1.59326647E-01
 -5.70808584E-01  2.98276295E-01  6.69574257E-01 -7.18895499E-01  2.41613731E+00
 -3.11657150E-01 -3.21516575E-01  5.63258298E-01  1.05689047E-02 -1.75935358E-02
 -3.48675377E-02  1.76763586E-02 -7.58559763E-03  4.21658205E-02 -1.63128222E-01
 -5.57881129E-02 -4.76381924E-02 -7.64741238E-02 -5.47993264E-03 -2.78888156E-01
 -1.14762556E-02  1.36376531E-02  4.85960494E-01 -5.16018760E-01  3.67817722E-01
 -4.44203343E-01 -1.43449753E+00  1.51036092E+00 -1.15210607E+00 -3.73035838E-01
  8.63410193E-01 -1.13835101E+00  1.31192144E+00 -4.88527834E-02 -9.89681405E-03
  3.25553345E-02  4.80186418E-02  9.02737702E-03 -1.17207264E-02 -4.50937394E-02
 -1.00284101E-01 -4.16577053E-02  6.26879814E-02  1.14762556E-02 -1.36376531E-02
  4.85960494E-01 -5.16018760E-01 -3.67817722E-01  4.44203343E-01 -1.43449753E+00
  1.51036092E+00  1.15210607E+00  3.73035838E-01  8.63410193E-01 -1.13835101E+00
 -1.31192144E+00  4.88527834E-02  9.89681405E-03 -3.25553345E-02 -4.80186418E-02
  9.02737702E-03 -1.17207264E-02  4.50937394E-02  1.00284101E-01  4.16577053E-02
 -6.26879814E-02  1.70245238E-02  1.21248902E-02 -7.03340692E-02 -1.89077650E-01
 -1.59326647E-01  5.70808584E-01  2.98276295E-01  6.69574257E-01  7.18895499E-01
 -2.41613731E+00 -3.11657150E-01 -3.21516575E-01 -5.63258298E-01 -1.05689047E-02
  1.75935358E-02  3.48675377E-02 -1.76763586E-02 -7.58559763E-03  4.21658205E-02
  1.63128222E-01  5.57881129E-02  5.47993264E-03  2.78888156E-01  4.76381924E-02
  7.64741238E-02 -6.85832603E-03 -2.81441046E-01  1.38957549E-01 -4.03855073E-01
 -2.21091798E-01  9.46670576E-01 -2.04184956E-01  1.42230174E+00  9.85356665E-01
 -3.48412549E+00 -1.00625383E-01  7.06132506E-01 -6.70618242E-01 -3.37442989E-02
  6.63628935E-02 -7.56087604E-02  1.01319135E-02  1.38526527E-02 -2.63028509E-02
 -3.97678631E-02 -8.85999611E-01 -1.35327455E-01  9.15608009E-01 -8.45901816E-03
 -4.51958771E-01 -3.53599825E-03  3.30269906E-02  2.30875670E-01  4.71005449E-01
  3.55453433E-01 -3.90435578E-01 -1.03833099E+00 -1.92398579E+00 -7.85442130E-01
  3.63023547E+00 -1.37309595E-03  3.32368719E-01 -9.93616414E-01 -1.92963339E-02
 -4.45371715E-02  5.92933609E-02  6.66655481E-04  1.41709694E-02  2.90173602E-03
 -9.04481317E-02 -1.11212008E+00  3.73325245E-02  7.78123169E-01 -3.53599825E-03
  3.30269906E-02 -2.30875670E-01 -4.71005449E-01  3.55453433E-01 -3.90435578E-01
  1.03833099E+00  1.92398579E+00 -7.85442130E-01  3.63023547E+00  1.37309595E-03
 -3.32368719E-01 -9.93616414E-01 -1.92963339E-02 -4.45371715E-02  5.92933609E-02
  6.66655481E-04 -1.41709694E-02 -2.90173602E-03 -9.04481317E-02 -1.11212008E+00
  3.73325245E-02  7.78123169E-01 -6.85832603E-03 -2.81441046E-01 -1.38957549E-01
  4.03855073E-01 -2.21091798E-01  9.46670576E-01  2.04184956E-01 -1.42230174E+00
  9.85356665E-01 -3.48412549E+00  1.00625383E-01 -7.06132506E-01 -6.70618242E-01
 -3.37442989E-02  6.63628935E-02 -7.56087604E-02  1.01319135E-02 -1.38526527E-02
  2.63028509E-02 -3.97678631E-02 -8.85999611E-01 -8.45901816E-03 -4.51958771E-01
 -1.35327455E-01  9.15608009E-01  1.85223014E-02  1.76984030E-01 -4.38791428E-01
  2.40062142E-01 -1.33822331E-02 -1.03995953E+00  1.61020149E+00 -3.34809297E-01
 -4.31972655E-03  4.58626359E+00 -6.67549895E-04 -8.52004481E-01  9.81982482E-01
  3.68013638E-02  3.33885183E-02 -3.89231796E-02 -4.33246320E-02 -9.01068552E-02
  2.32893469E-02  3.55379446E-01  4.72101860E-01 -4.23053784E-02  1.90478048E-01
  5.21527868E-02 -8.17910041E-01  4.98905832E-03  2.50819410E-01  1.39334666E-01
  2.55620295E-01  3.63320993E-01 -1.16943530E+00 -1.03711629E+00 -1.21280470E-01
 -1.50935615E+00  2.05252892E+00  1.42797661E+00 -1.96566052E+00  9.02274689E-01
  8.93147747E-03 -6.84196483E-03  2.76943897E-02 -6.26729159E-03  3.89029861E-02
  3.96844139E-02 -1.65101688E-02 -4.30556402E-01  1.41600873E-01  7.49417908E-01
 -4.98905832E-03 -2.50819410E-01  1.39334666E-01  2.55620295E-01 -3.63320993E-01
  1.16943530E+00 -1.03711629E+00 -1.21280470E-01  1.50935615E+00 -2.05252892E+00
  1.42797661E+00 -1.96566052E+00 -9.02274689E-01 -8.93147747E-03  6.84196483E-03
 -2.76943897E-02  6.26729159E-03  3.89029861E-02  3.96844139E-02  1.65101688E-02
  4.30556402E-01 -1.41600873E-01 -7.49417908E-01 -1.85223014E-02 -1.76984030E-01
 -4.38791428E-01  2.40062142E-01  1.33822331E-02  1.03995953E+00  1.61020149E+00
 -3.34809297E-01  4.31972655E-03 -4.58626359E+00 -6.67549895E-04 -8.52004481E-01
 -9.81982482E-01 -3.68013638E-02 -3.33885183E-02  3.89231796E-02  4.33246320E-02
 -9.01068552E-02  2.32893469E-02 -3.55379446E-01 -4.72101860E-01 -5.21527868E-02
  8.17910041E-01  4.23053784E-02 -1.90478048E-01 -3.07744123E-03 -1.12998173E-01
  2.59713947E-01  2.48929705E-01  1.43862568E-01  1.62874446E-01 -4.22524249E-01
 -2.92924797E-01 -2.13568395E-01  4.18888791E-01 -1.50499039E-01 -1.32275733E-01
  2.20386162E-02 -9.26583139E-02 -3.15373019E-02  1.04813345E-01 -8.69919139E-02
  4.58655140E-02  7.45765010E-02  1.59614148E-02 -1.59298757E-01  3.45035023E-01
 -7.98232714E-01 -4.69038494E-01  9.71083837E-01 -7.28440612E-03 -1.13915246E-01
  1.60173613E-01  2.06883439E-01  2.06601749E-01  1.83748451E-01 -4.09218856E-01
 -4.78295897E-01 -3.41346672E-01 -4.99960402E-01 -1.56489479E-01 -3.20742714E-01
  6.23598397E-02  4.29843068E-02  3.93182749E-02 -1.08048009E-01  6.05798082E-02
 -2.97517659E-02 -5.26859555E-02  2.43519331E-01 -8.23800274E-01 -3.32340183E-01
  8.62235385E-01 -7.28440612E-03 -1.13915246E-01 -1.60173613E-01 -2.06883439E-01
  2.06601749E-01  1.83748451E-01  4.09218856E-01  4.78295897E-01 -3.41346672E-01
 -4.99960402E-01  1.56489479E-01  3.20742714E-01  6.23598397E-02  4.29843068E-02
  3.93182749E-02 -1.08048009E-01  6.05798082E-02  2.97517659E-02  5.26859555E-02
  2.43519331E-01 -8.23800274E-01 -3.32340183E-01  8.62235385E-01 -3.07744123E-03
 -1.12998173E-01 -2.59713947E-01 -2.48929705E-01  1.43862568E-01  1.62874446E-01
  4.22524249E-01  2.92924797E-01 -2.13568395E-01  4.18888791E-01  1.50499039E-01
  1.32275733E-01  2.20386162E-02 -9.26583139E-02 -3.15373019E-02  1.04813345E-01
 -8.69919139E-02 -4.58655140E-02 -7.45765010E-02  1.59614148E-02 -1.59298757E-01
 -4.69038494E-01  9.71083837E-01  3.45035023E-01 -7.98232714E-01 -2.80258513E-03
  3.76583976E-02 -8.07344954E-02  3.63541041E-01  2.33697342E-01  1.94893364E-02
  1.71590245E-01 -6.91424987E-01 -3.59919761E-01 -4.56219437E-01  2.53750930E-01
 -1.86304479E-01 -2.47810397E-01 -8.67504031E-02 -5.79384089E-02  1.45655952E-01
  7.76249195E-02  3.46979138E-02  6.16701926E-02 -4.04871981E-01  9.89310059E-01
  4.54890110E-01 -1.24503088E+00 -8.50636597E-02  2.32208482E-01 -1.21756586E-02
  1.72443298E-01  1.13515728E-01  2.23638997E-01  1.74614110E-01 -2.34306406E-01
 -4.21442418E-02 -6.65503808E-01 -3.54995564E-01  3.92633702E+00  5.27789487E-01
 -5.26924037E-01 -7.39437712E-01  4.76691172E-02  5.19570277E-02 -8.82351879E-02
  3.01800191E-02  2.14779871E-04 -6.27726927E-02  1.46908479E-01 -6.52920526E-01
 -3.09428645E-01  9.61782156E-01  1.21756586E-02 -1.72443298E-01  1.13515728E-01
  2.23638997E-01 -1.74614110E-01  2.34306406E-01 -4.21442418E-02 -6.65503808E-01
  3.54995564E-01 -3.92633702E+00  5.27789487E-01 -5.26924037E-01  7.39437712E-01
 -4.76691172E-02 -5.19570277E-02  8.82351879E-02 -3.01800191E-02  2.14779871E-04
 -6.27726927E-02 -1.46908479E-01  6.52920526E-01  3.09428645E-01 -9.61782156E-01
  2.80258513E-03 -3.76583976E-02 -8.07344954E-02  3.63541041E-01 -2.33697342E-01
 -1.94893364E-02  1.71590245E-01 -6.91424987E-01  3.59919761E-01  4.56219437E-01
  2.53750930E-01 -1.86304479E-01  2.47810397E-01  8.67504031E-02  5.79384089E-02
 -1.45655952E-01 -7.76249195E-02  3.46979138E-02  6.16701926E-02  4.04871981E-01
 -9.89310059E-01  8.50636597E-02 -2.32208482E-01 -4.54890110E-01  1.24503088E+00
  2.41516265E-03 -8.65042182E-03 -4.47934652E-01  8.46291815E-02 -5.60857205E-02
  3.83812314E-02  7.31454577E-01 -1.75803295E-01  1.84391478E-01  1.34432708E+00
  3.69546146E-01 -5.19050980E-01  9.48852027E-02  4.67503304E-02 -3.62897179E-02
 -6.43128168E-03  1.61672173E-01 -5.15975729E-03 -3.22648613E-02 -4.24045191E-01
  1.03314953E+00 -5.09082570E-02  2.12676735E-01  4.42952800E-01 -1.22897462E+00
 -1.37947036E-02  1.79393788E-01 -2.50897985E-01 -1.80349765E-01 -1.12324381E-01
 -3.26483382E-01  7.30241197E-01  7.39807680E-02  3.10659305E-01 -2.98722590E-01
  1.83413229E-01 -9.96086106E-02  3.36160484E-01 -7.04710007E-02  3.54570539E-02
  4.17002841E-02 -6.36347276E-02  5.96599779E-02  2.31802061E-02 -3.12474961E-01
  1.13238172E+00  1.40587841E-01 -4.63187183E-01  1.37947036E-02 -1.79393788E-01
 -2.50897985E-01 -1.80349765E-01  1.12324381E-01  3.26483382E-01  7.30241197E-01
  7.39807680E-02 -3.10659305E-01  2.98722590E-01  1.83413229E-01 -9.96086106E-02
 -3.36160484E-01  7.04710007E-02 -3.54570539E-02 -4.17002841E-02  6.36347276E-02
  5.96599779E-02  2.31802061E-02  3.12474961E-01 -1.13238172E+00 -1.40587841E-01
  4.63187183E-01 -2.41516265E-03  8.65042182E-03 -4.47934652E-01  8.46291815E-02
  5.60857205E-02 -3.83812314E-02  7.31454577E-01 -1.75803295E-01 -1.84391478E-01
 -1.34432708E+00  3.69546146E-01 -5.19050980E-01 -9.48852027E-02 -4.67503304E-02
  3.62897179E-02  6.43128168E-03 -1.61672173E-01 -5.15975729E-03 -3.22648613E-02
  4.24045191E-01 -1.03314953E+00 -4.42952800E-01  1.22897462E+00  5.09082570E-02
 -2.12676735E-01  5.28906440E-02  5.68757696E-01  1.30278941E-01 -1.78252688E-01
  7.72620084E-02 -1.37156581E+00 -1.06168390E-01  1.84412436E-01  5.73992904E-02
 -4.58488593E+00 -5.37601037E-01  9.10824619E-01 -8.79474641E-01  6.07176752E-02
  5.10876721E-02  1.18442869E-02 -9.09855016E-02 -1.13165648E-02 -9.40031757E-03
  5.88280937E-01 -4.96965215E-01  1.49649648E-01  3.64077182E-01  1.26455103E-01
  3.27418949E-01  3.16129652E-02  7.46215877E-01  2.16239001E-01  3.76141538E-02
 -5.08583165E-02 -9.81273270E-01 -3.73766578E-01 -1.16829557E-01 -1.90668215E-01
  5.10703458E+00  7.41442674E-01  7.60398112E-01 -1.40995440E+00  7.14814323E-02
  3.56151311E-02  4.22489046E-02 -1.10525998E-02 -4.23692723E-02 -1.76477073E-02
  2.49031100E-01 -4.86994445E-01  1.61637658E-01  7.32641794E-02  3.16129652E-02
  7.46215877E-01 -2.16239001E-01 -3.76141538E-02 -5.08583165E-02 -9.81273270E-01
  3.73766578E-01  1.16829557E-01 -1.90668215E-01  5.10703458E+00 -7.41442674E-01
 -7.60398112E-01 -1.40995440E+00  7.14814323E-02  3.56151311E-02  4.22489046E-02
 -1.10525998E-02  4.23692723E-02  1.76477073E-02  2.49031100E-01 -4.86994445E-01
  1.61637658E-01  7.32641794E-02  5.28906440E-02  5.68757696E-01 -1.30278941E-01
  1.78252688E-01  7.72620084E-02 -1.37156581E+00  1.06168390E-01 -1.84412436E-01
  5.73992904E-02 -4.58488593E+00  5.37601037E-01 -9.10824619E-01 -8.79474641E-01
  6.07176752E-02  5.10876721E-02  1.18442869E-02 -9.09855016E-02  1.13165648E-02
  9.40031757E-03  5.88280937E-01 -4.96965215E-01  1.26455103E-01  3.27418949E-01
  1.49649648E-01  3.64077182E-01  2.18261677E-02  2.10019861E-01 -2.90806079E-01
  1.25072521E-01  2.09606055E-01 -2.84810191E-01  4.83267654E-01 -1.07264216E-01
 -9.10991111E-02 -1.87210921E+00  3.41367051E-01  1.04276063E-01 -5.14353208E-01
 -3.39871286E-02  9.73679531E-03  8.01144761E-02  1.61780867E-01  1.75609179E-02
  2.14138013E-02 -4.20811348E-01  1.16950454E+00  3.68465959E-01 -5.61351996E-01
  3.50544769E-01 -6.92879106E-01  2.63141946E-02  6.46194995E-01 -4.82356643E-03
  2.06935796E-01  2.01144486E-01 -1.59081671E+00  3.53667076E-02 -6.11087915E-01
 -5.33091195E-01  1.94907057E+00 -2.83860702E-02  5.31891791E-01 -5.77397435E-01
  3.13145789E-02  6.98813211E-02  1.33929298E-02 -2.17392551E-02  6.74980445E-02
 -3.73967731E-02  7.57575586E-02  8.88826402E-02 -2.62951259E-02  9.84176335E-01
  2.63141946E-02  6.46194995E-01  4.82356643E-03 -2.06935796E-01  2.01144486E-01
 -1.59081671E+00 -3.53667076E-02  6.11087915E-01 -5.33091195E-01  1.94907057E+00
  2.83860702E-02 -5.31891791E-01 -5.77397435E-01  3.13145789E-02  6.98813211E-02
  1.33929298E-02 -2.17392551E-02 -6.74980445E-02  3.73967731E-02  7.57575586E-02
  8.88826402E-02 -2.62951259E-02  9.84176335E-01  2.18261677E-02  2.10019861E-01
  2.90806079E-01 -1.25072521E-01  2.09606055E-01 -2.84810191E-01 -4.83267654E-01
  1.07264216E-01 -9.10991111E-02 -1.87210921E+00 -3.41367051E-01 -1.04276063E-01
 -5.14353208E-01 -3.39871286E-02  9.73679531E-03  8.01144761E-02  1.61780867E-01
 -1.75609179E-02 -2.14138013E-02 -4.20811348E-01  1.16950454E+00  3.50544769E-01
 -6.92879106E-01  3.68465959E-01 -5.61351996E-01  8.29644561E-03 -2.02410380E-02
  1.71772231E-01  1.70918697E-01  6.80066205E-02 -2.31730863E-01 -2.30897746E-01
 -1.34971852E-01 -2.03203400E-01  1.39104500E+00 -6.98743455E-01 -3.44039503E-01
  1.19523498E-02 -1.12204678E-01  4.64959286E-02  7.05942624E-02 -6.22082711E-02
 -1.81796443E-02  8.10281994E-02  7.94494202E-02 -7.87097728E-02  3.76918858E-01
 -6.71572839E-01 -4.02691011E-01  8.36691181E-01 -2.68419225E-03  2.04869931E-01
 -1.59925258E-01 -2.15170198E-01 -2.39923318E-02 -7.37485002E-01  1.47447512E-01
  6.25787483E-01 -3.10018220E-01 -4.06621426E-01  9.42432881E-01 -3.87826619E-01
  1.53536776E+00 -1.55615220E-01  1.02124154E-01  6.88076735E-02 -6.79017010E-02
  2.43838589E-02  6.98949498E-02 -4.67402515E-01  1.32959314E+00  3.32808156E-01
 -4.82218148E-01  2.68419225E-03 -2.04869931E-01 -1.59925258E-01 -2.15170198E-01
  2.39923318E-02  7.37485002E-01  1.47447512E-01  6.25787483E-01  3.10018220E-01
  4.06621426E-01  9.42432881E-01 -3.87826619E-01 -1.53536776E+00  1.55615220E-01
 -1.02124154E-01 -6.88076735E-02  6.79017010E-02  2.43838589E-02  6.98949498E-02
  4.67402515E-01 -1.32959314E+00 -3.32808156E-01  4.82218148E-01 -8.29644561E-03
  2.02410380E-02  1.71772231E-01  1.70918697E-01 -6.80066205E-02  2.31730863E-01
 -2.30897746E-01 -1.34971852E-01  2.03203400E-01 -1.39104500E+00 -6.98743455E-01
 -3.44039503E-01 -1.19523498E-02  1.12204678E-01 -4.64959286E-02 -7.05942624E-02
  6.22082711E-02 -1.81796443E-02  8.10281994E-02 -7.94494202E-02  7.87097728E-02
  4.02691011E-01 -8.36691181E-01 -3.76918858E-01  6.71572839E-01 -1.27709374E-03
 -1.56652566E-02  1.32503774E-01  3.10535946E-02  1.85856610E-01  3.66284470E-01
 -5.40429468E-02  1.52010183E-01  5.16146948E-02 -1.92097989E+00 -2.20862928E-01
 -1.14767437E-01 -6.18650566E-01 -1.32724458E-01  9.46855898E-02  3.71986957E-02
  3.33609838E-03  1.82028266E-02  6.54560305E-02 -5.02513484E-02 -1.11556873E-01
  4.41150565E-01 -6.03599516E-01 -2.63018482E-01  2.49006850E-01  7.58687899E-03
 -4.29752690E-02 -3.65457974E-03 -5.47228220E-02 -1.61547068E-01  1.49627145E-01
 -3.95452397E-01 -4.27540129E-01  3.28606740E-01  2.27083282E+00  6.94393185E-01
  1.28304455E+00 -3.20830064E-01 -1.03082306E-01 -4.12310167E-02  1.51099531E-01
 -5.46378933E-02 -5.71222301E-02  1.09023583E-01 -3.66843828E-01  5.41442238E-02
  5.52321010E-01 -1.12573129E+00  7.58687899E-03 -4.29752690E-02  3.65457974E-03
  5.47228220E-02 -1.61547068E-01  1.49627145E-01  3.95452397E-01  4.27540129E-01
  3.28606740E-01  2.27083282E+00 -6.94393185E-01 -1.28304455E+00 -3.20830064E-01
 -1.03082306E-01 -4.12310167E-02  1.51099531E-01 -5.46378933E-02  5.71222301E-02
 -1.09023583E-01 -3.66843828E-01  5.41442238E-02  5.52321010E-01 -1.12573129E+00
 -1.27709374E-03 -1.56652566E-02 -1.32503774E-01 -3.10535946E-02  1.85856610E-01
  3.66284470E-01  5.40429468E-02 -1.52010183E-01  5.16146948E-02 -1.92097989E+00
  2.20862928E-01  1.14767437E-01 -6.18650566E-01 -1.32724458E-01  9.46855898E-02
  3.71986957E-02  3.33609838E-03 -1.82028266E-02 -6.54560305E-02 -5.02513484E-02
 -1.11556873E-01 -2.63018482E-01  2.49006850E-01  4.41150565E-01 -6.03599516E-01
  1.83092959E-03 -7.03430516E-01 -1.11679428E-01 -1.43379010E-01  1.95400048E-01
  1.80503223E+00  2.22236874E-01  3.68788640E-01 -5.63094364E-01 -1.53634118E+00
  3.38630537E-02  2.26282243E-01 -2.92990841E-01  3.65781851E-02 -5.34962359E-02
 -5.49568039E-02  3.15785664E-02  3.33266081E-02  6.89077174E-02  1.14561779E-01
 -6.78337914E-01  2.50331247E-01 -1.12247644E+00  3.89592868E-01 -1.39481952E+00
 -1.13010784E-03 -5.58065931E-01  2.26709357E-01  2.85991057E-02 -1.68402958E-01
  1.45478629E+00 -6.15157835E-01  3.34440984E-02  4.90377886E-01  2.77535771E+00
  2.72482889E-01  3.28721433E-01 -7.13827090E-01  6.61651597E-03 -7.33569312E-03
 -4.98731573E-02  1.09979433E-01 -1.72430202E-02  8.44388394E-02  4.62712376E-01
 -1.69538329E+00  2.24683417E-01 -1.29111875E+00 -1.13010784E-03 -5.58065931E-01
 -2.26709357E-01 -2.85991057E-02 -1.68402958E-01  1.45478629E+00  6.15157835E-01
 -3.34440984E-02  4.90377886E-01  2.77535771E+00 -2.72482889E-01 -3.28721433E-01
 -7.13827090E-01  6.61651597E-03 -7.33569312E-03 -4.98731573E-02  1.09979433E-01
  1.72430202E-02 -8.44388394E-02  4.62712376E-01 -1.69538329E+00  2.24683417E-01
 -1.29111875E+00  1.83092959E-03 -7.03430516E-01  1.11679428E-01  1.43379010E-01
  1.95400048E-01  1.80503223E+00 -2.22236874E-01 -3.68788640E-01 -5.63094364E-01
 -1.53634118E+00 -3.38630537E-02 -2.26282243E-01 -2.92990841E-01  3.65781851E-02
 -5.34962359E-02 -5.49568039E-02  3.15785664E-02 -3.33266081E-02 -6.89077174E-02
  1.14561779E-01 -6.78337914E-01  3.89592868E-01 -1.39481952E+00  2.50331247E-01
 -1.12247644E+00  4.39216854E-03  2.93682865E-01 -1.05765929E-01  1.01166059E-01
  1.00146231E-01 -1.10643959E+00  3.53598261E-01 -1.58536730E-02 -4.21317128E-01
 -3.45505389E+00  1.01573670E-01  4.30929285E-01 -8.04647518E-01 -1.90740797E-02
  3.86151437E-02 -5.49283081E-04  4.64883976E-02  1.65752648E-02  6.06866199E-02
 -1.51660328E-01  6.26821682E-01  1.66863667E-01 -3.24371195E-01  4.61547358E-03
 -6.46154266E-02  7.15830912E-03 -8.69913678E-01  1.73599308E-01 -3.91368826E-04
 -2.27862437E-01  2.98195835E+00 -2.58973461E-01 -3.63731403E-02  1.99172293E-01
  1.41447920E+01  2.14888023E+00 -1.11444783E+00 -9.03873821E-01 -7.36516196E-03
 -4.11126260E-02  1.01915887E-03  4.66113533E-02  5.50363144E-02  1.07618837E-01
  4.05351800E-01 -1.56092234E+00  6.07658584E-01 -1.77910078E+00 -7.15830912E-03
  8.69913678E-01  1.73599308E-01 -3.91368826E-04  2.27862437E-01 -2.98195835E+00
 -2.58973461E-01 -3.63731403E-02 -1.99172293E-01 -1.41447920E+01  2.14888023E+00
 -1.11444783E+00  9.03873821E-01  7.36516196E-03  4.11126260E-02 -1.01915887E-03
 -4.66113533E-02  5.50363144E-02  1.07618837E-01 -4.05351800E-01  1.56092234E+00
 -6.07658584E-01  1.77910078E+00 -4.39216854E-03 -2.93682865E-01 -1.05765929E-01
  1.01166059E-01 -1.00146231E-01  1.10643959E+00  3.53598261E-01 -1.58536730E-02
  4.21317128E-01  3.45505389E+00  1.01573670E-01  4.30929285E-01  8.04647518E-01
  1.90740797E-02 -3.86151437E-02  5.49283081E-04 -4.64883976E-02  1.65752648E-02
  6.06866199E-02  1.51660328E-01 -6.26821682E-01 -4.61547358E-03  6.46154266E-02
 -1.66863667E-01  3.24371195E-01 -2.76816006E-03  8.89095288E-01  1.73020076E-03
  5.52134910E-02 -9.54402141E-02 -2.62078938E+00 -1.03144226E-01  1.53664896E-01
  1.15667336E-01 -1.04074819E+01 -1.71990955E-01  1.66538623E+00 -2.18244463E+00
 -2.86342379E-03  4.40922108E-02  3.47435962E-02  2.62804837E-02  4.96082256E-02
 -5.53787814E-02 -3.99313312E-01  1.00309981E+00 -2.63190909E-01  1.05152562E+00
 -2.04849693E-01  8.61653368E-01  1.55383064E-02 -3.07955204E-01  2.38897188E-01
  1.88877377E-02 -6.58324640E-02  1.26735169E+00 -6.17562996E-01 -2.07279984E-02
 -5.50180124E-02  1.07511363E+01  4.33774885E-01  1.77060223E+00 -2.44523793E+00
 -1.60831235E-02 -2.60496105E-03  2.32567679E-02  1.17548489E-01 -3.78431599E-03
  3.06453784E-02  4.64155847E-01 -1.74520509E+00  3.59151796E-01 -1.13188369E+00
  1.55383064E-02 -3.07955204E-01 -2.38897188E-01 -1.88877377E-02 -6.58324640E-02
  1.26735169E+00  6.17562996E-01  2.07279984E-02 -5.50180124E-02  1.07511363E+01
 -4.33774885E-01 -1.77060223E+00 -2.44523793E+00 -1.60831235E-02 -2.60496105E-03
  2.32567679E-02  1.17548489E-01  3.78431599E-03 -3.06453784E-02  4.64155847E-01
 -1.74520509E+00  3.59151796E-01 -1.13188369E+00 -2.76816006E-03  8.89095288E-01
 -1.73020076E-03 -5.52134910E-02 -9.54402141E-02 -2.62078938E+00  1.03144226E-01
 -1.53664896E-01  1.15667336E-01 -1.04074819E+01  1.71990955E-01 -1.66538623E+00
 -2.18244463E+00 -2.86342379E-03  4.40922108E-02  3.47435962E-02  2.62804837E-02
 -4.96082256E-02  5.53787814E-02 -3.99313312E-01  1.00309981E+00 -2.04849693E-01
  8.61653368E-01 -2.63190909E-01  1.05152562E+00 -4.97863687E-03 -1.21681609E+00
  8.45131126E-03 -1.34310773E-01  1.90234539E-01  3.59172632E+00 -5.10871939E-02
  2.36469154E-01 -3.02571933E-01  5.91048669E+00  5.48715833E-02 -1.10569180E+00
  1.03839398E+00  1.89595348E-02 -5.14104084E-02 -7.38557516E-02  2.08329061E-02
  4.38292270E-03  9.67638826E-02  2.98543106E-01 -1.48267106E+00  3.95156946E-01
 -1.65107784E+00  3.93418881E-01 -1.61626236E+00 -4.10797612E-03  2.42789817E-02
  1.79773083E-02  4.61741157E-02 -3.78121346E-02 -3.06018497E-01  4.43382582E-02
 -3.75546357E-01  2.82599514E-01 -3.40062487E+00  3.10933945E-01 -1.03415483E+00
  1.13898925E+00  2.51414032E-02 -2.54800642E-03 -4.01345607E-02  1.42598084E-02
  2.58580143E-02  5.16083839E-02  4.57567061E-02 -1.90866688E-01  6.23141379E-02
 -7.81215479E-02  4.10797612E-03 -2.42789817E-02  1.79773083E-02  4.61741157E-02
  3.78121346E-02  3.06018497E-01  4.43382582E-02 -3.75546357E-01 -2.82599514E-01
  3.40062487E+00  3.10933945E-01 -1.03415483E+00 -1.13898925E+00 -2.51414032E-02
  2.54800642E-03  4.01345607E-02 -1.42598084E-02  2.58580143E-02  5.16083839E-02
 -4.57567061E-02  1.90866688E-01 -6.23141379E-02  7.81215479E-02  4.97863687E-03
  1.21681609E+00  8.45131126E-03 -1.34310773E-01 -1.90234539E-01 -3.59172632E+00
 -5.10871939E-02  2.36469154E-01  3.02571933E-01 -5.91048669E+00  5.48715833E-02
 -1.10569180E+00 -1.03839398E+00 -1.89595348E-02  5.14104084E-02  7.38557516E-02
 -2.08329061E-02  4.38292270E-03  9.67638826E-02 -2.98543106E-01  1.48267106E+00
 -3.93418881E-01  1.61626236E+00 -3.95156946E-01  1.65107784E+00  9.01500076E-02
  1.13644434E+00  8.82439847E-02 -2.48669261E-01  1.25161074E-01 -2.90337195E+00
 -2.41874856E-01  5.09456352E-01 -4.40289759E-01  4.34439897E+00 -2.80040342E-02
 -8.54832634E-01  9.04575708E-01  6.06665358E-02  1.63155230E-02  8.85111121E-02
  3.02853004E-03  7.86249806E-03  1.06234107E-02  3.72788795E-01 -1.06168941E-01
  4.53361464E-01 -1.62777866E-02  4.71872792E-01  5.08595353E-02  1.33703096E-02
  4.35636476E-01  4.36086951E-02 -1.05904678E-01 -1.38277329E-01 -5.79391373E-01
 -4.10074521E-01  1.07649892E+00 -2.82151344E-01  3.02738622E-01  1.08396419E+00
 -1.56151261E+00  1.02315794E+00 -8.01609071E-03  3.80868513E-02  2.57809263E-02
 -6.50032724E-04 -1.35526568E-02 -3.35597137E-02  6.78236877E-02  2.65956097E-01
 -1.14872752E-02 -1.05537664E-01 -1.33703096E-02 -4.35636476E-01  4.36086951E-02
 -1.05904678E-01  1.38277329E-01  5.79391373E-01 -4.10074521E-01  1.07649892E+00
  2.82151344E-01 -3.02738622E-01  1.08396419E+00 -1.56151261E+00 -1.02315794E+00
  8.01609071E-03 -3.80868513E-02 -2.57809263E-02  6.50032724E-04 -1.35526568E-02
 -3.35597137E-02 -6.78236877E-02 -2.65956097E-01  1.14872752E-02  1.05537664E-01
 -9.01500076E-02 -1.13644434E+00  8.82439847E-02 -2.48669261E-01 -1.25161074E-01
  2.90337195E+00 -2.41874856E-01  5.09456352E-01  4.40289759E-01 -4.34439897E+00
 -2.80040342E-02 -8.54832634E-01 -9.04575708E-01 -6.06665358E-02 -1.63155230E-02
 -8.85111121E-02 -3.02853004E-03  7.86249806E-03  1.06234107E-02 -3.72788795E-01
  1.06168941E-01 -4.71872792E-01 -5.08595353E-02 -4.53361464E-01  1.62777866E-02
 -1.13902278E-02 -1.21933070E-01  6.13626775E-04 -3.39452660E-02 -5.57100179E-02
  4.13692400E-01 -3.86926111E-02 -2.27751544E-01  5.34700257E-02 -1.27523580E+00
 -2.32232485E-02  4.10365980E-01 -1.45215620E-01  1.54788437E-01 -3.78926513E-01
  2.06222650E-01 -9.31487691E-02 -8.18078086E-03 -4.35267161E-02  2.13249248E-02
 -3.32882439E-02 -2.04312135E-01  1.04793213E-01  6.98973307E-03  6.17543922E-02
  3.14349647E-02  2.42721194E-01  5.03168313E-02  1.16253500E-02 -1.95939480E-02
 -1.10228450E+00 -1.89529620E-01  1.35352407E-01  3.91282461E-02  3.29451602E+00
  4.63948956E-01 -3.04649979E-01 -3.08709811E-01 -2.41355598E-01  4.94019621E-01
 -2.18847795E-01  6.32476181E-02  2.07892702E-02  2.03686588E-02  2.21563719E-01
 -1.32670368E-01  1.72346952E-01 -3.83275662E-02 -3.14349647E-02 -2.42721194E-01
  5.03168313E-02  1.16253500E-02  1.95939480E-02  1.10228450E+00 -1.89529620E-01
  1.35352407E-01 -3.91282461E-02 -3.29451602E+00  4.63948956E-01 -3.04649979E-01
  3.08709811E-01  2.41355598E-01 -4.94019621E-01  2.18847795E-01 -6.32476181E-02
  2.07892702E-02  2.03686588E-02 -2.21563719E-01  1.32670368E-01 -1.72346952E-01
  3.83275662E-02  1.13902278E-02  1.21933070E-01  6.13626775E-04 -3.39452660E-02
  5.57100179E-02 -4.13692400E-01 -3.86926111E-02 -2.27751544E-01 -5.34700257E-02
  1.27523580E+00 -2.32232485E-02  4.10365980E-01  1.45215620E-01 -1.54788437E-01
  3.78926513E-01 -2.06222650E-01  9.31487691E-02 -8.18078086E-03 -4.35267161E-02
 -2.13249248E-02  3.32882439E-02 -6.98973307E-03 -6.17543922E-02  2.04312135E-01
 -1.04793213E-01 -2.74831263E-02 -3.96870959E-01  6.27567362E-02  2.59657116E-02
 -3.91836947E-02  1.26269944E+00  9.54968227E-02 -2.84309118E-01  2.15724561E-01
 -1.00679025E+00 -9.53696052E-02  1.88670181E-01 -3.14615798E-01 -1.22332474E-01
  3.68474036E-02  4.17698255E-02  5.39409966E-02 -3.40940184E-01  3.53156582E-02
  4.93048340E-02 -1.43361998E-01 -7.91388044E-02 -1.56244786E-01 -2.27888210E-01
  5.17619370E-02  3.14547640E-02  2.71161807E-01  5.46528261E-02 -5.16278277E-02
 -9.41393644E-02 -9.66497368E-01  1.40863371E-01 -7.50212855E-02  2.86115369E-01
  1.03711753E+00 -1.91668423E-02  2.52418843E-01 -1.52700394E-01  1.23576768E-02
  3.23617083E-02 -1.78526790E-02 -4.57018247E-02  4.75648069E-01 -4.56492443E-02
  2.14492713E-01  9.48548325E-02  2.10371504E-01 -1.48470879E-01  3.14547640E-02
  2.71161807E-01 -5.46528261E-02  5.16278277E-02 -9.41393644E-02 -9.66497368E-01
 -1.40863371E-01  7.50212855E-02  2.86115369E-01  1.03711753E+00  1.91668423E-02
 -2.52418843E-01 -1.52700394E-01  1.23576768E-02  3.23617083E-02 -1.78526790E-02
 -4.57018247E-02 -4.75648069E-01  4.56492443E-02  2.14492713E-01  9.48548325E-02
  2.10371504E-01 -1.48470879E-01 -2.74831263E-02 -3.96870959E-01 -6.27567362E-02
 -2.59657116E-02 -3.91836947E-02  1.26269944E+00 -9.54968227E-02  2.84309118E-01
  2.15724561E-01 -1.00679025E+00  9.53696052E-02 -1.88670181E-01 -3.14615798E-01
 -1.22332474E-01  3.68474036E-02  4.17698255E-02  5.39409966E-02  3.40940184E-01
 -3.53156582E-02  4.93048340E-02 -1.43361998E-01 -2.27888210E-01  5.17619370E-02
 -7.91388044E-02 -1.56244786E-01 -1.03527771E-01 -1.14232879E+00 -4.33153412E-02
  5.65167088E-04 -1.92260026E-02  4.45083040E+00  6.72876970E-02 -9.55521853E-01
  8.43608920E-01 -3.66005546E-01  1.07746039E-01  5.12336637E-02 -2.52023560E-01
 -2.03529685E-02 -1.17934811E-01  4.50723592E-02 -4.11344396E-02  8.31959366E-02
 -5.72865443E-03 -3.04138972E-01 -2.34151475E-01 -3.58783492E-01 -5.14273956E-01
 -3.11463776E-01 -2.83320803E-01  8.37995772E-02  1.25635372E+00  6.15557881E-02
 -1.52018287E-01 -1.25592218E-01 -3.82875153E+00  3.23739037E-01 -6.56912906E-01
  1.21747846E+00  2.46124767E-01 -9.36468864E-02  4.23781294E-01 -3.30823420E-02
  4.82113561E-02  3.51794000E-02 -2.04596417E-03 -3.41720850E-02 -2.07384724E-01
  6.28087320E-02  2.46793199E-01  7.34460873E-01  2.18598040E-01  1.60514338E-01
  8.37995772E-02  1.25635372E+00 -6.15557881E-02  1.52018287E-01 -1.25592218E-01
 -3.82875153E+00 -3.23739037E-01  6.56912906E-01  1.21747846E+00  2.46124767E-01
  9.36468864E-02 -4.23781294E-01 -3.30823420E-02  4.82113561E-02  3.51794000E-02
 -2.04596417E-03 -3.41720850E-02  2.07384724E-01 -6.28087320E-02  2.46793199E-01
  7.34460873E-01  2.18598040E-01  1.60514338E-01 -1.03527771E-01 -1.14232879E+00
  4.33153412E-02 -5.65167088E-04 -1.92260026E-02  4.45083040E+00 -6.72876970E-02
  9.55521853E-01  8.43608920E-01 -3.66005546E-01 -1.07746039E-01 -5.12336637E-02
 -2.52023560E-01 -2.03529685E-02 -1.17934811E-01  4.50723592E-02 -4.11344396E-02
 -8.31959366E-02  5.72865443E-03 -3.04138972E-01 -2.34151475E-01 -3.11463776E-01
 -2.83320803E-01 -3.58783492E-01 -5.14273956E-01  5.10476413E-02  3.40566745E-01
 -1.17304978E-01  1.30064421E-01 -7.08536009E-02 -2.41461174E+00  3.31568645E-01
  3.06843155E-01 -9.32334296E-01  6.86560465E-01  6.03475132E-02 -2.34186727E-01
  1.92272029E-01  3.81218088E-02 -7.37330268E-02  5.74657915E-02  2.32992005E-03
  3.97050938E-02  7.08162556E-02  2.73972423E-01  3.57466613E-01  1.02678957E-01
 -1.72297967E-01  1.60286644E-01 -7.71833871E-02 -1.52397217E-01 -1.73991715E+00
  1.00173134E-02 -4.55586064E-02  2.84244326E-02  6.93655620E+00  9.87037558E-01
 -4.18541219E-01 -5.17277044E-01 -7.35161771E-04  1.79414945E-02 -1.25853073E-01
  5.64800016E-02 -1.16240254E-01  1.09432805E-01 -1.07526611E-01 -3.53185410E-02
  4.99606274E-03 -3.23668903E-03 -4.79895707E-01 -5.62409275E-01 -5.16165693E-01
 -6.14270191E-01  1.52397217E-01  1.73991715E+00  1.00173134E-02 -4.55586064E-02
 -2.84244326E-02 -6.93655620E+00  9.87037558E-01 -4.18541219E-01  5.17277044E-01
  7.35161771E-04  1.79414945E-02 -1.25853073E-01 -5.64800016E-02  1.16240254E-01
 -1.09432805E-01  1.07526611E-01  3.53185410E-02  4.99606274E-03 -3.23668903E-03
  4.79895707E-01  5.62409275E-01  5.16165693E-01  6.14270191E-01 -5.10476413E-02
 -3.40566745E-01 -1.17304978E-01  1.30064421E-01  7.08536009E-02  2.41461174E+00
  3.31568645E-01  3.06843155E-01  9.32334296E-01 -6.86560465E-01  6.03475132E-02
 -2.34186727E-01 -1.92272029E-01 -3.81218088E-02  7.37330268E-02 -5.74657915E-02
 -2.32992005E-03  3.97050938E-02  7.08162556E-02 -2.73972423E-01 -3.57466613E-01
 -1.60286644E-01  7.71833871E-02 -1.02678957E-01  1.72297967E-01  7.15477601E-03
  3.75473969E-04 -1.13369366E-01  5.42104256E-02 -9.54318423E-03 -3.84088992E-01
  3.57640470E-01  4.11960965E-02 -1.31999196E-01  1.45064048E+00  2.08222547E-02
 -2.69614494E-01  2.74485148E-01  3.79054076E-02  8.88183521E-02 -1.21602265E-01
 -1.00803432E-01  5.68712074E-01 -5.41325114E-02 -3.60442452E-02  1.68566473E-01
  3.17774811E-02 -4.66191465E-02  8.67343686E-02 -2.23678557E-01  2.23743381E-02
  1.28883769E-01 -2.69803926E-02  4.43972936E-02  1.00869453E-01 -9.84199588E-01
 -7.28581421E-01  4.29096340E-01 -7.99230038E-01 -3.69936274E-01  2.73224042E-01
 -5.04356602E-01  4.44310987E-01 -7.53346352E-02  5.97166223E-02  2.97352890E-02
  6.38319484E-02 -3.45451574E-01  2.90535355E-03 -3.44591698E-02 -4.59483864E-02
  1.38748676E-01  3.25070256E-01 -2.23743381E-02 -1.28883769E-01 -2.69803926E-02
  4.43972936E-02 -1.00869453E-01  9.84199588E-01 -7.28581421E-01  4.29096340E-01
  7.99230038E-01  3.69936274E-01  2.73224042E-01 -5.04356602E-01 -4.44310987E-01
  7.53346352E-02 -5.97166223E-02 -2.97352890E-02 -6.38319484E-02 -3.45451574E-01
  2.90535355E-03  3.44591698E-02  4.59483864E-02 -1.38748676E-01 -3.25070256E-01
 -7.15477601E-03 -3.75473969E-04 -1.13369366E-01  5.42104256E-02  9.54318423E-03
  3.84088992E-01  3.57640470E-01  4.11960965E-02  1.31999196E-01 -1.45064048E+00
  2.08222547E-02 -2.69614494E-01 -2.74485148E-01 -3.79054076E-02 -8.88183521E-02
  1.21602265E-01  1.00803432E-01  5.68712074E-01 -5.41325114E-02  3.60442452E-02
 -1.68566473E-01 -8.67343686E-02  2.23678557E-01 -3.17774811E-02  4.66191465E-02
 -1.11481058E-03  2.71587833E-01  5.83276939E-02 -1.53209886E-01  4.22664109E-02
 -2.62074107E-01 -2.16786682E-01  5.25858023E-01  3.04005039E-01 -1.55632485E+00
  2.30508653E-02  2.72033153E-01 -2.61567401E-01  2.17331444E-01 -4.52892853E-01
  2.38507006E-01 -6.65368705E-02 -2.59269865E-01  6.66370033E-02 -6.43459595E-02
 -1.72206349E-01 -3.31793779E-02  4.43247086E-01  2.29342106E-03  5.22852751E-02
  4.78998685E-03 -1.91519173E-01 -9.36749551E-02  2.44542774E-01  1.47872438E-02
  2.55290604E-02 -2.57852862E-01 -1.09524496E+00 -3.04788259E-01  1.57520028E+00
 -1.00803064E-01  3.42859001E-01 -4.30639015E-01 -2.83003228E-02  3.01697616E-01
 -2.69334333E-01 -1.28390081E-01 -1.14602260E-01  1.32491807E-01 -1.06134841E-01
 -4.55268850E-01  1.95600416E-01  2.66395248E-01  4.78998685E-03 -1.91519173E-01
  9.36749551E-02 -2.44542774E-01  1.47872438E-02  2.55290604E-02  2.57852862E-01
  1.09524496E+00 -3.04788259E-01  1.57520028E+00  1.00803064E-01 -3.42859001E-01
 -4.30639015E-01 -2.83003228E-02  3.01697616E-01 -2.69334333E-01 -1.28390081E-01
  1.14602260E-01 -1.32491807E-01 -1.06134841E-01 -4.55268850E-01  1.95600416E-01
  2.66395248E-01 -1.11481058E-03  2.71587833E-01 -5.83276939E-02  1.53209886E-01
  4.22664109E-02 -2.62074107E-01  2.16786682E-01 -5.25858023E-01  3.04005039E-01
 -1.55632485E+00 -2.30508653E-02 -2.72033153E-01 -2.61567401E-01  2.17331444E-01
 -4.52892853E-01  2.38507006E-01 -6.65368705E-02  2.59269865E-01 -6.66370033E-02
 -6.43459595E-02 -1.72206349E-01  2.29342106E-03  5.22852751E-02 -3.31793779E-02
  4.43247086E-01 -1.68384540E-02  1.87402003E-01  1.76255421E-02 -3.10036231E-02
  1.22087040E-01 -1.97458629E-01 -2.99350855E-01 -1.69247305E-01 -3.48558039E-01
 -1.98615222E-01  9.31071486E-02 -9.11227573E-02 -2.57403850E-02 -8.32843472E-02
  3.55886270E-01 -2.91043255E-01  6.68886016E-02 -1.89576087E-01  2.51918241E-01
 -1.34714766E-01  1.25962736E-01 -1.17237241E-01 -9.04041912E-02 -5.83517102E-02
  2.80012820E-01  4.33417890E-03 -5.88415177E-02 -1.59718558E-01  1.66123541E-01
 -7.43060828E-02 -3.89556783E-02  7.64354837E-01  4.27853206E-01  2.61659261E-01
  8.25476697E-02 -1.59424103E-01  2.65408292E-01 -1.28838613E-02  2.46546848E-01
 -1.29769232E-01 -1.08283021E-01 -2.75365028E-01 -1.67916647E-01  2.20643758E-01
  2.54445012E-01  3.28595914E-01 -1.80041135E-01 -1.13114893E-01  4.33417890E-03
 -5.88415177E-02  1.59718558E-01 -1.66123541E-01 -7.43060828E-02 -3.89556783E-02
 -7.64354837E-01 -4.27853206E-01  2.61659261E-01  8.25476697E-02  1.59424103E-01
 -2.65408292E-01 -1.28838613E-02  2.46546848E-01 -1.29769232E-01 -1.08283021E-01
 -2.75365028E-01  1.67916647E-01 -2.20643758E-01  2.54445012E-01  3.28595914E-01
 -1.80041135E-01 -1.13114893E-01 -1.68384540E-02  1.87402003E-01 -1.76255421E-02
  3.10036231E-02  1.22087040E-01 -1.97458629E-01  2.99350855E-01  1.69247305E-01
 -3.48558039E-01 -1.98615222E-01 -9.31071486E-02  9.11227573E-02 -2.57403850E-02
 -8.32843472E-02  3.55886270E-01 -2.91043255E-01  6.68886016E-02  1.89576087E-01
 -2.51918241E-01 -1.34714766E-01  1.25962736E-01 -5.83517102E-02  2.80012820E-01
 -1.17237241E-01 -9.04041912E-02  1.83827602E-02 -3.02013609E-01  4.28166418E-03
  1.28075869E-01 -1.25045689E-01  1.41676007E-01 -1.12131510E-01 -2.23764534E-01
  7.01279141E-02  1.45395336E+00  1.52519046E-03 -1.70410710E-01  2.03163006E-01
 -3.12027995E-01  2.34207885E-01  8.68426549E-02  4.57482591E-02 -1.51784127E-01
 -3.25056607E-01  1.36026208E-01 -1.39616843E-01  1.47145809E-01 -2.30020702E-01
  2.15584850E-01 -1.84091243E-01  2.26931405E-02 -2.82552223E-01  9.62262968E-03
 -1.03012635E-01  1.58626008E-01  2.20636458E-02  1.08523413E-01  2.77304493E-01
 -2.61507833E-01  4.54171291E-01  3.81845010E-01 -6.29524337E-01  5.55339684E-01
 -2.71142623E-01  1.37565829E-01  1.51819417E-01 -5.25941587E-02 -1.31134230E-01
 -3.43009856E-01  2.90218579E-01 -8.96172983E-02  1.37918108E-01 -1.27244941E-01
 -2.26931405E-02  2.82552223E-01  9.62262968E-03 -1.03012635E-01 -1.58626008E-01
 -2.20636458E-02  1.08523413E-01  2.77304493E-01  2.61507833E-01 -4.54171291E-01
  3.81845010E-01 -6.29524337E-01 -5.55339684E-01  2.71142623E-01 -1.37565829E-01
 -1.51819417E-01  5.25941587E-02 -1.31134230E-01 -3.43009856E-01 -2.90218579E-01
  8.96172983E-02 -1.37918108E-01  1.27244941E-01 -1.83827602E-02  3.02013609E-01
  4.28166418E-03  1.28075869E-01  1.25045689E-01 -1.41676007E-01 -1.12131510E-01
 -2.23764534E-01 -7.01279141E-02 -1.45395336E+00  1.52519046E-03 -1.70410710E-01
 -2.03163006E-01  3.12027995E-01 -2.34207885E-01 -8.68426549E-02 -4.57482591E-02
 -1.51784127E-01 -3.25056607E-01 -1.36026208E-01  1.39616843E-01 -2.15584850E-01
  1.84091243E-01 -1.47145809E-01  2.30020702E-01 -9.81898542E-03  1.14292766E-01
  2.99476109E-03 -7.09729854E-02  6.90845045E-02  9.91747471E-02  4.59231385E-01
  2.63567842E-01 -2.54408516E-03 -6.82806231E-01 -7.92258604E-02  7.12036173E-02
 -9.64903918E-02  3.19658403E-01 -1.67491669E-01 -1.50381327E-01  5.61551135E-02
  4.44336735E-01  1.06261271E-01  2.97779192E-02  4.78985227E-02  2.60083559E-04
  5.29828813E-02 -2.81984947E-01 -1.61583726E-01 -1.01746191E-03  7.82020420E-02
 -2.21160317E-02  1.16327773E-01 -1.31871172E-01  1.00219212E-01 -5.22005136E-01
 -4.58122208E-01  3.23883008E-02  7.64016135E-01  1.08993285E-01  1.58775499E-01
 -2.21365000E-01  2.91526402E-01 -8.89889090E-02 -2.10841293E-01 -9.47161104E-02
  3.39397028E-01  6.26204978E-02 -1.97192068E-01 -3.07768134E-01  1.62141929E-01
 -6.07692762E-02 -1.01746191E-03  7.82020420E-02  2.21160317E-02 -1.16327773E-01
 -1.31871172E-01  1.00219212E-01  5.22005136E-01  4.58122208E-01  3.23883008E-02
  7.64016135E-01 -1.08993285E-01 -1.58775499E-01 -2.21365000E-01  2.91526402E-01
 -8.89889090E-02 -2.10841293E-01 -9.47161104E-02 -3.39397028E-01 -6.26204978E-02
 -1.97192068E-01 -3.07768134E-01  1.62141929E-01 -6.07692762E-02 -9.81898542E-03
  1.14292766E-01 -2.99476109E-03  7.09729854E-02  6.90845045E-02  9.91747471E-02
 -4.59231385E-01 -2.63567842E-01 -2.54408516E-03 -6.82806231E-01  7.92258604E-02
 -7.12036173E-02 -9.64903918E-02  3.19658403E-01 -1.67491669E-01 -1.50381327E-01
  5.61551135E-02 -4.44336735E-01 -1.06261271E-01  2.97779192E-02  4.78985227E-02
 -2.81984947E-01 -1.61583726E-01  2.60083559E-04  5.29828813E-02 -3.24381914E-03
  1.09659358E-01  4.14395814E-02 -4.43100417E-02  7.45053417E-02  1.78130533E-01
 -2.60816502E-01 -3.88251261E-01 -2.80180208E-01 -1.20247016E+00 -2.89078086E-02
  3.75169051E-01 -8.82923254E-02 -2.24512736E-01  5.16374549E-01 -2.80102403E-01
  1.29495334E-01  3.00998571E-03  1.80977544E-01  1.95094016E-03  2.34081384E-02
 -2.19992781E-01  3.98477082E-03  4.62851786E-02  1.85722766E-01  8.02531115E-03
  2.63583291E-01 -7.88004213E-04  6.84986237E-02 -8.74543415E-02 -7.42708467E-01
 -1.55013519E-02  5.03743608E-01  8.58347340E-01  1.65590701E+00  1.71540868E-01
 -3.53133493E-02 -4.42081590E-01 -2.74485073E-01  3.88056763E-01 -1.29461974E-01
  3.42056724E-02  9.54494878E-02  2.27392479E-01  2.12095172E-01  1.17791209E-01
 -3.41235431E-01 -1.73816445E-01 -8.02531115E-03 -2.63583291E-01 -7.88004213E-04
  6.84986237E-02  8.74543415E-02  7.42708467E-01 -1.55013519E-02  5.03743608E-01
 -8.58347340E-01 -1.65590701E+00  1.71540868E-01 -3.53133493E-02  4.42081590E-01
  2.74485073E-01 -3.88056763E-01  1.29461974E-01 -3.42056724E-02  9.54494878E-02
  2.27392479E-01 -2.12095172E-01 -1.17791209E-01  3.41235431E-01  1.73816445E-01
  3.24381914E-03 -1.09659358E-01  4.14395814E-02 -4.43100417E-02 -7.45053417E-02
 -1.78130533E-01 -2.60816502E-01 -3.88251261E-01  2.80180208E-01  1.20247016E+00
 -2.89078086E-02  3.75169051E-01  8.82923254E-02  2.24512736E-01 -5.16374549E-01
  2.80102403E-01 -1.29495334E-01  3.00998571E-03  1.80977544E-01 -1.95094016E-03
 -2.34081384E-02 -4.62851786E-02 -1.85722766E-01  2.19992781E-01 -3.98477082E-03
  1.02132690E-02 -1.34027750E-01 -7.91360067E-03  7.86270314E-02 -5.15274745E-02
 -7.28572757E-02 -9.38711504E-02  1.71627994E-01  2.66007875E-01 -1.02598131E+00
  2.93617258E-02  1.50817489E-01 -3.03213834E-01  9.61718902E-02 -1.32942338E-01
  5.24670955E-02 -1.27547673E-01 -1.33133243E-02 -3.02773296E-01 -9.37188417E-02
 -1.32273988E-02  2.70787222E-01  2.20314822E-02  2.78829664E-02 -3.14741720E-02
  2.48903928E-02 -3.86717620E-01 -1.09225566E-01  5.97105077E-02  7.92193144E-02
  7.78296977E-02  3.51835315E-01 -1.67849830E-02 -2.45665389E-01  1.17435156E+00
 -1.15703391E-01  1.70803867E-01 -1.98568963E-01  1.71059110E-01 -3.12355153E-01
  1.68501819E-01 -4.50706397E-01 -4.79808866E-02 -2.48856513E-01  3.78073987E-01
 -2.27950676E-01  2.37329706E-01 -1.29873192E-01  2.48903928E-02 -3.86717620E-01
  1.09225566E-01 -5.97105077E-02  7.92193144E-02  7.78296977E-02 -3.51835315E-01
  1.67849830E-02 -2.45665389E-01  1.17435156E+00  1.15703391E-01 -1.70803867E-01
 -1.98568963E-01  1.71059110E-01 -3.12355153E-01  1.68501819E-01 -4.50706397E-01
  4.79808866E-02  2.48856513E-01  3.78073987E-01 -2.27950676E-01  2.37329706E-01
 -1.29873192E-01  1.02132690E-02 -1.34027750E-01  7.91360067E-03 -7.86270314E-02
 -5.15274745E-02 -7.28572757E-02  9.38711504E-02 -1.71627994E-01  2.66007875E-01
 -1.02598131E+00 -2.93617258E-02 -1.50817489E-01 -3.03213834E-01  9.61718902E-02
 -1.32942338E-01  5.24670955E-02 -1.27547673E-01  1.33133243E-02  3.02773296E-01
 -9.37188417E-02 -1.32273988E-02  2.78829664E-02 -3.14741720E-02  2.70787222E-01
  2.20314822E-02 -2.91618686E-03 -1.16679295E-01  2.46113760E-02 -4.97084212E-02
 -5.66520944E-02  3.75246572E-01  3.57848324E-03 -3.31214669E-01 -6.32609890E-03
 -5.58340929E-01 -1.14165623E-02  1.41075669E-01 -1.40901210E-01 -4.10365166E-01
  2.47466195E-01  1.58613426E-01  1.37307575E-01  2.59497067E-01 -3.67982467E-02
  2.66875370E-01 -1.31177584E-01 -2.42126388E-01 -5.29229161E-02  1.39238489E-01
 -5.03670445E-02  2.55401556E-02 -2.46613286E-01 -7.34077282E-02 -1.13760257E-02
 -8.51121547E-03  1.54866881E-02 -6.58016505E-02 -1.23427283E-01  2.12998065E-01
  7.20670745E-01  4.35266549E-02  2.52886944E-01 -1.18326433E-01 -7.37264706E-02
  4.64532151E-01 -3.58876462E-01 -2.33417387E-01 -2.00421928E-02 -1.67071892E-01
  7.98009688E-02 -1.74918253E-01  2.74629506E-01 -3.46581008E-01  2.55401556E-02
 -2.46613286E-01  7.34077282E-02  1.13760257E-02 -8.51121547E-03  1.54866881E-02
  6.58016505E-02  1.23427283E-01  2.12998065E-01  7.20670745E-01 -4.35266549E-02
 -2.52886944E-01 -1.18326433E-01 -7.37264706E-02  4.64532151E-01 -3.58876462E-01
 -2.33417387E-01  2.00421928E-02  1.67071892E-01  7.98009688E-02 -1.74918253E-01
  2.74629506E-01 -3.46581008E-01 -2.91618686E-03 -1.16679295E-01 -2.46113760E-02
  4.97084212E-02 -5.66520944E-02  3.75246572E-01 -3.57848324E-03  3.31214669E-01
 -6.32609890E-03 -5.58340929E-01  1.14165623E-02 -1.41075669E-01 -1.40901210E-01
 -4.10365166E-01  2.47466195E-01  1.58613426E-01  1.37307575E-01 -2.59497067E-01
  3.67982467E-02  2.66875370E-01 -1.31177584E-01  1.39238489E-01 -5.03670445E-02
 -2.42126388E-01 -5.29229161E-02 -6.40678805E-03 -5.71613816E-02  7.30954006E-02
 -2.33437533E-02  1.23873736E-02  4.38689586E-01  5.00267985E-01 -1.92907914E-01
  2.37337784E-01 -4.64947889E-01 -1.14619026E-01  1.62783686E-01 -8.03133567E-02
  7.56855115E-02 -5.97605630E-02 -3.61012986E-02  3.33085472E-01  3.43623548E-01
 -3.01894113E-01  3.52840588E-01 -8.36293894E-02  9.14760616E-02  3.74317764E-02
 -3.28973512E-01 -2.45816991E-02  3.41008932E-02  1.40967653E-01  1.65932220E-02
  2.63127729E-02  9.08041545E-02 -1.36771954E+00 -7.87587662E-01  2.12072625E-01
  2.94959999E-01  1.37403089E+00  2.74261457E-01 -1.52484494E-01 -3.10356556E-01
 -5.65212596E-02 -2.79976068E-02  8.67482666E-02  8.05079973E-02  5.24404668E-01
 -2.03475400E-02  2.72299709E-02 -1.84333270E-01 -4.84674066E-02  9.46960524E-02
 -3.41008932E-02 -1.40967653E-01  1.65932220E-02  2.63127729E-02 -9.08041545E-02
  1.36771954E+00 -7.87587662E-01  2.12072625E-01 -2.94959999E-01 -1.37403089E+00
  2.74261457E-01 -1.52484494E-01  3.10356556E-01  5.65212596E-02  2.79976068E-02
 -8.67482666E-02 -8.05079973E-02  5.24404668E-01 -2.03475400E-02 -2.72299709E-02
  1.84333270E-01  4.84674066E-02 -9.46960524E-02  6.40678805E-03  5.71613816E-02
  7.30954006E-02 -2.33437533E-02 -1.23873736E-02 -4.38689586E-01  5.00267985E-01
 -1.92907914E-01 -2.37337784E-01  4.64947889E-01 -1.14619026E-01  1.62783686E-01
  8.03133567E-02 -7.56855115E-02  5.97605630E-02  3.61012986E-02 -3.33085472E-01
  3.43623548E-01 -3.01894113E-01 -3.52840588E-01  8.36293894E-02  3.28973512E-01
  2.45816991E-02 -9.14760616E-02 -3.74317764E-02 -4.46164123E-03 -1.69177882E-01
  2.40120605E-03  3.44267034E-02  2.65345939E-02  5.42579857E-01  9.34889184E-02
  4.81438010E-02  2.95100973E-01 -1.85636406E-02 -2.94525707E-02 -6.28150687E-02
 -8.98055672E-02  2.17362555E-01  1.83218310E-01 -3.49453556E-01  9.24964743E-02
 -2.07953144E-01 -2.74955193E-01 -1.16158705E-01 -1.44309075E-02  3.36948545E-01
 -1.58217925E-01 -2.32357777E-01 -2.38793458E-02  9.13282824E-03  8.36711789E-02
 -1.19986401E-02 -3.48434913E-02 -1.64906784E-02 -3.84668448E-01 -2.06539911E-01
 -4.18652915E-01  2.38893773E-02  5.39638772E-02  8.59242578E-02  1.44545287E-01
  4.60406450E-02  3.41121751E-01  8.89530973E-02 -4.46581320E-01  2.74234815E-01
 -1.51580816E-01 -2.83510425E-01 -3.58284353E-01  7.18310622E-02  4.25031538E-01
 -1.00906014E-01  9.13282824E-03  8.36711789E-02  1.19986401E-02  3.48434913E-02
 -1.64906784E-02 -3.84668448E-01  2.06539911E-01  4.18652915E-01  2.38893773E-02
  5.39638772E-02 -8.59242578E-02 -1.44545287E-01  4.60406450E-02  3.41121751E-01
  8.89530973E-02 -4.46581320E-01  2.74234815E-01  1.51580816E-01  2.83510425E-01
 -3.58284353E-01  7.18310622E-02  4.25031538E-01 -1.00906014E-01 -4.46164123E-03
 -1.69177882E-01 -2.40120605E-03 -3.44267034E-02  2.65345939E-02  5.42579857E-01
 -9.34889184E-02 -4.81438010E-02  2.95100973E-01 -1.85636406E-02  2.94525707E-02
  6.28150687E-02 -8.98055672E-02  2.17362555E-01  1.83218310E-01 -3.49453556E-01
  9.24964743E-02  2.07953144E-01  2.74955193E-01 -1.16158705E-01 -1.44309075E-02
 -2.32357777E-01 -2.38793458E-02  3.36948545E-01 -1.58217925E-01 -2.83619041E-04
 -3.69682332E-03 -4.25610220E-03 -3.43834962E-02 -6.48135627E-02 -1.71916134E-01
  2.82096667E-01 -1.93999606E-01 -2.00808178E-01  3.36742328E-01 -1.16112014E-01
  3.76558585E-02  1.91063231E-01 -2.90535848E-01 -3.49295218E-03  2.84203556E-01
  4.20649176E-01  7.44166695E-02  2.80553903E-01  4.26154450E-01 -3.72128973E-02
 -4.41259456E-01  2.19452869E-01 -5.65181055E-02 -4.29025048E-02 -2.71912139E-03
  1.09196266E-01 -9.19426281E-03 -7.78867248E-02 -4.07764395E-02 -2.98345539E-01
 -2.79479042E-01  1.45734040E-01 -2.68820389E-01  6.07014907E-01  3.48993904E-01
 -2.72290149E-01  2.34252992E-01  2.68363112E-01  2.04808339E-02 -3.38484103E-01
  1.80576680E-01 -1.26189674E-01 -2.72606807E-01 -2.89544333E-01  1.54037915E-01
  4.00404926E-01 -1.40786801E-01  2.71912139E-03 -1.09196266E-01 -9.19426281E-03
 -7.78867248E-02  4.07764395E-02  2.98345539E-01 -2.79479042E-01  1.45734040E-01
  2.68820389E-01 -6.07014907E-01  3.48993904E-01 -2.72290149E-01 -2.34252992E-01
 -2.68363112E-01 -2.04808339E-02  3.38484103E-01 -1.80576680E-01 -1.26189674E-01
 -2.72606807E-01  2.89544333E-01 -1.54037915E-01 -4.00404926E-01  1.40786801E-01
  2.83619041E-04  3.69682332E-03 -4.25610220E-03 -3.43834962E-02  6.48135627E-02
  1.71916134E-01  2.82096667E-01 -1.93999606E-01  2.00808178E-01 -3.36742328E-01
 -1.16112014E-01  3.76558585E-02 -1.91063231E-01  2.90535848E-01  3.49295218E-03
 -2.84203556E-01 -4.20649176E-01  7.44166695E-02  2.80553903E-01 -4.26154450E-01
  3.72128973E-02  5.65181055E-02  4.29025048E-02  4.41259456E-01 -2.19452869E-01
  3.64470281E-03  3.99693894E-02 -9.25926643E-02  3.64627533E-03 -6.29764515E-03
 -1.03090577E-01 -2.47038187E-01  1.69805491E-01  1.78889449E-02 -7.73514295E-01
  1.56297593E-01  8.91506058E-02 -1.69525153E-01 -1.15937202E-01  1.65105064E-01
 -5.05410755E-02 -7.33110823E-01  3.63194891E-02  1.59270120E-01 -5.29397817E-01
  1.98758230E-01 -2.23905136E-02  6.90942398E-02  4.90595934E-01 -2.35905985E-01
 -9.86346033E-03  4.72031115E-02 -2.88138694E-02  3.72961119E-02 -6.26506465E-02
  6.26557103E-02 -1.15139283E-01 -1.93353753E-01 -9.01924168E-02  8.04682210E-01
  6.18770494E-02  2.27689175E-01 -1.82350996E-01  5.78141622E-02  4.36508620E-02
 -1.50463126E-01  4.52347066E-02  1.13775824E-01 -1.12206507E-01 -1.54542214E-01
 -4.13055222E-02  1.66484519E-01 -7.54317293E-02 -9.86346033E-03  4.72031115E-02
  2.88138694E-02 -3.72961119E-02 -6.26506465E-02  6.26557103E-02  1.15139283E-01
  1.93353753E-01 -9.01924168E-02  8.04682210E-01 -6.18770494E-02 -2.27689175E-01
 -1.82350996E-01  5.78141622E-02  4.36508620E-02 -1.50463126E-01  4.52347066E-02
 -1.13775824E-01  1.12206507E-01 -1.54542214E-01 -4.13055222E-02  1.66484519E-01
 -7.54317293E-02  3.64470281E-03  3.99693894E-02  9.25926643E-02 -3.64627533E-03
 -6.29764515E-03 -1.03090577E-01  2.47038187E-01 -1.69805491E-01  1.78889449E-02
 -7.73514295E-01 -1.56297593E-01 -8.91506058E-02 -1.69525153E-01 -1.15937202E-01
  1.65105064E-01 -5.05410755E-02 -7.33110823E-01 -3.63194891E-02 -1.59270120E-01
 -5.29397817E-01  1.98758230E-01  4.90595934E-01 -2.35905985E-01 -2.23905136E-02
  6.90942398E-02  1.34671833E-02  1.25809088E-01  5.71337879E-02  7.05222120E-02
 -1.44954478E-02 -7.47500348E-01  1.22283338E-01  3.88675738E-01 -1.62852710E-01
  1.52449536E-01 -9.08710446E-02 -1.74462434E-01 -3.69618242E-02  5.12035932E-01
 -3.61641438E-02 -4.85927609E-01  3.98336645E-01 -1.97332008E-01 -9.68358170E-02
  7.59697992E-02  3.11434947E-02  3.81834090E-01 -1.35841308E-01 -5.11358822E-01
  2.88543074E-01 -4.03733233E-02 -1.25504829E-01  8.20778033E-02  7.28089629E-03
 -6.14967799E-02  1.29685957E+00  3.03161367E-01 -1.23856257E-01 -5.02704283E-01
 -5.75735176E-01 -9.18795628E-02  1.16858022E-01  1.82926897E-01 -3.65347357E-05
  1.27788159E-01 -1.63170310E-01 -1.32938162E-01 -3.02405121E-01 -1.20193701E-01
 -2.36469992E-02 -2.55262706E-02  9.46623836E-02 -2.23927957E-02  4.03733233E-02
  1.25504829E-01  8.20778033E-02  7.28089629E-03  6.14967799E-02 -1.29685957E+00
  3.03161367E-01 -1.23856257E-01  5.02704283E-01  5.75735176E-01 -9.18795628E-02
  1.16858022E-01 -1.82926897E-01  3.65347357E-05 -1.27788159E-01  1.63170310E-01
  1.32938162E-01 -3.02405121E-01 -1.20193701E-01  2.36469992E-02  2.55262706E-02
 -9.46623836E-02  2.23927957E-02 -1.34671833E-02 -1.25809088E-01  5.71337879E-02
  7.05222120E-02  1.44954478E-02  7.47500348E-01  1.22283338E-01  3.88675738E-01
  1.62852710E-01 -1.52449536E-01 -9.08710446E-02 -1.74462434E-01  3.69618242E-02
 -5.12035932E-01  3.61641438E-02  4.85927609E-01 -3.98336645E-01 -1.97332008E-01
 -9.68358170E-02 -7.59697992E-02 -3.11434947E-02  5.11358822E-01 -2.88543074E-01
 -3.81834090E-01  1.35841308E-01  8.15912789E-03 -8.47242396E-02  2.78573918E-02
  3.14829175E-02 -5.32522114E-02 -9.58650713E-02  6.24674760E-02 -6.82661294E-02
 -1.74393914E-01 -3.56268891E-01  3.46777180E-02  1.81949448E-01  5.82553260E-02
 -1.00889270E-02 -2.21422185E-01  2.90915090E-01  3.01607901E-01  7.69181159E-02
  2.57241706E-01  2.74524094E-01 -8.82824757E-02 -2.86815238E-01  1.03035620E-01
 -9.92980587E-02  3.75323959E-02 -1.92162307E-02  5.72550346E-02  1.05502022E-01
  3.47009309E-02 -2.64238619E-02  3.32281682E-01  1.77771646E-01  3.02986123E-02
 -8.67694383E-02  4.78440416E-01 -8.62658051E-02 -8.52977148E-02 -2.56003902E-01
 -3.40022648E-01 -1.48494853E-01  4.20179370E-01 -4.34240855E-01 -1.63724169E-01
  1.57842529E-01  4.63688005E-01 -2.88791338E-01 -2.69854209E-01  1.70973626E-01
  1.92162307E-02 -5.72550346E-02  1.05502022E-01  3.47009309E-02  2.64238619E-02
 -3.32281682E-01  1.77771646E-01  3.02986123E-02  8.67694383E-02 -4.78440416E-01
 -8.62658051E-02 -8.52977148E-02  2.56003902E-01  3.40022648E-01  1.48494853E-01
 -4.20179370E-01  4.34240855E-01 -1.63724169E-01  1.57842529E-01 -4.63688005E-01
  2.88791338E-01  2.69854209E-01 -1.70973626E-01 -8.15912789E-03  8.47242396E-02
  2.78573918E-02  3.14829175E-02  5.32522114E-02  9.58650713E-02  6.24674760E-02
 -6.82661294E-02  1.74393914E-01  3.56268891E-01  3.46777180E-02  1.81949448E-01
 -5.82553260E-02  1.00889270E-02  2.21422185E-01 -2.90915090E-01 -3.01607901E-01
  7.69181159E-02  2.57241706E-01 -2.74524094E-01  8.82824757E-02  9.92980587E-02
 -3.75323959E-02  2.86815238E-01 -1.03035620E-01  1.06368826E-02  1.21153349E-01
 -9.56444410E-03 -5.83323900E-02 -5.00521196E-02 -4.60334823E-01 -1.21872526E-01
  1.36325167E-01 -8.84057839E-02 -4.70746425E-01  1.01174181E-02  1.37998929E-01
 -5.86147257E-02 -3.07762063E-01 -1.60570335E-01  4.67189556E-01  1.24994648E-01
 -3.20094448E-02  2.93176951E-01  2.02938930E-01 -1.14682432E-01 -3.57070695E-01
  3.15854741E-01  2.05031556E-01 -3.97479230E-02 -2.07411428E-03 -1.34753206E-01
 -3.70277853E-02  1.26776954E-02 -5.85266010E-03  2.18811471E-01  4.57264563E-02
 -7.22825575E-02 -2.95587285E-01  4.61199151E-01  3.25648551E-02  1.36077509E-01
 -8.93050241E-02  5.14663029E-01 -4.10228727E-01 -4.31881002E-02  1.87942769E-01
 -9.95581631E-02 -2.18478745E-01 -2.83368167E-01  1.19167842E-01  2.71032691E-01
 -3.69911911E-02 -2.07411428E-03 -1.34753206E-01  3.70277853E-02 -1.26776954E-02
 -5.85266010E-03  2.18811471E-01 -4.57264563E-02  7.22825575E-02 -2.95587285E-01
  4.61199151E-01 -3.25648551E-02 -1.36077509E-01 -8.93050241E-02  5.14663029E-01
 -4.10228727E-01 -4.31881002E-02  1.87942769E-01  9.95581631E-02  2.18478745E-01
 -2.83368167E-01  1.19167842E-01  2.71032691E-01 -3.69911911E-02  1.06368826E-02
  1.21153349E-01  9.56444410E-03  5.83323900E-02 -5.00521196E-02 -4.60334823E-01
  1.21872526E-01 -1.36325167E-01 -8.84057839E-02 -4.70746425E-01 -1.01174181E-02
 -1.37998929E-01 -5.86147257E-02 -3.07762063E-01 -1.60570335E-01  4.67189556E-01
  1.24994648E-01  3.20094448E-02 -2.93176951E-01  2.02938930E-01 -1.14682432E-01
  2.05031556E-01 -3.97479230E-02 -3.57070695E-01  3.15854741E-01  2.47717783E-02
  3.88799443E-02 -1.27594279E-02  8.93227316E-02 -1.15119315E-01 -7.58496450E-01
  2.80602838E-02  2.25720005E-01 -3.53287210E-01 -8.06667345E-01  1.06435553E-01
  7.11013825E-02 -1.06357423E-01  1.43668190E-01  8.68925487E-02 -2.01745664E-01
 -2.20152257E-01  1.62437989E-01  3.20945099E-01 -1.50923029E-01  1.97428995E-01
 -6.55628665E-02  4.24165230E-02  6.48154880E-02 -2.70970079E-02 -7.05604566E-02
 -7.82484319E-02  1.83397495E-01 -4.89762348E-02 -1.23043216E-01  1.89806546E+00
  3.77903409E-01 -1.50863842E-01 -2.27120510E-01  2.11257831E+00  1.50264716E-01
 -3.76066698E-02 -2.51309616E-01  2.91425659E-02  7.31363201E-02 -2.24425541E-01
 -5.81046672E-01  2.66266621E-01 -5.22029767E-01  1.64327076E-01 -3.39369136E-01
  2.29468011E-01 -3.74612377E-01  7.05604566E-02  7.82484319E-02  1.83397495E-01
 -4.89762348E-02  1.23043216E-01 -1.89806546E+00  3.77903409E-01 -1.50863842E-01
  2.27120510E-01 -2.11257831E+00  1.50264716E-01 -3.76066698E-02  2.51309616E-01
 -2.91425659E-02 -7.31363201E-02  2.24425541E-01  5.81046672E-01  2.66266621E-01
 -5.22029767E-01 -1.64327076E-01  3.39369136E-01 -2.29468011E-01  3.74612377E-01
 -2.47717783E-02 -3.88799443E-02 -1.27594279E-02  8.93227316E-02  1.15119315E-01
  7.58496450E-01  2.80602838E-02  2.25720005E-01  3.53287210E-01  8.06667345E-01
  1.06435553E-01  7.11013825E-02  1.06357423E-01 -1.43668190E-01 -8.68925487E-02
  2.01745664E-01  2.20152257E-01  1.62437989E-01  3.20945099E-01  1.50923029E-01
 -1.97428995E-01 -6.48154880E-02  2.70970079E-02  6.55628665E-02 -4.24165230E-02
  6.15940507E-02  1.18915292E-01  9.85862708E-03  1.57331416E-01 -2.12251713E-01
 -1.67893571E+00 -2.93277007E-02  5.86396646E-01 -6.46083113E-01 -2.21718106E+00
 -1.26769716E-01  3.21534403E-01 -3.88590243E-01  3.81024911E-01 -2.27980759E-02
 -2.52349344E-01  9.40293083E-02 -1.56808267E-02  5.85059825E-01 -3.04196634E-02
  1.01849798E-01 -8.91060336E-02  2.02506304E-01 -1.11795798E-01  1.48798073E-01
 -5.34913831E-02 -1.22400862E-01  1.97349995E-02  1.64075156E-01 -1.94290968E-01
  1.44396504E+00 -7.72503972E-02  4.77313145E-01 -6.76838182E-01  2.36039798E+00
  2.01479438E-01  2.79879075E-01 -5.34691267E-01 -3.72029197E-01  9.61661269E-02
  2.22344390E-01 -7.96578833E-02 -8.31680197E-02 -6.14807953E-01  1.38254359E-01
 -4.37282354E-01  1.68770695E-01 -2.58360064E-01 -5.34913831E-02 -1.22400862E-01
 -1.97349995E-02 -1.64075156E-01 -1.94290968E-01  1.44396504E+00  7.72503972E-02
 -4.77313145E-01 -6.76838182E-01  2.36039798E+00 -2.01479438E-01 -2.79879075E-01
 -5.34691267E-01 -3.72029197E-01  9.61661269E-02  2.22344390E-01 -7.96578833E-02
  8.31680197E-02  6.14807953E-01  1.38254359E-01 -4.37282354E-01  1.68770695E-01
 -2.58360064E-01  6.15940507E-02  1.18915292E-01 -9.85862708E-03 -1.57331416E-01
 -2.12251713E-01 -1.67893571E+00  2.93277007E-02 -5.86396646E-01 -6.46083113E-01
 -2.21718106E+00  1.26769716E-01 -3.21534403E-01 -3.88590243E-01  3.81024911E-01
 -2.27980759E-02 -2.52349344E-01  9.40293083E-02  1.56808267E-02 -5.85059825E-01
 -3.04196634E-02  1.01849798E-01 -1.11795798E-01  1.48798073E-01 -8.91060336E-02
  2.02506304E-01 -3.89092131E-02 -8.56704833E-02 -2.03149088E-02 -1.04790214E-01
  1.55885751E-01  9.67368464E-01  3.74357193E-02 -3.72026880E-01  4.24017175E-01
 -3.93044335E-01  1.53902290E-01  4.32794858E-03 -1.69544760E-01 -2.83412208E-01
  5.42563903E-02  2.00688407E-01  2.65341044E-02  3.37331700E-02 -4.37201651E-01
  8.14544490E-02 -1.07344844E-02  3.96993834E-02 -1.19034033E-01  5.64438050E-02
 -1.73236905E-01 -1.72974278E-02 -6.04716638E-02  1.89415969E-01 -2.61280811E-01
  1.45211669E-01  4.36460453E-01  6.45762560E-01 -9.10345195E-01  4.40001641E-01
 -1.43260657E-01 -3.19652127E-01  3.57455711E-01 -3.73049647E-01  4.59382576E-01
  6.91291206E-02 -5.35587406E-01 -5.71332027E-01 -5.94267043E-02  4.05056377E-01
  2.88489713E-02 -8.28932975E-02  2.62279130E-02  1.52323631E-03  1.72974278E-02
  6.04716638E-02  1.89415969E-01 -2.61280811E-01 -1.45211669E-01 -4.36460453E-01
  6.45762560E-01 -9.10345195E-01 -4.40001641E-01  1.43260657E-01 -3.19652127E-01
  3.57455711E-01  3.73049647E-01 -4.59382576E-01 -6.91291206E-02  5.35587406E-01
  5.71332027E-01 -5.94267043E-02  4.05056377E-01 -2.88489713E-02  8.28932975E-02
 -2.62279130E-02 -1.52323631E-03  3.89092131E-02  8.56704833E-02 -2.03149088E-02
 -1.04790214E-01 -1.55885751E-01 -9.67368464E-01  3.74357193E-02 -3.72026880E-01
 -4.24017175E-01  3.93044335E-01  1.53902290E-01  4.32794858E-03  1.69544760E-01
  2.83412208E-01 -5.42563903E-02 -2.00688407E-01 -2.65341044E-02  3.37331700E-02
 -4.37201651E-01 -8.14544490E-02  1.07344844E-02 -5.64438050E-02  1.73236905E-01
 -3.96993834E-02  1.19034033E-01 -2.38896709E-01  1.41603353E+00  2.34165643E-03
 -2.55816455E-02  2.22263950E-02  1.02223411E+00 -2.75435738E-02  1.08475157E-01
 -1.01011824E-01  1.48781577E+00  6.84080439E-02 -2.32223497E-01  2.94925350E-01
 -9.39668925E-01 -8.93327795E-01 -8.59857544E-01  1.68002060E-02 -3.40375774E-03
 -6.78866943E-02  1.04057332E-01 -3.81875350E-01  1.05162606E-01 -3.48035367E-01
  1.00435296E-01 -3.50553508E-01 -2.60522431E-01  1.42356866E+00  1.61886083E-02
 -5.05586159E-03 -2.48320404E-02  1.00416545E+00 -3.10354407E-02  5.67726334E-02
  7.88453414E-02 -1.33212357E+00 -1.47885764E-01 -2.93725886E-01  3.78763985E-01
 -9.32751567E-01 -9.28517861E-01 -9.42112312E-01 -7.27722569E-02 -1.15541301E-02
 -8.25527874E-02  1.11844308E-01 -3.03643543E-01  1.09577065E-01 -3.65661259E-01
 -2.60522431E-01  1.42356866E+00 -1.61886083E-02  5.05586159E-03 -2.48320404E-02
  1.00416545E+00  3.10354407E-02 -5.67726334E-02  7.88453414E-02 -1.33212357E+00
  1.47885764E-01  2.93725886E-01  3.78763985E-01 -9.32751567E-01 -9.28517861E-01
 -9.42112312E-01 -7.27722569E-02  1.15541301E-02  8.25527874E-02  1.11844308E-01
 -3.03643543E-01  1.09577065E-01 -3.65661259E-01 -2.38896709E-01  1.41603353E+00
 -2.34165643E-03  2.55816455E-02  2.22263950E-02  1.02223411E+00  2.75435738E-02
 -1.08475157E-01 -1.01011824E-01  1.48781577E+00 -6.84080439E-02  2.32223497E-01
  2.94925350E-01 -9.39668925E-01 -8.93327795E-01 -8.59857544E-01  1.68002060E-02
  3.40375774E-03  6.78866943E-02  1.04057332E-01 -3.81875350E-01  1.00435296E-01
 -3.50553508E-01  1.05162606E-01 -3.48035367E-01 -3.34287789E-01  1.82089977E+00
 -1.28320855E-02  3.19838096E-02 -1.14319877E-02  1.83723468E+00  2.70132752E-02
  7.62018609E-03 -5.63188798E-02  5.73523072E-01 -3.86304015E-03 -6.63538102E-02
  6.19546167E-02 -1.27200390E+00 -1.25782413E+00 -1.22551049E+00 -5.40729478E-03
 -6.69879162E-03 -2.57846717E-02  1.08030348E-01 -4.59958178E-01  9.32110698E-02
 -5.03048995E-01  1.06183391E-01 -5.05748419E-01 -1.47087718E-01  6.58322622E-01
 -3.31908030E-02  6.71911008E-02 -1.90487169E-02  9.06060746E-01  1.57546088E-01
 -2.89460245E-01  3.99794122E-02 -9.16479133E-01 -1.43371814E-01  3.97479271E-02
  1.67663559E-01 -5.86245999E-01 -5.08696340E-01 -4.21758172E-01  3.51952213E-02
 -9.01719872E-03 -8.29098752E-02  3.71144971E-02 -2.38807520E-01  4.05178894E-02
 -1.45356582E-01  1.47087718E-01 -6.58322622E-01 -3.31908030E-02  6.71911008E-02
  1.90487169E-02 -9.06060746E-01  1.57546088E-01 -2.89460245E-01 -3.99794122E-02
  9.16479133E-01 -1.43371814E-01  3.97479271E-02 -1.67663559E-01  5.86245999E-01
  5.08696340E-01  4.21758172E-01 -3.51952213E-02 -9.01719872E-03 -8.29098752E-02
 -3.71144971E-02  2.38807520E-01 -4.05178894E-02  1.45356582E-01  3.34287789E-01
 -1.82089977E+00 -1.28320855E-02  3.19838096E-02  1.14319877E-02 -1.83723468E+00
  2.70132752E-02  7.62018609E-03  5.63188798E-02 -5.73523072E-01 -3.86304015E-03
 -6.63538102E-02 -6.19546167E-02  1.27200390E+00  1.25782413E+00  1.22551049E+00
  5.40729478E-03 -6.69879162E-03 -2.57846717E-02 -1.08030348E-01  4.59958178E-01
 -1.06183391E-01  5.05748419E-01 -9.32110698E-02  5.03048995E-01 -2.72466582E-01
  1.34946458E+00 -1.68088352E-02  5.75813026E-02 -6.10588846E-02  2.37907070E+00
  9.87421887E-02 -2.86529843E-01  2.04564882E-01  1.27477992E+00  3.38974680E-02
 -2.00675664E-01  2.02759008E-01 -9.58498905E-01 -1.02583005E+00 -1.09738785E+00
 -9.93383076E-03  2.18162278E-03  7.65396518E-02  2.96645318E-02 -3.14374922E-01
  4.98466410E-02 -5.03981525E-01  7.43536066E-03 -4.10826744E-01  2.61314545E-01
 -1.26249109E+00 -2.58691113E-03  2.35005437E-02 -8.48123101E-02 -1.91147183E+00
  1.32880530E-01 -1.89799335E-01  3.27413684E-01 -1.29728768E+00 -1.63381507E-02
 -1.47538306E-01  2.83450829E-01  8.82495641E-01  9.80555515E-01  1.03765962E+00
  6.55868655E-02 -5.42187359E-03 -9.40542325E-02 -5.32555995E-02  5.35059331E-01
 -5.51615405E-02  3.53270644E-01  2.61314545E-01 -1.26249109E+00  2.58691113E-03
 -2.35005437E-02 -8.48123101E-02 -1.91147183E+00 -1.32880530E-01  1.89799335E-01
  3.27413684E-01 -1.29728768E+00  1.63381507E-02  1.47538306E-01  2.83450829E-01
  8.82495641E-01  9.80555515E-01  1.03765962E+00  6.55868655E-02  5.42187359E-03
  9.40542325E-02 -5.32555995E-02  5.35059331E-01 -5.51615405E-02  3.53270644E-01
 -2.72466582E-01  1.34946458E+00  1.68088352E-02 -5.75813026E-02 -6.10588846E-02
  2.37907070E+00 -9.87421887E-02  2.86529843E-01  2.04564882E-01  1.27477992E+00
 -3.38974680E-02  2.00675664E-01  2.02759008E-01 -9.58498905E-01 -1.02583005E+00
 -1.09738785E+00 -9.93383076E-03 -2.18162278E-03 -7.65396518E-02  2.96645318E-02
 -3.14374922E-01  7.43536066E-03 -4.10826744E-01  4.98466410E-02 -5.03981525E-01
  1.30963174E-01 -7.75766818E-01 -2.24439507E-02 -2.34329214E-02  5.39965069E-02
 -1.32007322E+00  8.11824585E-02  1.00875307E-01 -2.18207587E-01 -1.07557885E+00
  2.65568020E-02  1.53866708E-01 -2.30988500E-01  4.92717373E-01  5.47854348E-01
  5.97172372E-01 -1.37008349E-02 -1.47710230E-02 -1.21296339E-01 -1.44563151E-02
  2.88720790E-01  9.86471967E-03  1.14154834E-01 -1.71346970E-02  1.66696160E-01
 -3.40785555E-01  1.78025930E+00 -6.96492787E-02  1.73438845E-02  4.95553132E-02
  3.03481135E+00  2.05268011E-01 -1.20822565E-01 -9.67404204E-02  2.42529308E+00
  2.40368976E-01 -3.51840967E-02 -2.49455818E-01 -1.35417899E+00 -1.35508990E+00
 -1.30932593E+00  1.29590698E-01 -5.80165606E-03  6.39104822E-02  2.13644442E-02
 -5.43688804E-01  3.73075881E-02 -5.54250157E-01  3.40785555E-01 -1.78025930E+00
 -6.96492787E-02  1.73438845E-02 -4.95553132E-02 -3.03481135E+00  2.05268011E-01
 -1.20822565E-01  9.67404204E-02 -2.42529308E+00  2.40368976E-01 -3.51840967E-02
  2.49455818E-01  1.35417899E+00  1.35508990E+00  1.30932593E+00 -1.29590698E-01
 -5.80165606E-03  6.39104822E-02 -2.13644442E-02  5.43688804E-01 -3.73075881E-02
  5.54250157E-01 -1.30963174E-01  7.75766818E-01 -2.24439507E-02 -2.34329214E-02
 -5.39965069E-02  1.32007322E+00  8.11824585E-02  1.00875307E-01  2.18207587E-01
  1.07557885E+00  2.65568020E-02  1.53866708E-01  2.30988500E-01 -4.92717373E-01
 -5.47854348E-01 -5.97172372E-01  1.37008349E-02 -1.47710230E-02 -1.21296339E-01
  1.44563151E-02 -2.88720790E-01  1.71346970E-02 -1.66696160E-01 -9.86471967E-03
 -1.14154834E-01
Orthonormal basis                          R   N=        9216
  6.55451705E-03  3.61467977E-02  3.07401769E-03 -9.24436161E-03  5.72352858E-03
  5.58292274E-02  1.03038001E-02 -2.94672123E-02  1.75898493E-02  6.88312822E-02
  1.81060086E-02 -4.57793590E-02  2.22763692E-02  2.72928112E-02  2.93318942E-02
  2.92975597E-02 -5.82785181E-04  5.21932883E-04 -3.41862054E-03  1.17089017E-02
  2.93241267E-02  1.83168395E-02  4.26766276E-02  1.66528143E-02  3.91755768E-02
  9.14693190E-03  5.02671597E-02  6.88080051E-03 -3.89499083E-03 -6.58284177E-03
  7.51744794E-02  1.98636561E-02 -1.24745465E-02 -1.87332304E-02  8.21450744E-02
  2.35849407E-02 -1.80895595E-02 -2.28888288E-02  3.98625436E-02  4.01376817E-02
  3.94810376E-02 -3.06166232E-03 -7.12453572E-04 -1.49617911E-03  2.22074385E-02
  5.10969389E-02  1.93214108E-02  4.54468982E-02  9.14693190E-03  5.02671597E-02
 -6.88080051E-03  3.89499083E-03 -6.58284177E-03  7.51744794E-02 -1.98636561E-02
  1.24745465E-02 -1.87332304E-02  8.21450744E-02 -2.35849407E-02  1.80895595E-02
 -2.28888288E-02  3.98625436E-02  4.01376817E-02  3.94810376E-02 -3.06166232E-03
  7.12453572E-04  1.49617911E-03  2.22074385E-02  5.10969389E-02  1.93214108E-02
  4.54468982E-02  6.55451705E-03  3.61467977E-02 -3.07401769E-03  9.24436161E-03
  5.72352858E-03  5.58292274E-02 -1.03038001E-02  2.94672123E-02  1.75898493E-02
  6.88312822E-02 -1.81060086E-02  4.57793590E-02  2.22763692E-02  2.72928112E-02
  2.93318942E-02  2.92975597E-02 -5.82785181E-04 -5.21932883E-04  3.41862054E-03
  1.17089017E-02  2.93241267E-02  1.66528143E-02  3.91755768E-02  1.83168395E-02
  4.26766276E-02 -1.10811312E-02 -5.13801161E-02 -1.48206678E-04 -6.42346002E-04
  2.22012170E-02 -5.54154606E-02 -4.19151060E-04 -4.62831698E-03  6.20682699E-02
 -3.47539190E-02 -2.22438695E-03  1.82355446E-03  8.92247084E-02 -4.13314994E-02
 -4.05741273E-02 -3.70945340E-02 -7.53679412E-05  4.67485666E-04 -7.12051087E-03
 -2.41040835E-02 -3.95534834E-02 -4.41214668E-02 -7.36972513E-02 -2.69899452E-02
 -4.40316514E-02  9.70420153E-03  4.63171354E-02  8.14013598E-03 -1.07723149E-02
  3.24230336E-02  4.97561368E-02  1.68526261E-02 -2.49635637E-02  8.53075390E-02
  2.08123096E-02  7.83416420E-03 -1.29465587E-02  1.10866006E-01  3.94310245E-02
  3.66999668E-02  3.15994950E-02 -4.46904009E-03  3.22332117E-03  4.11804621E-03
  2.17185603E-02  3.55612295E-02  4.14920486E-02  6.74633163E-02  9.70420153E-03
  4.63171354E-02 -8.14013598E-03  1.07723149E-02  3.24230336E-02  4.97561368E-02
 -1.68526261E-02  2.49635637E-02  8.53075390E-02  2.08123096E-02 -7.83416420E-03
  1.29465587E-02  1.10866006E-01  3.94310245E-02  3.66999668E-02  3.15994950E-02
 -4.46904009E-03 -3.22332117E-03 -4.11804621E-03  2.17185603E-02  3.55612295E-02
  4.14920486E-02  6.74633163E-02 -1.10811312E-02 -5.13801161E-02  1.48206678E-04
  6.42346002E-04  2.22012170E-02 -5.54154606E-02  4.19151060E-04  4.62831698E-03
  6.20682699E-02 -3.47539190E-02  2.22438695E-03 -1.82355446E-03  8.92247084E-02
 -4.13314994E-02 -4.05741273E-02 -3.70945340E-02 -7.53679412E-05 -4.67485666E-04
  7.12051087E-03 -2.41040835E-02 -3.95534834E-02 -2.69899452E-02 -4.40316514E-02
 -4.41214668E-02 -7.36972513E-02  1.36020966E-02  5.79352937E-02 -3.18516721E-02
  7.35165710E-02  2.24243391E-02  4.86255786E-02 -6.13295366E-02  1.39992307E-01
  4.36159769E-02  3.23985869E-02 -3.90256309E-02  8.28181264E-02  6.97688150E-02
  5.05133510E-02  3.84176401E-02  4.26736914E-02 -2.45351888E-03 -6.62240192E-03
  5.92500891E-03  9.14559947E-02  1.11839370E-01 -2.38545163E-02 -3.02680002E-02
  3.13460078E-02  3.78706024E-02 -8.89988803E-03 -3.56200709E-02 -3.37736459E-02
  5.92762096E-02  3.91103803E-02 -1.85217932E-02 -5.15931543E-02  1.01504415E-01
  6.86333288E-02  3.92323357E-02 -1.37397872E-02  4.56138171E-02  6.47746745E-02
 -3.64330832E-02 -1.93863696E-02 -2.45672986E-02  5.18071603E-03  1.10536185E-02
 -1.35253042E-02 -1.61858403E-02 -1.31713871E-02  4.03612600E-02  5.54776835E-02
 -8.89988803E-03 -3.56200709E-02  3.37736459E-02 -5.92762096E-02  3.91103803E-02
 -1.85217932E-02  5.15931543E-02 -1.01504415E-01  6.86333288E-02  3.92323357E-02
  1.37397872E-02 -4.56138171E-02  6.47746745E-02 -3.64330832E-02 -1.93863696E-02
 -2.45672986E-02  5.18071603E-03 -1.10536185E-02  1.35253042E-02 -1.61858403E-02
 -1.31713871E-02  4.03612600E-02  5.54776835E-02  1.36020966E-02  5.79352937E-02
  3.18516721E-02 -7.35165710E-02  2.24243391E-02  4.86255786E-02  6.13295366E-02
 -1.39992307E-01  4.36159769E-02  3.23985869E-02  3.90256309E-02 -8.28181264E-02
  6.97688150E-02  5.05133510E-02  3.84176401E-02  4.26736914E-02 -2.45351888E-03
  6.62240192E-03 -5.92500891E-03  9.14559947E-02  1.11839370E-01  3.13460078E-02
  3.78706024E-02 -2.38545163E-02 -3.02680002E-02  4.30171987E-03  1.68178999E-02
  1.40403299E-01  4.99524089E-02  3.27980901E-03  9.95181006E-03  1.98955900E-01
  7.38979158E-02  6.31864732E-03 -5.90215236E-03  9.76343596E-02  3.95514678E-02
  1.06601748E-02  2.38594076E-02  8.47650806E-03  5.17813186E-03  2.30003733E-02
  1.07826856E-02 -2.15364260E-03 -5.92789988E-02 -5.64133380E-02 -3.76879397E-02
 -3.58023975E-02  1.44036664E-01  1.30344297E-01 -3.99271659E-03 -1.76866641E-02
  9.45185725E-02 -5.78345168E-04  2.53230234E-02 -1.42018087E-02  1.29137244E-01
  2.11538711E-03  3.16716643E-02 -6.09376369E-03  5.94875508E-02 -2.97474059E-03
  2.12534285E-02 -2.72531173E-02 -8.69906571E-04 -1.19258422E-02  2.60393444E-03
 -1.69050734E-02  6.91881062E-04 -7.76444098E-02 -6.99082971E-02  1.74825577E-02
  1.53605653E-02 -3.99271659E-03 -1.76866641E-02 -9.45185725E-02  5.78345168E-04
  2.53230234E-02 -1.42018087E-02 -1.29137244E-01 -2.11538711E-03  3.16716643E-02
 -6.09376369E-03 -5.94875508E-02  2.97474059E-03  2.12534285E-02 -2.72531173E-02
 -8.69906571E-04 -1.19258422E-02  2.60393444E-03  1.69050734E-02 -6.91881062E-04
 -7.76444098E-02 -6.99082971E-02  1.74825577E-02  1.53605653E-02  4.30171987E-03
  1.68178999E-02 -1.40403299E-01 -4.99524089E-02  3.27980901E-03  9.95181006E-03
 -1.98955900E-01 -7.38979158E-02  6.31864732E-03 -5.90215236E-03 -9.76343596E-02
 -3.95514678E-02  1.06601748E-02  2.38594076E-02  8.47650806E-03  5.17813186E-03
  2.30003733E-02 -1.07826856E-02  2.15364260E-03 -5.92789988E-02 -5.64133380E-02
  1.44036664E-01  1.30344297E-01 -3.76879397E-02 -3.58023975E-02 -1.37926632E-02
 -5.66240954E-02  5.46172064E-03  2.37432073E-02 -1.43506618E-01 -2.31022267E-02
  5.88070752E-03  1.57124893E-02 -1.60995522E-01  7.37640332E-02  2.26714166E-02
 -5.20791580E-02 -4.78416097E-02 -3.66885440E-02 -5.34443462E-02 -3.70144689E-02
  1.80960520E-02  1.65947314E-03  6.53516608E-02 -2.76390214E-02 -1.62161594E-02
  1.10064570E-01  1.03835395E-01  1.18805797E-02  1.89624206E-02 -1.50797953E-02
 -6.81197172E-02 -3.85956305E-02 -3.11264999E-02  1.48264057E-01 -2.91973218E-02
 -3.83111715E-02 -3.13709676E-02  1.65555598E-01  8.07584153E-02  1.37022480E-02
 -2.81436836E-02  1.74579178E-02 -4.55874403E-02 -6.69834061E-02 -4.21192040E-02
  3.68768775E-02  1.96879808E-02  4.08300505E-02  3.67796133E-02  3.72208536E-02
  8.42388656E-02  7.63298169E-02 -1.50797953E-02 -6.81197172E-02  3.85956305E-02
  3.11264999E-02  1.48264057E-01 -2.91973218E-02  3.83111715E-02  3.13709676E-02
  1.65555598E-01  8.07584153E-02 -1.37022480E-02  2.81436836E-02  1.74579178E-02
 -4.55874403E-02 -6.69834061E-02 -4.21192040E-02  3.68768775E-02 -1.96879808E-02
 -4.08300505E-02  3.67796133E-02  3.72208536E-02  8.42388656E-02  7.63298169E-02
 -1.37926632E-02 -5.66240954E-02 -5.46172064E-03 -2.37432073E-02 -1.43506618E-01
 -2.31022267E-02 -5.88070752E-03 -1.57124893E-02 -1.60995522E-01  7.37640332E-02
 -2.26714166E-02  5.20791580E-02 -4.78416097E-02 -3.66885440E-02 -5.34443462E-02
 -3.70144689E-02  1.80960520E-02 -1.65947314E-03 -6.53516608E-02 -2.76390214E-02
 -1.62161594E-02  1.18805797E-02  1.89624206E-02  1.10064570E-01  1.03835395E-01
 -3.11682634E-03 -1.11140990E-03 -8.53915850E-02  3.31062224E-02 -5.59845812E-02
  7.66913173E-03 -7.72368016E-02  3.47152050E-02 -5.62241420E-02 -1.00439609E-02
 -3.97391639E-02  4.76671323E-02 -8.04399733E-02 -1.41865294E-02  3.30855768E-03
  1.12490032E-02 -6.57887186E-02  2.00574072E-02  6.47035807E-03  9.60327125E-02
  6.71690131E-02  5.02780093E-02  4.07284934E-02 -8.16260104E-02 -5.25858610E-02
  2.03626401E-02  8.40960058E-02  2.05729573E-01 -6.62876837E-02  7.54785728E-02
  2.87046754E-02  1.58682983E-01 -3.23739603E-02  6.82780111E-02 -5.61865058E-02
  3.60735313E-03  3.17213470E-02 -3.61814460E-02  5.79037604E-02  7.53281664E-02
  5.45038070E-02 -1.44878811E-01  2.62683745E-02  5.61358674E-03 -1.54679483E-01
 -1.10727447E-01  4.58110507E-02  1.92059406E-02  2.03626401E-02  8.40960058E-02
 -2.05729573E-01  6.62876837E-02  7.54785728E-02  2.87046754E-02 -1.58682983E-01
  3.23739603E-02  6.82780111E-02 -5.61865058E-02 -3.60735313E-03 -3.17213470E-02
 -3.61814460E-02  5.79037604E-02  7.53281664E-02  5.45038070E-02 -1.44878811E-01
 -2.62683745E-02 -5.61358674E-03 -1.54679483E-01 -1.10727447E-01  4.58110507E-02
  1.92059406E-02 -3.11682634E-03 -1.11140990E-03  8.53915850E-02 -3.31062224E-02
 -5.59845812E-02  7.66913173E-03  7.72368016E-02 -3.47152050E-02 -5.62241420E-02
 -1.00439609E-02  3.97391639E-02 -4.76671323E-02 -8.04399733E-02 -1.41865294E-02
  3.30855768E-03  1.12490032E-02 -6.57887186E-02 -2.00574072E-02 -6.47035807E-03
  9.60327125E-02  6.71690131E-02 -8.16260104E-02 -5.25858610E-02  5.02780093E-02
  4.07284934E-02  2.63605884E-02  8.48854949E-02 -1.59895671E-03 -1.64058802E-01
  1.61259036E-02  2.26695891E-02 -1.71845089E-04 -1.40838464E-01  7.80020571E-03
 -5.58544988E-02  5.38279325E-03 -5.06034750E-02  4.50142574E-02  2.62893929E-02
  4.53030047E-02  1.11644711E-01  1.85293400E-02  1.52048076E-02  2.12122579E-02
 -1.02764338E-01 -7.93667290E-02  1.11473446E-01  5.46780837E-02 -7.08651102E-02
 -6.56553686E-02 -1.15577869E-02 -3.59904387E-02  6.52942621E-03  1.94595674E-01
 -6.34054495E-03 -1.30007607E-02  1.75725108E-02  1.35535132E-01  8.75898097E-03
 -1.09512874E-02  1.71656529E-02 -8.13096795E-03  9.34820279E-02 -9.85580665E-02
 -2.33802165E-02  4.47763867E-02 -3.96098358E-03  6.33063954E-03 -1.51508516E-02
 -1.44584631E-01 -8.77526385E-02  1.18433633E-01  8.20555862E-02 -1.15577869E-02
 -3.59904387E-02 -6.52942621E-03 -1.94595674E-01 -6.34054495E-03 -1.30007607E-02
 -1.75725108E-02 -1.35535132E-01  8.75898097E-03 -1.09512874E-02 -1.71656529E-02
  8.13096795E-03  9.34820279E-02 -9.85580665E-02 -2.33802165E-02  4.47763867E-02
 -3.96098358E-03 -6.33063954E-03  1.51508516E-02 -1.44584631E-01 -8.77526385E-02
  1.18433633E-01  8.20555862E-02  2.63605884E-02  8.48854949E-02  1.59895671E-03
  1.64058802E-01  1.61259036E-02  2.26695891E-02  1.71845089E-04  1.40838464E-01
  7.80020571E-03 -5.58544988E-02 -5.38279325E-03  5.06034750E-02  4.50142574E-02
  2.62893929E-02  4.53030047E-02  1.11644711E-01  1.85293400E-02 -1.52048076E-02
 -2.12122579E-02 -1.02764338E-01 -7.93667290E-02 -7.08651102E-02 -6.56553686E-02
  1.11473446E-01  5.46780837E-02  5.03322026E-02  1.32913240E-01 -2.04354118E-02
 -2.74948319E-02 -1.09932383E-01  3.01582333E-02 -2.45020955E-03 -3.15098659E-02
 -6.20009283E-02 -7.65141574E-02  2.50910868E-03 -9.36228953E-03  1.79896948E-01
  9.70670712E-02  1.10412547E-01  7.05086421E-02 -7.05625475E-02  5.66511799E-02
  6.80034037E-02  5.26583267E-02 -1.01610660E-02  8.53875714E-02 -1.50073570E-02
 -3.37060742E-02 -3.69337107E-02 -3.08240131E-02 -8.78689990E-02  9.30675610E-02
 -2.09368427E-01 -4.66971325E-02 -2.39172132E-02  5.86748238E-02 -1.26390445E-01
 -2.28229027E-02  2.83968658E-02  1.57696910E-02 -2.93558104E-02  2.12725893E-01
 -3.56244969E-02 -7.91386023E-02 -7.08018214E-02  4.22110085E-02 -7.56501747E-03
 -1.23196097E-01  4.25952272E-02  2.82482784E-02 -1.60791955E-01 -2.61282370E-02
 -3.08240131E-02 -8.78689990E-02 -9.30675610E-02  2.09368427E-01 -4.66971325E-02
 -2.39172132E-02 -5.86748238E-02  1.26390445E-01 -2.28229027E-02  2.83968658E-02
 -1.57696910E-02  2.93558104E-02  2.12725893E-01 -3.56244969E-02 -7.91386023E-02
 -7.08018214E-02  4.22110085E-02  7.56501747E-03  1.23196097E-01  4.25952272E-02
  2.82482784E-02 -1.60791955E-01 -2.61282370E-02  5.03322026E-02  1.32913240E-01
  2.04354118E-02  2.74948319E-02 -1.09932383E-01  3.01582333E-02  2.45020955E-03
  3.15098659E-02 -6.20009283E-02 -7.65141574E-02 -2.50910868E-03  9.36228953E-03
  1.79896948E-01  9.70670712E-02  1.10412547E-01  7.05086421E-02 -7.05625475E-02
 -5.66511799E-02 -6.80034037E-02  5.26583267E-02 -1.01610660E-02 -3.37060742E-02
 -3.69337107E-02  8.53875714E-02 -1.50073570E-02 -2.12926431E-02 -8.04655386E-02
  5.76414287E-03  4.21180909E-03  2.26500721E-02 -5.42379231E-03  2.70866117E-02
 -3.13445671E-02  4.67916006E-02  6.56160383E-02  7.61648429E-03 -1.04050769E-02
  5.27002303E-02 -3.99468038E-02 -2.71475396E-02 -1.08253941E-01 -2.26486217E-01
  1.07654345E-01  1.03640199E-01  1.13070927E-01  4.58629826E-02 -2.57351590E-02
  4.78887709E-03 -9.11956741E-02  1.65357891E-03 -1.38275730E-02 -7.82727433E-02
  8.19487705E-02  2.78689709E-02 -1.06021659E-01 -1.20073267E-02  5.74980949E-02
  1.52255838E-02 -9.34289192E-02  8.01489278E-02  1.08483905E-02  4.72913157E-03
  7.92137418E-03 -8.18236419E-02 -5.19303334E-02 -4.21524756E-02  1.15555582E-01
 -2.35689018E-01  2.75577912E-01 -4.22550979E-02 -5.24884540E-03  6.69127477E-02
  2.74116770E-02 -1.38275730E-02 -7.82727433E-02 -8.19487705E-02 -2.78689709E-02
 -1.06021659E-01 -1.20073267E-02 -5.74980949E-02 -1.52255838E-02 -9.34289192E-02
  8.01489278E-02 -1.08483905E-02 -4.72913157E-03  7.92137418E-03 -8.18236419E-02
 -5.19303334E-02 -4.21524756E-02  1.15555582E-01  2.35689018E-01 -2.75577912E-01
 -4.22550979E-02 -5.24884540E-03  6.69127477E-02  2.74116770E-02 -2.12926431E-02
 -8.04655386E-02 -5.76414287E-03 -4.21180909E-03  2.26500721E-02 -5.42379231E-03
 -2.70866117E-02  3.13445671E-02  4.67916006E-02  6.56160383E-02 -7.61648429E-03
  1.04050769E-02  5.27002303E-02 -3.99468038E-02 -2.71475396E-02 -1.08253941E-01
 -2.26486217E-01 -1.07654345E-01 -1.03640199E-01  1.13070927E-01  4.58629826E-02
 -9.11956741E-02  1.65357891E-03 -2.57351590E-02  4.78887709E-03 -2.56599523E-03
  2.28858816E-02  1.74460197E-02  1.13597747E-02  5.35680450E-02 -1.05319170E-02
  2.01570911E-02  3.91591786E-02 -2.57717638E-02 -1.89703735E-02  2.59517712E-02
 -9.24948287E-03 -1.10552111E-01 -2.41455512E-02  1.15250626E-02  6.77569871E-02
 -2.02569231E-01  1.46878164E-01 -1.65726689E-01  6.19421842E-02 -7.46096780E-03
 -3.63852463E-02  6.25374203E-03 -9.45375772E-02 -1.96142137E-02  1.84463258E-02
  3.30022552E-02 -8.08027577E-03  9.07680412E-02  9.74552169E-02  1.97133107E-02
  7.68861303E-02 -3.33934190E-02  8.90599952E-02 -5.48583459E-02  2.60815163E-02
 -2.03034077E-02 -6.42182159E-02 -3.76371044E-02  3.01368287E-02  7.30775229E-02
  3.70199064E-01 -9.31103436E-04 -2.29914426E-01  7.97763832E-02 -1.24966438E-02
  1.39203970E-02 -1.77541825E-03  1.84463258E-02  3.30022552E-02  8.08027577E-03
 -9.07680412E-02  9.74552169E-02  1.97133107E-02 -7.68861303E-02  3.33934190E-02
  8.90599952E-02 -5.48583459E-02 -2.60815163E-02  2.03034077E-02 -6.42182159E-02
 -3.76371044E-02  3.01368287E-02  7.30775229E-02  3.70199064E-01  9.31103436E-04
  2.29914426E-01  7.97763832E-02 -1.24966438E-02  1.39203970E-02 -1.77541825E-03
 -2.56599523E-03  2.28858816E-02 -1.74460197E-02 -1.13597747E-02  5.35680450E-02
 -1.05319170E-02 -2.01570911E-02 -3.91591786E-02 -2.57717638E-02 -1.89703735E-02
 -2.59517712E-02  9.24948287E-03 -1.10552111E-01 -2.41455512E-02  1.15250626E-02
  6.77569871E-02 -2.02569231E-01 -1.46878164E-01  1.65726689E-01  6.19421842E-02
 -7.46096780E-03 -9.45375772E-02 -1.96142137E-02 -3.63852463E-02  6.25374203E-03
 -7.15685563E-02 -1.30795707E-01 -5.59315486E-02 -8.97622077E-02  1.85703524E-01
 -3.17121727E-02 -6.38632125E-03 -2.59865051E-02  3.43010834E-02  1.67802803E-01
  3.70165336E-02 -6.09698605E-02  5.50911657E-03 -7.29148644E-02 -8.11424977E-02
 -1.08773343E-01 -4.83172430E-02 -9.36155681E-02 -5.38564414E-02  2.86424988E-02
  3.76895332E-02 -9.37366685E-02  4.09956591E-02 -5.48147164E-02  4.14891432E-02
 -5.76862703E-02 -1.43610804E-01  1.41058877E-01  1.20485283E-02 -6.43348182E-02
 -3.97624699E-02  3.45173882E-02 -5.44520337E-03  3.56712293E-03  1.82636525E-01
  1.44647379E-02 -2.69635067E-02 -2.21758326E-03 -1.31321612E-01 -9.36423137E-02
 -7.48860640E-02 -6.94611286E-02  2.20613093E-01 -2.20459761E-01 -1.25882941E-01
  2.82184265E-02 -9.89748012E-02  3.66801760E-02 -5.76862703E-02 -1.43610804E-01
 -1.41058877E-01 -1.20485283E-02 -6.43348182E-02 -3.97624699E-02 -3.45173882E-02
  5.44520337E-03  3.56712293E-03  1.82636525E-01 -1.44647379E-02  2.69635067E-02
 -2.21758326E-03 -1.31321612E-01 -9.36423137E-02 -7.48860640E-02 -6.94611286E-02
 -2.20613093E-01  2.20459761E-01 -1.25882941E-01  2.82184265E-02 -9.89748012E-02
  3.66801760E-02 -7.15685563E-02 -1.30795707E-01  5.59315486E-02  8.97622077E-02
  1.85703524E-01 -3.17121727E-02  6.38632125E-03  2.59865051E-02  3.43010834E-02
  1.67802803E-01 -3.70165336E-02  6.09698605E-02  5.50911657E-03 -7.29148644E-02
 -8.11424977E-02 -1.08773343E-01 -4.83172430E-02  9.36155681E-02  5.38564414E-02
  2.86424988E-02  3.76895332E-02 -5.48147164E-02  4.14891432E-02 -9.37366685E-02
  4.09956591E-02  1.10728107E-02 -1.91470476E-03 -1.22249274E-02  2.32015755E-02
  2.02837210E-01 -6.73488849E-04  8.41494830E-04  3.79518651E-03  1.48453304E-01
 -1.72886494E-02  1.41037276E-02 -1.47361458E-02 -1.72981417E-02 -1.30746057E-02
 -5.96401566E-02  6.29450732E-02  6.12091923E-02  9.86539860E-02  4.71139017E-01
 -1.88929528E-02 -9.97456115E-03  1.11043479E-01 -1.16618073E-02 -2.91527059E-02
 -7.53395728E-03  3.79083814E-02  5.30413532E-03  5.57792608E-02 -6.71358624E-03
  1.31990420E-01  1.96507283E-02  3.87001258E-02  4.61006088E-02 -2.55030720E-03
 -4.11651694E-02  7.56595356E-03  2.80074283E-03 -9.24619548E-02  5.47522134E-02
  9.56507619E-02 -1.54785187E-01  1.19892054E-01  1.49599716E-01 -1.75931863E-02
  5.90214247E-02 -3.06524703E-03 -5.35292521E-02 -3.17147818E-02  3.79083814E-02
  5.30413532E-03 -5.57792608E-02  6.71358624E-03  1.31990420E-01  1.96507283E-02
 -3.87001258E-02 -4.61006088E-02 -2.55030720E-03 -4.11651694E-02 -7.56595356E-03
 -2.80074283E-03 -9.24619548E-02  5.47522134E-02  9.56507619E-02 -1.54785187E-01
  1.19892054E-01 -1.49599716E-01  1.75931863E-02  5.90214247E-02 -3.06524703E-03
 -5.35292521E-02 -3.17147818E-02  1.10728107E-02 -1.91470476E-03  1.22249274E-02
 -2.32015755E-02  2.02837210E-01 -6.73488849E-04 -8.41494830E-04 -3.79518651E-03
  1.48453304E-01 -1.72886494E-02 -1.41037276E-02  1.47361458E-02 -1.72981417E-02
 -1.30746057E-02 -5.96401566E-02  6.29450732E-02  6.12091923E-02 -9.86539860E-02
 -4.71139017E-01 -1.88929528E-02 -9.97456115E-03 -2.91527059E-02 -7.53395728E-03
  1.11043479E-01 -1.16618073E-02 -1.06430967E-01 -8.24868245E-02  3.31084777E-02
 -3.66935282E-02  1.12168442E-02 -1.10915941E-02 -2.55586138E-02  6.32222314E-02
 -1.64827485E-02  1.01371885E-01 -6.46650650E-02  9.44307906E-02  1.61842544E-02
 -1.31219378E-01 -1.11393127E-01  1.02141710E-01  1.45281409E-01  3.26438855E-01
 -6.03233625E-02 -1.39478152E-01  5.13663942E-02  1.25059678E-01  4.01485126E-02
 -9.41179051E-03  2.22987307E-02 -2.80394416E-03  1.58896847E-02  4.40308456E-02
  3.73406816E-02 -6.61215312E-02 -1.37272167E-02 -3.20951672E-02  4.30982125E-02
  2.53720182E-02  7.99958479E-02 -3.88603985E-02  5.71530558E-02  2.57625593E-02
  6.26906097E-02  6.46597943E-02 -9.06455098E-02 -1.03355773E-01 -3.02556533E-01
 -1.79001133E-01 -1.04956469E-02  1.36812182E-02 -1.34824372E-01  9.78016269E-03
 -2.80394416E-03  1.58896847E-02 -4.40308456E-02 -3.73406816E-02 -6.61215312E-02
 -1.37272167E-02  3.20951672E-02 -4.30982125E-02  2.53720182E-02  7.99958479E-02
  3.88603985E-02 -5.71530558E-02  2.57625593E-02  6.26906097E-02  6.46597943E-02
 -9.06455098E-02 -1.03355773E-01  3.02556533E-01  1.79001133E-01 -1.04956469E-02
  1.36812182E-02 -1.34824372E-01  9.78016269E-03 -1.06430967E-01 -8.24868245E-02
 -3.31084777E-02  3.66935282E-02  1.12168442E-02 -1.10915941E-02  2.55586138E-02
 -6.32222314E-02 -1.64827485E-02  1.01371885E-01  6.46650650E-02 -9.44307906E-02
  1.61842544E-02 -1.31219378E-01 -1.11393127E-01  1.02141710E-01  1.45281409E-01
 -3.26438855E-01  6.03233625E-02 -1.39478152E-01  5.13663942E-02 -9.41179051E-03
  2.22987307E-02  1.25059678E-01  4.01485126E-02 -3.45630563E-02 -3.24514019E-02
 -1.24146195E-01 -7.75084473E-03 -8.15869711E-02  8.85860209E-03 -7.55794484E-02
  1.03607620E-02 -1.31214795E-02  2.53538743E-02 -4.12240305E-02  7.32991170E-02
  4.79645615E-02 -1.08662519E-02  3.23534772E-02 -8.00649600E-02  3.17925587E-01
  2.44538435E-01 -1.10147060E-01 -4.95248258E-02  5.14231568E-02  5.38046386E-03
 -8.80130309E-03  5.63286185E-02  3.05163354E-03  4.53219784E-02  1.11720207E-03
  1.03602370E-01 -2.66459558E-02 -1.45203102E-01  7.82838484E-03  7.95606367E-02
 -3.90241060E-02 -6.50611889E-02  2.01009748E-02 -2.91358791E-03  3.49025861E-02
  2.12379030E-02 -5.91055175E-02 -2.34105748E-02  6.68218779E-02  2.55033918E-01
  2.75666904E-01  1.81570746E-01 -2.49832506E-02 -2.26229932E-02  4.97514371E-02
  5.33244407E-04  4.53219784E-02  1.11720207E-03 -1.03602370E-01  2.66459558E-02
 -1.45203102E-01  7.82838484E-03 -7.95606367E-02  3.90241060E-02 -6.50611889E-02
  2.01009748E-02  2.91358791E-03 -3.49025861E-02  2.12379030E-02 -5.91055175E-02
 -2.34105748E-02  6.68218779E-02  2.55033918E-01 -2.75666904E-01 -1.81570746E-01
 -2.49832506E-02 -2.26229932E-02  4.97514371E-02  5.33244407E-04 -3.45630563E-02
 -3.24514019E-02  1.24146195E-01  7.75084473E-03 -8.15869711E-02  8.85860209E-03
  7.55794484E-02 -1.03607620E-02 -1.31214795E-02  2.53538743E-02  4.12240305E-02
 -7.32991170E-02  4.79645615E-02 -1.08662519E-02  3.23534772E-02 -8.00649600E-02
  3.17925587E-01 -2.44538435E-01  1.10147060E-01 -4.95248258E-02  5.14231568E-02
  5.63286185E-02  3.05163354E-03  5.38046386E-03 -8.80130309E-03 -4.06485866E-01
 -3.24162932E-02  4.64930089E-02 -2.63652388E-02 -9.42706345E-02  4.68054730E-04
  2.90154394E-02  8.73654609E-03 -2.01043918E-02 -2.41671620E-03  8.44262182E-03
  6.63994082E-02  5.15555398E-02 -3.15934739E-02  1.73466995E-02  6.73904913E-02
 -8.34287533E-02 -1.56948068E-01  3.36874267E-02  3.40105060E-02  1.60387927E-02
  8.93518315E-02  4.20139963E-03  2.73139249E-03  1.78240826E-02  4.94198974E-01
  4.24157757E-02 -5.35194685E-02  4.33162059E-02 -6.84387875E-02  9.94973136E-03
  1.06146215E-02  4.61070297E-03 -2.35320118E-02  1.70955923E-03  1.18403585E-02
  2.97895515E-02  4.73449954E-02 -1.71896351E-02 -8.88743326E-03 -3.24442604E-02
  4.19009053E-02  5.22618000E-02 -7.62699600E-03 -1.77126532E-02 -2.52186212E-02
 -5.59902411E-02 -4.08406217E-03  4.94198974E-01  4.24157757E-02  5.35194685E-02
 -4.33162059E-02 -6.84387875E-02  9.94973136E-03 -1.06146215E-02 -4.61070297E-03
 -2.35320118E-02  1.70955923E-03 -1.18403585E-02 -2.97895515E-02  4.73449954E-02
 -1.71896351E-02 -8.88743326E-03 -3.24442604E-02  4.19009053E-02 -5.22618000E-02
  7.62699600E-03 -1.77126532E-02 -2.52186212E-02 -5.59902411E-02 -4.08406217E-03
 -4.06485866E-01 -3.24162932E-02 -4.64930089E-02  2.63652388E-02 -9.42706345E-02
  4.68054730E-04 -2.90154394E-02 -8.73654609E-03 -2.01043918E-02 -2.41671620E-03
 -8.44262182E-03 -6.63994082E-02  5.15555398E-02 -3.15934739E-02  1.73466995E-02
  6.73904913E-02 -8.34287533E-02  1.56948068E-01 -3.36874267E-02  3.40105060E-02
  1.60387927E-02  2.73139249E-03  1.78240826E-02  8.93518315E-02  4.20139963E-03
  5.03871753E-01 -8.03150212E-03 -1.05227536E-02  4.45937993E-03  1.62274176E-02
  4.92569759E-03 -1.12808566E-02 -1.92502029E-03  1.13812688E-03  3.70938927E-02
 -5.92170100E-03 -1.67316762E-02 -1.24043834E-02 -3.80563566E-02 -5.96611432E-02
 -6.82402352E-02  2.16034397E-02  4.57914949E-02 -3.34472686E-02 -3.49874390E-02
  5.14585837E-03 -4.85587565E-02  9.36314508E-03 -2.02053514E-02  3.60134427E-03
  4.65561132E-01 -1.54690882E-02  5.19707223E-03 -2.22021225E-03  1.81523385E-02
  5.96954271E-03 -5.34274919E-03  2.05087705E-04  1.01458616E-02  3.71472450E-02
 -7.40429344E-03 -6.22174387E-03 -4.51593375E-03 -5.75921275E-02 -6.53836335E-02
 -4.88714905E-02 -3.68909670E-02 -4.61398851E-02 -3.48947147E-02 -4.13708241E-02
  1.18856804E-02 -3.35513859E-02  8.05816482E-03  4.65561132E-01 -1.54690882E-02
 -5.19707223E-03  2.22021225E-03  1.81523385E-02  5.96954271E-03  5.34274919E-03
 -2.05087705E-04  1.01458616E-02  3.71472450E-02  7.40429344E-03  6.22174387E-03
 -4.51593375E-03 -5.75921275E-02 -6.53836335E-02 -4.88714905E-02 -3.68909670E-02
  4.61398851E-02  3.48947147E-02 -4.13708241E-02  1.18856804E-02 -3.35513859E-02
  8.05816482E-03  5.03871753E-01 -8.03150212E-03  1.05227536E-02 -4.45937993E-03
  1.62274176E-02  4.92569759E-03  1.12808566E-02  1.92502029E-03  1.13812688E-03
  3.70938927E-02  5.92170100E-03  1.67316762E-02 -1.24043834E-02 -3.80563566E-02
 -5.96611432E-02 -6.82402352E-02  2.16034397E-02 -4.57914949E-02  3.34472686E-02
 -3.49874390E-02  5.14585837E-03 -2.02053514E-02  3.60134427E-03 -4.85587565E-02
  9.36314508E-03 -2.14811973E-01  6.62066150E-02 -9.82785831E-02  2.05055558E-02
  1.67091361E-01 -1.15610972E-02 -5.31555571E-02 -6.89408335E-02  3.72191301E-02
 -5.88638480E-02  1.40362407E-03 -1.77641424E-01 -6.31622464E-02  2.52278797E-01
  1.12459426E-01 -1.69854351E-01  1.21776791E-01  2.33609476E-01  3.86617563E-02
  7.12221590E-02 -4.76040587E-02 -1.37579557E-01 -1.46097080E-02  1.17230074E-01
 -3.94047610E-02  1.36997024E-01 -5.49332507E-02 -2.12627690E-02 -7.99953139E-02
  1.78486453E-01  4.68614037E-03 -2.69606857E-02 -4.27286681E-02  4.67577803E-02
 -3.26894998E-02 -1.04356618E-02 -8.38119690E-02 -4.78158539E-02 -1.03575749E-01
 -1.57467192E-01  1.09033269E-01 -1.12833299E-01 -1.67757468E-01 -7.25883724E-02
 -5.91609125E-02  2.88552875E-02  6.83253813E-02 -3.60814619E-04  1.36997024E-01
 -5.49332507E-02  2.12627690E-02  7.99953139E-02  1.78486453E-01  4.68614037E-03
  2.69606857E-02  4.27286681E-02  4.67577803E-02 -3.26894998E-02  1.04356618E-02
  8.38119690E-02 -4.78158539E-02 -1.03575749E-01 -1.57467192E-01  1.09033269E-01
 -1.12833299E-01  1.67757468E-01  7.25883724E-02 -5.91609125E-02  2.88552875E-02
  6.83253813E-02 -3.60814619E-04 -2.14811973E-01  6.62066150E-02  9.82785831E-02
 -2.05055558E-02  1.67091361E-01 -1.15610972E-02  5.31555571E-02  6.89408335E-02
  3.72191301E-02 -5.88638480E-02 -1.40362407E-03  1.77641424E-01 -6.31622464E-02
  2.52278797E-01  1.12459426E-01 -1.69854351E-01  1.21776791E-01 -2.33609476E-01
 -3.86617563E-02  7.12221590E-02 -4.76040587E-02  1.17230074E-01 -3.94047610E-02
 -1.37579557E-01 -1.46097080E-02 -4.30641849E-02  4.83512735E-02 -2.38198882E-01
  3.91978306E-01 -1.00311205E-02 -6.41726871E-03  3.68119161E-03  2.00061737E-02
 -1.12712087E-02 -8.84575722E-02  1.77106600E-01 -2.53642327E-01 -2.40633123E-02
  2.27505337E-02 -9.20511929E-02  1.78560551E-01 -9.88420122E-03  7.42296017E-02
 -1.48849242E-01  1.99781851E-02 -1.44548870E-01 -1.85443597E-02  2.47067053E-02
 -5.21801429E-02 -1.06671515E-02  3.41360664E-02 -4.77245329E-02  6.65074966E-02
  1.61554633E-01 -1.12544755E-01 -2.63718057E-02 -1.78201466E-02  3.53372537E-02
  8.59742839E-03  5.71444136E-05  7.36261893E-02 -1.50616479E-01  5.93285515E-02
  2.13848867E-02  1.08443348E-01 -2.37893574E-01 -8.84746995E-02  5.28968257E-02
  1.01268902E-01  1.62341637E-02  5.01937354E-02 -3.99317835E-02  7.35335097E-04
  3.41360664E-02 -4.77245329E-02 -6.65074966E-02 -1.61554633E-01 -1.12544755E-01
 -2.63718057E-02  1.78201466E-02 -3.53372537E-02  8.59742839E-03  5.71444136E-05
 -7.36261893E-02  1.50616479E-01  5.93285515E-02  2.13848867E-02  1.08443348E-01
 -2.37893574E-01 -8.84746995E-02 -5.28968257E-02 -1.01268902E-01  1.62341637E-02
  5.01937354E-02 -3.99317835E-02  7.35335097E-04 -4.30641849E-02  4.83512735E-02
  2.38198882E-01 -3.91978306E-01 -1.00311205E-02 -6.41726871E-03 -3.68119161E-03
 -2.00061737E-02 -1.12712087E-02 -8.84575722E-02 -1.77106600E-01  2.53642327E-01
 -2.40633123E-02  2.27505337E-02 -9.20511929E-02  1.78560551E-01 -9.88420122E-03
 -7.42296017E-02  1.48849242E-01  1.99781851E-02 -1.44548870E-01 -5.21801429E-02
 -1.06671515E-02 -1.85443597E-02  2.47067053E-02 -1.85707940E-02  7.23262856E-03
  2.44392949E-01 -1.39246323E-01 -1.78664046E-01  5.36431925E-03 -2.69436167E-02
 -8.19108199E-02  6.87011422E-03 -1.28375961E-02 -1.81692529E-01 -5.29277623E-02
  6.22866112E-02  3.35071569E-01 -2.46192169E-01 -7.30553522E-02 -1.83259353E-01
  1.74269179E-01 -1.04800084E-01  1.04083549E-02  3.37429259E-02 -7.25711964E-02
 -2.33362014E-02  1.15630143E-01 -4.90965444E-02  1.22289435E-02 -8.83519900E-03
  1.33001811E-01  1.61610331E-01  1.16429554E-01  1.47091348E-03 -4.30004001E-02
  5.60029466E-02 -3.70160572E-02  3.61327821E-03 -1.18576462E-01  1.86527293E-02
 -3.03499712E-02  1.49971986E-01  3.93639843E-02 -2.08839372E-01 -6.06656988E-02
  1.91905559E-01  4.45301492E-02  3.83858346E-02  5.15557091E-02 -1.32873494E-02
 -2.85646225E-02  1.22289435E-02 -8.83519900E-03 -1.33001811E-01 -1.61610331E-01
  1.16429554E-01  1.47091348E-03  4.30004001E-02 -5.60029466E-02 -3.70160572E-02
  3.61327821E-03  1.18576462E-01 -1.86527293E-02 -3.03499712E-02  1.49971986E-01
  3.93639843E-02 -2.08839372E-01 -6.06656988E-02 -1.91905559E-01 -4.45301492E-02
  3.83858346E-02  5.15557091E-02 -1.32873494E-02 -2.85646225E-02 -1.85707940E-02
  7.23262856E-03 -2.44392949E-01  1.39246323E-01 -1.78664046E-01  5.36431925E-03
  2.69436167E-02  8.19108199E-02  6.87011422E-03 -1.28375961E-02  1.81692529E-01
  5.29277623E-02  6.22866112E-02  3.35071569E-01 -2.46192169E-01 -7.30553522E-02
 -1.83259353E-01 -1.74269179E-01  1.04800084E-01  1.04083549E-02  3.37429259E-02
  1.15630143E-01 -4.90965444E-02 -7.25711964E-02 -2.33362014E-02  1.36671848E-02
 -2.45063372E-02  6.18848547E-02  6.33028367E-03 -2.72473316E-02  1.50170769E-03
  8.03242438E-02  3.32407520E-02  3.65256876E-03 -5.89470784E-03  1.44603894E-01
  7.04392431E-02  2.39827440E-02 -1.68438561E-01  1.67526835E-01 -4.93924339E-02
 -2.53045640E-01  4.06824276E-01  4.30235098E-02  4.05087265E-02 -3.46636508E-02
  4.58491333E-02 -1.99843299E-02 -6.61124424E-02  8.05511341E-02 -3.21880311E-03
  2.84511806E-02 -2.95501145E-01  9.57019902E-03 -4.24294867E-02 -1.21468248E-02
 -4.49805305E-02  1.20056676E-02 -3.23500711E-02 -1.36469680E-02  7.45768578E-02
  2.60290209E-03  6.42037394E-03  5.82711090E-02 -1.04992272E-01  1.03911407E-01
 -2.92372731E-01  3.04185633E-01  1.80618283E-02  2.84439318E-03 -1.34372720E-02
  9.21974683E-03 -8.79847139E-03 -3.21880311E-03  2.84511806E-02  2.95501145E-01
 -9.57019902E-03 -4.24294867E-02 -1.21468248E-02  4.49805305E-02 -1.20056676E-02
 -3.23500711E-02 -1.36469680E-02 -7.45768578E-02 -2.60290209E-03  6.42037394E-03
  5.82711090E-02 -1.04992272E-01  1.03911407E-01 -2.92372731E-01 -3.04185633E-01
 -1.80618283E-02  2.84439318E-03 -1.34372720E-02  9.21974683E-03 -8.79847139E-03
  1.36671848E-02 -2.45063372E-02 -6.18848547E-02 -6.33028367E-03 -2.72473316E-02
  1.50170769E-03 -8.03242438E-02 -3.32407520E-02  3.65256876E-03 -5.89470784E-03
 -1.44603894E-01 -7.04392431E-02  2.39827440E-02 -1.68438561E-01  1.67526835E-01
 -4.93924339E-02 -2.53045640E-01 -4.06824276E-01 -4.30235098E-02  4.05087265E-02
 -3.46636508E-02 -6.61124424E-02  8.05511341E-02  4.58491333E-02 -1.99843299E-02
 -2.78270736E-02  6.02667009E-02  4.67139287E-01  3.29217568E-01  1.10809394E-01
 -5.97684878E-03 -4.26804881E-02 -1.40367892E-02 -9.54835292E-03  5.51092086E-03
 -2.83225821E-01 -1.68700183E-01 -3.82446844E-02 -1.91004945E-01  2.14242009E-01
  9.65226829E-02  3.00202206E-02  7.82416068E-03 -3.16903385E-03 -7.69768085E-02
  3.35752962E-02 -2.28930547E-02  5.06821360E-02 -7.61294627E-02 -1.75578757E-01
  2.36966707E-02 -4.61244990E-02  1.41542406E-01 -4.44411742E-02 -6.21617796E-02
  2.88808524E-03 -3.80281328E-02 -1.60855194E-02  1.27506099E-02  3.39263486E-02
 -1.65402356E-01 -1.43429176E-02 -1.29964943E-04 -9.37831630E-02 -5.91047629E-02
  6.09401465E-02 -3.02323551E-02  8.29580022E-02  3.33161991E-02 -2.10959039E-03
  7.19977272E-02  5.20079876E-02  1.90026241E-02  2.36966707E-02 -4.61244990E-02
 -1.41542406E-01  4.44411742E-02 -6.21617796E-02  2.88808524E-03  3.80281328E-02
  1.60855194E-02  1.27506099E-02  3.39263486E-02  1.65402356E-01  1.43429176E-02
 -1.29964943E-04 -9.37831630E-02 -5.91047629E-02  6.09401465E-02 -3.02323551E-02
 -8.29580022E-02 -3.33161991E-02 -2.10959039E-03  7.19977272E-02  5.20079876E-02
  1.90026241E-02 -2.78270736E-02  6.02667009E-02 -4.67139287E-01 -3.29217568E-01
  1.10809394E-01 -5.97684878E-03  4.26804881E-02  1.40367892E-02 -9.54835292E-03
  5.51092086E-03  2.83225821E-01  1.68700183E-01 -3.82446844E-02 -1.91004945E-01
  2.14242009E-01  9.65226829E-02  3.00202206E-02 -7.82416068E-03  3.16903385E-03
 -7.69768085E-02  3.35752962E-02 -7.61294627E-02 -1.75578757E-01 -2.28930547E-02
  5.06821360E-02  6.90408752E-03 -2.23428285E-02 -7.87676364E-02 -3.50049025E-02
 -2.08110867E-01 -1.41887692E-03  2.10953993E-02  7.59518010E-03  3.46208982E-02
 -2.61142105E-02  4.52549623E-02 -3.59495452E-02  8.12703120E-02 -2.27355884E-01
  4.25242072E-01 -2.37719985E-01  9.62035391E-02 -5.87876687E-02  3.81304576E-02
  5.33575812E-02 -1.07444075E-02 -1.85178092E-02 -5.60225891E-02 -1.07774220E-02
  3.38790310E-02 -1.26920300E-02  5.67996761E-03  2.72776115E-01  4.22510432E-01
  1.94740393E-01 -2.43627027E-03 -3.38156517E-02  2.76884168E-03 -4.36388821E-02
 -2.55389585E-03 -1.47495152E-02 -3.55781515E-02 -5.10237410E-02  2.40392261E-01
 -1.50187827E-01 -8.58463490E-02  1.39229879E-02 -7.05132270E-02 -6.80775721E-02
  7.47056291E-02  9.01107232E-02 -1.09615540E-01 -8.06159187E-02 -1.26920300E-02
  5.67996761E-03 -2.72776115E-01 -4.22510432E-01  1.94740393E-01 -2.43627027E-03
  3.38156517E-02 -2.76884168E-03 -4.36388821E-02 -2.55389585E-03  1.47495152E-02
  3.55781515E-02 -5.10237410E-02  2.40392261E-01 -1.50187827E-01 -8.58463490E-02
  1.39229879E-02  7.05132270E-02  6.80775721E-02  7.47056291E-02  9.01107232E-02
 -1.09615540E-01 -8.06159187E-02  6.90408752E-03 -2.23428285E-02  7.87676364E-02
  3.50049025E-02 -2.08110867E-01 -1.41887692E-03 -2.10953993E-02 -7.59518010E-03
  3.46208982E-02 -2.61142105E-02 -4.52549623E-02  3.59495452E-02  8.12703120E-02
 -2.27355884E-01  4.25242072E-01 -2.37719985E-01  9.62035391E-02  5.87876687E-02
 -3.81304576E-02  5.33575812E-02 -1.07444075E-02 -1.07774220E-02  3.38790310E-02
 -1.85178092E-02 -5.60225891E-02  8.53794922E-02 -1.83848214E-01  1.21135102E-01
  1.70095995E-01  1.23189616E-01  1.19692068E-02 -4.47979397E-02 -7.60967338E-02
 -7.94056248E-02 -9.67825475E-02 -5.17920500E-02 -1.60091419E-01  8.47934481E-03
  3.16225879E-02 -7.31432566E-02 -2.58834350E-01  5.37639411E-02 -2.95984005E-02
  4.06709581E-02  3.14323766E-01  2.55868794E-02  2.66691253E-01  1.70616727E-01
  2.82243647E-01 -7.28673042E-02 -5.87826624E-02  1.49184398E-01 -2.01555200E-01
  1.39371058E-01 -1.73077885E-01 -8.33867674E-03  5.99476748E-02  1.55676709E-02
  2.38847332E-02 -1.55000766E-02  2.44848416E-02 -3.21732555E-02  2.10387805E-01
  2.14615686E-01 -2.60433582E-02  6.32862747E-02  1.38815822E-01 -1.84775980E-02
 -1.07601819E-01 -2.11380757E-01 -1.60222102E-01 -1.77825644E-01  3.55247810E-02
 -5.87826624E-02  1.49184398E-01  2.01555200E-01 -1.39371058E-01 -1.73077885E-01
 -8.33867674E-03 -5.99476748E-02 -1.55676709E-02  2.38847332E-02 -1.55000766E-02
 -2.44848416E-02  3.21732555E-02  2.10387805E-01  2.14615686E-01 -2.60433582E-02
  6.32862747E-02  1.38815822E-01  1.84775980E-02  1.07601819E-01 -2.11380757E-01
 -1.60222102E-01 -1.77825644E-01  3.55247810E-02  8.53794922E-02 -1.83848214E-01
 -1.21135102E-01 -1.70095995E-01  1.23189616E-01  1.19692068E-02  4.47979397E-02
  7.60967338E-02 -7.94056248E-02 -9.67825475E-02  5.17920500E-02  1.60091419E-01
  8.47934481E-03  3.16225879E-02 -7.31432566E-02 -2.58834350E-01  5.37639411E-02
  2.95984005E-02 -4.06709581E-02  3.14323766E-01  2.55868794E-02  2.82243647E-01
 -7.28673042E-02  2.66691253E-01  1.70616727E-01 -2.07870937E-02  1.14228593E-01
  5.10154437E-02 -1.24865210E-01  1.93340948E-01 -1.27595826E-02 -2.17742765E-02
  5.03291317E-02 -8.69534490E-02  4.71833326E-02  5.17093631E-02  1.08528253E-01
 -3.05742796E-01  1.49021484E-01  1.88133540E-01 -1.40278136E-01  1.42880077E-02
 -2.03021017E-02 -1.04399772E-02 -8.07684649E-02 -4.42132325E-02 -7.90289668E-02
  8.88642102E-02 -1.11073463E-01 -6.90894003E-02  5.39219644E-02 -5.22169965E-02
  6.52319539E-02 -1.01297884E-01 -3.56909241E-01 -5.50478863E-03  2.35974248E-02
  8.87282756E-02  1.74752415E-01 -3.07590839E-02  1.04344695E-01  4.04168188E-02
  1.06071627E-01  3.98958268E-01 -1.53406560E-01 -2.98338918E-01  7.46615837E-03
 -5.81133460E-03 -1.78660592E-02  2.42399281E-01 -1.29883430E-01  2.12237380E-01
  2.14794297E-01  5.39219644E-02 -5.22169965E-02 -6.52319539E-02  1.01297884E-01
 -3.56909241E-01 -5.50478863E-03 -2.35974248E-02 -8.87282756E-02  1.74752415E-01
 -3.07590839E-02 -1.04344695E-01 -4.04168188E-02  1.06071627E-01  3.98958268E-01
 -1.53406560E-01 -2.98338918E-01  7.46615837E-03  5.81133460E-03  1.78660592E-02
  2.42399281E-01 -1.29883430E-01  2.12237380E-01  2.14794297E-01 -2.07870937E-02
  1.14228593E-01 -5.10154437E-02  1.24865210E-01  1.93340948E-01 -1.27595826E-02
  2.17742765E-02 -5.03291317E-02 -8.69534490E-02  4.71833326E-02 -5.17093631E-02
 -1.08528253E-01 -3.05742796E-01  1.49021484E-01  1.88133540E-01 -1.40278136E-01
  1.42880077E-02  2.03021017E-02  1.04399772E-02 -8.07684649E-02 -4.42132325E-02
 -1.11073463E-01 -6.90894003E-02 -7.90289668E-02  8.88642102E-02 -2.32463090E-02
  3.28581574E-02  1.01381124E-01 -7.31992059E-02 -1.28547192E-01  1.04586214E-02
 -1.32597611E-02 -4.68095316E-02  1.01618516E-02  4.63041953E-02 -5.73674291E-03
 -5.98355967E-02 -3.70543243E-02 -2.94742233E-02  3.21896219E-01 -2.54394585E-01
  8.61610936E-02  2.98491901E-02 -5.96654732E-02  1.41156790E-02  1.76503606E-02
 -1.81824367E-01  4.96790300E-02 -1.21872212E-01 -5.79429856E-02 -1.56731137E-02
  5.60646393E-03 -2.94319064E-01 -1.18136238E-01  1.17826871E-01  6.95250484E-04
  6.94688103E-02  3.66502223E-02 -1.80373427E-02  5.50621142E-02  2.97812703E-02
 -3.98599070E-04  4.27117568E-02 -1.86115273E-01  5.81577980E-01 -4.00928933E-01
  4.76978969E-02 -1.71081258E-02 -8.67822563E-03 -1.99131465E-01 -9.75534355E-02
 -7.55942266E-02  5.96396827E-02 -1.56731137E-02  5.60646393E-03  2.94319064E-01
  1.18136238E-01  1.17826871E-01  6.95250484E-04 -6.94688103E-02 -3.66502223E-02
 -1.80373427E-02  5.50621142E-02 -2.97812703E-02  3.98599070E-04  4.27117568E-02
 -1.86115273E-01  5.81577980E-01 -4.00928933E-01  4.76978969E-02  1.71081258E-02
  8.67822563E-03 -1.99131465E-01 -9.75534355E-02 -7.55942266E-02  5.96396827E-02
 -2.32463090E-02  3.28581574E-02 -1.01381124E-01  7.31992059E-02 -1.28547192E-01
  1.04586214E-02  1.32597611E-02  4.68095316E-02  1.01618516E-02  4.63041953E-02
  5.73674291E-03  5.98355967E-02 -3.70543243E-02 -2.94742233E-02  3.21896219E-01
 -2.54394585E-01  8.61610936E-02 -2.98491901E-02  5.96654732E-02  1.41156790E-02
  1.76503606E-02 -1.21872212E-01 -5.79429856E-02 -1.81824367E-01  4.96790300E-02
  5.27194208E-02 -9.18161745E-02  3.99636855E-02 -2.75055394E-01  1.11868003E-01
 -2.48407737E-02 -7.53478846E-03  8.44403435E-02 -3.24580384E-02 -1.70649111E-01
  2.41784759E-02 -7.68538430E-02  6.89328999E-03 -1.64123183E-01  7.29581649E-02
 -1.97088897E-02 -5.34577753E-04  3.32111482E-02 -7.01672859E-02  3.47030683E-01
  1.66833671E-02  2.66109750E-01 -4.47219673E-02  3.21780962E-01  2.19762928E-02
  4.53949200E-02 -7.21482928E-02  2.13322744E-01  1.74954625E-02 -1.81754868E-01
 -2.29446955E-02 -7.51876663E-02 -3.89402848E-02  6.35457463E-02 -1.43951388E-01
 -5.45156812E-03 -6.67690466E-02 -3.25209603E-02 -3.15736265E-01  3.05011712E-01
 -7.31396880E-02 -1.66779849E-01  8.02348905E-03 -5.71481930E-02  3.45658803E-01
  1.10934947E-01  2.93041310E-01 -2.37030431E-02  4.53949200E-02 -7.21482928E-02
 -2.13322744E-01 -1.74954625E-02 -1.81754868E-01 -2.29446955E-02  7.51876663E-02
  3.89402848E-02  6.35457463E-02 -1.43951388E-01  5.45156812E-03  6.67690466E-02
 -3.25209603E-02 -3.15736265E-01  3.05011712E-01 -7.31396880E-02 -1.66779849E-01
 -8.02348905E-03  5.71481930E-02  3.45658803E-01  1.10934947E-01  2.93041310E-01
 -2.37030431E-02  5.27194208E-02 -9.18161745E-02 -3.99636855E-02  2.75055394E-01
  1.11868003E-01 -2.48407737E-02  7.53478846E-03 -8.44403435E-02 -3.24580384E-02
 -1.70649111E-01 -2.41784759E-02  7.68538430E-02  6.89328999E-03 -1.64123183E-01
  7.29581649E-02 -1.97088897E-02 -5.34577753E-04 -3.32111482E-02  7.01672859E-02
  3.47030683E-01  1.66833671E-02  3.21780962E-01  2.19762928E-02  2.66109750E-01
 -4.47219673E-02 -1.67428924E-02  3.18345137E-02 -1.38971793E-01  1.18664409E-01
  5.28125665E-01  2.74774952E-02  4.75294681E-02 -7.53526919E-02 -1.96071579E-01
  4.82685456E-02 -6.22957442E-02  2.57303628E-01  1.12083660E-01  9.29130955E-02
  1.41707066E-01 -2.03876471E-01 -1.93236249E-01 -4.62342714E-02 -2.82914663E-01
 -2.81272632E-01 -5.90138611E-02  3.13486032E-01  1.96053308E-01  5.18014744E-02
  1.55029512E-02  3.47838438E-02  2.34281228E-02  8.98819564E-02  3.08587316E-02
  3.55158220E-01 -5.38987972E-02 -3.83838419E-02 -4.41273008E-02 -1.11703520E-01
  3.81468393E-02 -2.84347336E-02  1.29643458E-01  1.87632410E-01 -3.86435203E-02
  1.32424626E-01 -8.08034113E-03 -3.88764021E-02  4.27147137E-02  2.50477895E-01
  1.82094699E-01 -2.67314384E-02 -1.36239479E-01 -1.12222719E-01  3.47838438E-02
  2.34281228E-02 -8.98819564E-02 -3.08587316E-02  3.55158220E-01 -5.38987972E-02
  3.83838419E-02  4.41273008E-02 -1.11703520E-01  3.81468393E-02  2.84347336E-02
 -1.29643458E-01  1.87632410E-01 -3.86435203E-02  1.32424626E-01 -8.08034113E-03
 -3.88764021E-02 -4.27147137E-02 -2.50477895E-01  1.82094699E-01 -2.67314384E-02
 -1.36239479E-01 -1.12222719E-01 -1.67428924E-02  3.18345137E-02  1.38971793E-01
 -1.18664409E-01  5.28125665E-01  2.74774952E-02 -4.75294681E-02  7.53526919E-02
 -1.96071579E-01  4.82685456E-02  6.22957442E-02 -2.57303628E-01  1.12083660E-01
  9.29130955E-02  1.41707066E-01 -2.03876471E-01 -1.93236249E-01  4.62342714E-02
  2.82914663E-01 -2.81272632E-01 -5.90138611E-02  5.18014744E-02  1.55029512E-02
  3.13486032E-01  1.96053308E-01  4.17346627E-03 -6.59842091E-02 -3.77699394E-01
  1.85873716E-01 -1.46670819E-01 -3.99271199E-05  6.74588001E-02 -1.04044868E-01
  1.13757778E-01 -1.67875772E-02 -2.77810783E-01 -9.93195450E-02  1.35842034E-01
 -1.35039789E-01  1.28861001E-01 -9.91371933E-02 -3.47855083E-01 -2.20840190E-04
  3.40053392E-02 -3.34318439E-01 -1.08628682E-01  5.88387633E-02 -1.59290413E-02
  3.95051883E-01  6.73961848E-02 -7.35113155E-04  9.21202697E-04  1.26901734E-02
 -2.56392108E-01 -1.27847111E-01  1.22665547E-02 -8.56870023E-02  1.88326836E-01
 -6.10352843E-02 -2.55258415E-02 -2.07962051E-01  1.07329734E-01 -1.71749308E-01
  9.67017169E-02  1.61527058E-02 -1.12622441E-01  1.18996316E-01  2.58288773E-03
 -2.67010733E-01 -1.38847547E-01 -5.52498814E-02  2.89971500E-01  9.64006447E-02
 -7.35113155E-04  9.21202697E-04 -1.26901734E-02  2.56392108E-01 -1.27847111E-01
  1.22665547E-02  8.56870023E-02 -1.88326836E-01 -6.10352843E-02 -2.55258415E-02
  2.07962051E-01 -1.07329734E-01 -1.71749308E-01  9.67017169E-02  1.61527058E-02
 -1.12622441E-01  1.18996316E-01 -2.58288773E-03  2.67010733E-01 -1.38847547E-01
 -5.52498814E-02  2.89971500E-01  9.64006447E-02  4.17346627E-03 -6.59842091E-02
  3.77699394E-01 -1.85873716E-01 -1.46670819E-01 -3.99271199E-05 -6.74588001E-02
  1.04044868E-01  1.13757778E-01 -1.67875772E-02  2.77810783E-01  9.93195450E-02
  1.35842034E-01 -1.35039789E-01  1.28861001E-01 -9.91371933E-02 -3.47855083E-01
  2.20840190E-04 -3.40053392E-02 -3.34318439E-01 -1.08628682E-01  3.95051883E-01
  6.73961848E-02  5.88387633E-02 -1.59290413E-02 -2.65251528E-02 -1.09482666E-01
  1.91522775E-01  1.74679660E-01  1.27906754E-02  6.64697619E-02  1.18656541E-02
 -1.65763483E-01  1.72520531E-01 -1.04206948E-01  2.06909022E-01  3.74368172E-02
  3.69483117E-01 -3.00415352E-02 -1.23137993E-01 -6.59752548E-02  2.25027796E-01
 -4.59543571E-02 -3.02360431E-01  2.01178626E-01  6.81744553E-02  2.53201474E-01
  5.79137622E-02 -2.94970171E-01 -7.91012951E-03  8.05910318E-03 -1.57993657E-01
 -4.94803314E-02 -2.54752340E-01  2.33003901E-01  1.70983069E-02  5.77691077E-02
  1.44851097E-01 -2.64787801E-01 -1.05791368E-01  1.45210003E-01  9.58388494E-02
 -2.42593769E-01  1.40984370E-01 -1.84680368E-01 -2.03174746E-01  5.74900519E-03
 -3.23522872E-02 -1.63361351E-01  4.27684445E-02 -9.34708594E-02  3.49532920E-01
  1.61247206E-02  8.05910318E-03 -1.57993657E-01  4.94803314E-02  2.54752340E-01
  2.33003901E-01  1.70983069E-02 -5.77691077E-02 -1.44851097E-01 -2.64787801E-01
 -1.05791368E-01 -1.45210003E-01 -9.58388494E-02 -2.42593769E-01  1.40984370E-01
 -1.84680368E-01 -2.03174746E-01  5.74900519E-03  3.23522872E-02  1.63361351E-01
  4.27684445E-02 -9.34708594E-02  3.49532920E-01  1.61247206E-02 -2.65251528E-02
 -1.09482666E-01 -1.91522775E-01 -1.74679660E-01  1.27906754E-02  6.64697619E-02
 -1.18656541E-02  1.65763483E-01  1.72520531E-01 -1.04206948E-01 -2.06909022E-01
 -3.74368172E-02  3.69483117E-01 -3.00415352E-02 -1.23137993E-01 -6.59752548E-02
  2.25027796E-01  4.59543571E-02  3.02360431E-01  2.01178626E-01  6.81744553E-02
 -2.94970171E-01 -7.91012951E-03  2.53201474E-01  5.79137622E-02  2.77489953E-02
 -5.13794661E-02  3.81269871E-02  4.39845450E-01 -2.38183465E-01 -3.75999616E-02
  5.80693827E-03 -1.27413345E-01  2.81828915E-04  8.55107491E-02  6.67485178E-02
  3.44852273E-01  1.87358338E-02  4.06528501E-01 -4.04137468E-02 -3.92254677E-01
  1.63336723E-02 -3.01352505E-02  2.57299198E-01 -1.61073670E-01 -4.73978329E-02
  1.04101311E-01  6.25091497E-03 -2.23145978E-01 -7.66343096E-02 -3.26305811E-02
  4.18331166E-02  5.19651783E-02  3.09289170E-01 -3.02187524E-01  6.09645780E-02
  4.22871460E-02 -1.11679318E-01 -2.30966867E-02 -1.18126267E-02  8.42978249E-02
  1.12007934E-01 -8.60895882E-02 -3.47904914E-01  1.72595526E-01  1.77861763E-01
 -1.25852891E-01 -2.07626624E-02 -3.54668072E-01  2.21942710E-01  7.11364748E-02
  1.23937532E-01  1.58972347E-02 -3.26305811E-02  4.18331166E-02 -5.19651783E-02
 -3.09289170E-01 -3.02187524E-01  6.09645780E-02 -4.22871460E-02  1.11679318E-01
 -2.30966867E-02 -1.18126267E-02 -8.42978249E-02 -1.12007934E-01 -8.60895882E-02
 -3.47904914E-01  1.72595526E-01  1.77861763E-01 -1.25852891E-01  2.07626624E-02
  3.54668072E-01  2.21942710E-01  7.11364748E-02  1.23937532E-01  1.58972347E-02
  2.77489953E-02 -5.13794661E-02 -3.81269871E-02 -4.39845450E-01 -2.38183465E-01
 -3.75999616E-02 -5.80693827E-03  1.27413345E-01  2.81828915E-04  8.55107491E-02
 -6.67485178E-02 -3.44852273E-01  1.87358338E-02  4.06528501E-01 -4.04137468E-02
 -3.92254677E-01  1.63336723E-02  3.01352505E-02 -2.57299198E-01 -1.61073670E-01
 -4.73978329E-02 -2.23145978E-01 -7.66343096E-02  1.04101311E-01  6.25091497E-03
  6.26023858E-03  3.06521041E-02  1.88013578E-01 -7.74020774E-02 -8.22708687E-02
 -6.48304447E-02 -2.24270219E-01  3.03889242E-01  3.48038947E-01 -3.47559776E-02
  3.47953679E-01 -1.46619377E-01 -5.95848594E-02  2.16941844E-01  1.08490162E-01
 -2.68811406E-01 -1.23522444E-01 -3.35624747E-02 -1.72410689E-01 -1.90929758E-01
 -9.89416346E-02  4.82347911E-01 -1.50756311E-01 -1.48434266E-01  4.76982937E-02
 -2.04140525E-03  1.06471223E-01  2.36072747E-01 -2.69282729E-01 -1.20250716E-01
  9.83756044E-04 -3.72411808E-01  3.51865566E-01  3.02703566E-01 -4.37651356E-02
  2.13439759E-02 -9.98940304E-02 -2.23302422E-01 -5.87911739E-02  3.56304239E-02
  1.61149363E-01  1.31637505E-01  3.50068507E-03  1.48364888E-01 -2.43118354E-01
  1.62559769E-01 -3.49024640E-01  6.02921784E-02 -2.04140525E-03  1.06471223E-01
 -2.36072747E-01  2.69282729E-01 -1.20250716E-01  9.83756044E-04  3.72411808E-01
 -3.51865566E-01  3.02703566E-01 -4.37651356E-02 -2.13439759E-02  9.98940304E-02
 -2.23302422E-01 -5.87911739E-02  3.56304239E-02  1.61149363E-01  1.31637505E-01
 -3.50068507E-03 -1.48364888E-01 -2.43118354E-01  1.62559769E-01 -3.49024640E-01
  6.02921784E-02  6.26023858E-03  3.06521041E-02 -1.88013578E-01  7.74020774E-02
 -8.22708687E-02 -6.48304447E-02  2.24270219E-01 -3.03889242E-01  3.48038947E-01
 -3.47559776E-02 -3.47953679E-01  1.46619377E-01 -5.95848594E-02  2.16941844E-01
  1.08490162E-01 -2.68811406E-01 -1.23522444E-01  3.35624747E-02  1.72410689E-01
 -1.90929758E-01 -9.89416346E-02 -1.48434266E-01  4.76982937E-02  4.82347911E-01
 -1.50756311E-01  1.86154999E-02  1.11224627E-01 -1.35392716E-01 -6.82162051E-02
  1.27678603E-01 -5.50566014E-02  2.16838991E-01  1.27785670E-01  1.67086013E-01
 -3.37039050E-02 -4.06443855E-01 -3.82270034E-03  9.19884409E-02  1.21620450E-01
  8.29605561E-02 -1.74314710E-02  2.80718700E-02 -7.86676290E-02 -1.79765880E-01
 -6.36207996E-02  7.96336039E-02  4.34976309E-01 -2.85332386E-01 -1.00731328E-01
 -1.10825902E-02 -4.65764170E-02 -2.58476049E-01 -3.97495168E-01  2.23808888E-01
 -1.57544690E-01  2.12282689E-01  5.45405532E-01 -4.23380191E-01  3.96692334E-01
 -6.54747632E-02 -1.19770639E-01 -8.56178543E-02 -4.25247810E-01 -2.04914785E-04
 -1.78553649E-01 -2.61856559E-01 -9.64442898E-02 -1.72859560E-02  1.59196156E-01
 -1.46691547E-01  2.26520929E-01 -9.05762785E-02  4.64162607E-02 -4.65764170E-02
 -2.58476049E-01  3.97495168E-01 -2.23808888E-01 -1.57544690E-01  2.12282689E-01
 -5.45405532E-01  4.23380191E-01  3.96692334E-01 -6.54747632E-02  1.19770639E-01
  8.56178543E-02 -4.25247810E-01 -2.04914785E-04 -1.78553649E-01 -2.61856559E-01
 -9.64442898E-02  1.72859560E-02 -1.59196156E-01 -1.46691547E-01  2.26520929E-01
 -9.05762785E-02  4.64162607E-02  1.86154999E-02  1.11224627E-01  1.35392716E-01
  6.82162051E-02  1.27678603E-01 -5.50566014E-02 -2.16838991E-01 -1.27785670E-01
  1.67086013E-01 -3.37039050E-02  4.06443855E-01  3.82270034E-03  9.19884409E-02
  1.21620450E-01  8.29605561E-02 -1.74314710E-02  2.80718700E-02  7.86676290E-02
  1.79765880E-01 -6.36207996E-02  7.96336039E-02 -1.00731328E-01 -1.10825902E-02
  4.34976309E-01 -2.85332386E-01 -1.89928700E-02 -8.96179021E-02 -7.82164250E-02
  3.50694887E-02 -2.50633915E-01  9.49837106E-02  1.63428470E-03 -1.52731740E-01
  4.69548234E-01 -4.07652719E-02 -1.49059969E-01 -1.47064915E-01 -1.65917787E-01
 -1.32147972E-01 -2.39909544E-02 -1.08090079E-03 -3.72638719E-02 -1.07996654E-02
 -1.08998275E-01 -5.56677774E-02  9.70396267E-02 -5.35492100E-02  2.02629039E-01
  2.29337373E-01 -2.14503760E-01 -3.09473409E-02 -1.89912317E-01 -1.39106225E-02
 -4.23614404E-02  1.30365177E-01  1.73760384E-01  3.24456742E-01  3.15929187E-01
  6.39805515E-02 -1.12751178E-01  2.85955400E-01  2.07654517E-01 -3.92564933E-02
 -2.75046453E-01 -1.50938078E-01  1.19740718E-01 -1.57103253E-01  2.42288063E-03
  1.29663923E-01  6.23147824E-01 -4.11347067E-01 -5.63864304E-01  4.43142274E-01
 -3.09473409E-02 -1.89912317E-01  1.39106225E-02  4.23614404E-02  1.30365177E-01
  1.73760384E-01 -3.24456742E-01 -3.15929187E-01  6.39805515E-02 -1.12751178E-01
 -2.85955400E-01 -2.07654517E-01 -3.92564933E-02 -2.75046453E-01 -1.50938078E-01
  1.19740718E-01 -1.57103253E-01 -2.42288063E-03 -1.29663923E-01  6.23147824E-01
 -4.11347067E-01 -5.63864304E-01  4.43142274E-01 -1.89928700E-02 -8.96179021E-02
  7.82164250E-02 -3.50694887E-02 -2.50633915E-01  9.49837106E-02 -1.63428470E-03
  1.52731740E-01  4.69548234E-01 -4.07652719E-02  1.49059969E-01  1.47064915E-01
 -1.65917787E-01 -1.32147972E-01 -2.39909544E-02 -1.08090079E-03 -3.72638719E-02
  1.07996654E-02  1.08998275E-01 -5.56677774E-02  9.70396267E-02  2.29337373E-01
 -2.14503760E-01 -5.35492100E-02  2.02629039E-01  3.60979672E-02  9.75777871E-02
 -1.67024531E-01  4.63630340E-02 -1.33623286E-01 -2.93820536E-01  6.82571842E-01
 -1.43366538E-01  3.16497911E-01  3.88276241E-01 -2.95479006E-01  8.55436276E-02
 -4.33124534E-01  1.26762372E-01  3.65076772E-02  5.41901605E-02  2.10329965E-01
  2.46038113E-02 -1.19573649E-01  6.17096432E-01 -5.48854873E-01  2.97626085E-01
 -2.35776640E-01 -2.49925453E-01  3.08707827E-02  2.24542916E-02  8.81946107E-02
  3.69145948E-02 -1.39922650E-01  9.94632917E-02 -1.79698237E-01 -9.49682770E-02
  2.49241714E-01 -1.09287355E-01  3.10399905E-01 -4.77470421E-01  1.41036207E-01
  2.32921460E-01  2.36953243E-02  3.00454578E-02  1.05690530E-01 -1.40612067E-02
  5.46597514E-02 -9.78625717E-03  1.02963471E-01 -6.28495354E-02 -1.29298186E-02
 -2.66876998E-03  2.24542916E-02  8.81946107E-02 -3.69145948E-02  1.39922650E-01
  9.94632917E-02 -1.79698237E-01  9.49682770E-02 -2.49241714E-01 -1.09287355E-01
  3.10399905E-01  4.77470421E-01 -1.41036207E-01  2.32921460E-01  2.36953243E-02
  3.00454578E-02  1.05690530E-01 -1.40612067E-02 -5.46597514E-02  9.78625717E-03
  1.02963471E-01 -6.28495354E-02 -1.29298186E-02 -2.66876998E-03  3.60979672E-02
  9.75777871E-02  1.67024531E-01 -4.63630340E-02 -1.33623286E-01 -2.93820536E-01
 -6.82571842E-01  1.43366538E-01  3.16497911E-01  3.88276241E-01  2.95479006E-01
 -8.55436276E-02 -4.33124534E-01  1.26762372E-01  3.65076772E-02  5.41901605E-02
  2.10329965E-01 -2.46038113E-02  1.19573649E-01  6.17096432E-01 -5.48854873E-01
 -2.49925453E-01  3.08707827E-02  2.97626085E-01 -2.35776640E-01  3.74641420E-02
  1.18890520E-01  1.29268647E-01  1.62434839E-01 -3.74534628E-02 -2.08600016E-01
 -4.20457238E-01 -5.93381677E-01  2.69954997E-01  2.62335287E-01  3.08315341E-01
  6.75511143E-01 -3.67952375E-01 -1.44221708E-01  1.02851593E-01  2.85072749E-01
 -1.01707460E-01  1.44244968E-02 -9.98518645E-02  1.69698318E-01 -1.73350086E-01
  1.01281834E-01 -2.42757654E-01  5.93844141E-01 -4.00868571E-01 -3.59188387E-02
 -2.00093915E-01  2.42441775E-02  1.89120182E-02  1.24224075E-01  1.82376051E-01
 -1.53789170E-01 -2.73205851E-01 -2.68353479E-03  7.56783099E-02  2.89604365E-01
  1.89830254E-02 -2.58526858E-02  9.65925193E-03 -8.32188433E-02 -2.39100540E-01
  6.70257927E-02 -2.09787374E-02  5.53388299E-02 -3.37463524E-01  2.83243419E-01
 -5.47817874E-03  1.11676465E-01 -3.59188387E-02 -2.00093915E-01 -2.42441775E-02
 -1.89120182E-02  1.24224075E-01  1.82376051E-01  1.53789170E-01  2.73205851E-01
 -2.68353479E-03  7.56783099E-02 -2.89604365E-01 -1.89830254E-02 -2.58526858E-02
  9.65925193E-03 -8.32188433E-02 -2.39100540E-01  6.70257927E-02  2.09787374E-02
 -5.53388299E-02 -3.37463524E-01  2.83243419E-01 -5.47817874E-03  1.11676465E-01
  3.74641420E-02  1.18890520E-01 -1.29268647E-01 -1.62434839E-01 -3.74534628E-02
 -2.08600016E-01  4.20457238E-01  5.93381677E-01  2.69954997E-01  2.62335287E-01
 -3.08315341E-01 -6.75511143E-01 -3.67952375E-01 -1.44221708E-01  1.02851593E-01
  2.85072749E-01 -1.01707460E-01 -1.44244968E-02  9.98518645E-02  1.69698318E-01
 -1.73350086E-01  5.93844141E-01 -4.00868571E-01  1.01281834E-01 -2.42757654E-01
 -9.60862349E-03 -9.88822413E-02  3.42393935E-02 -5.06178157E-03 -1.76816774E-01
  3.29620250E-02 -3.00164455E-01  4.06720366E-01  4.82027307E-01  1.18908606E-01
  3.10523708E-03 -2.81543173E-01 -6.29386526E-01  4.09766627E-02 -4.06481105E-02
 -1.10257149E-01 -1.05468160E-01 -8.60980958E-02 -5.65597663E-02 -4.34952492E-01
  4.12639790E-01  4.06127376E-01 -3.66119727E-01  6.25393301E-02 -5.60802683E-02
 -1.25453202E-03 -5.88260558E-02 -1.52476425E-01  2.76262545E-02  2.13428144E-01
 -1.20650824E-01  3.91869939E-01 -1.05031643E-01 -5.96085738E-01  2.36873689E-01
  1.27354312E-01 -4.19889177E-01  6.41751450E-01  2.24408112E-02 -6.70155209E-02
 -2.32313118E-03 -5.07591543E-02 -2.11394221E-02 -1.47491233E-01  1.09904316E-01
 -7.27072897E-02  4.22899054E-01 -4.14878772E-01 -1.25453202E-03 -5.88260558E-02
  1.52476425E-01 -2.76262545E-02  2.13428144E-01 -1.20650824E-01 -3.91869939E-01
  1.05031643E-01 -5.96085738E-01  2.36873689E-01 -1.27354312E-01  4.19889177E-01
  6.41751450E-01  2.24408112E-02 -6.70155209E-02 -2.32313118E-03 -5.07591543E-02
  2.11394221E-02  1.47491233E-01  1.09904316E-01 -7.27072897E-02  4.22899054E-01
 -4.14878772E-01 -9.60862349E-03 -9.88822413E-02 -3.42393935E-02  5.06178157E-03
 -1.76816774E-01  3.29620250E-02  3.00164455E-01 -4.06720366E-01  4.82027307E-01
  1.18908606E-01 -3.10523708E-03  2.81543173E-01 -6.29386526E-01  4.09766627E-02
 -4.06481105E-02 -1.10257149E-01 -1.05468160E-01  8.60980958E-02  5.65597663E-02
 -4.34952492E-01  4.12639790E-01  6.25393301E-02 -5.60802683E-02  4.06127376E-01
 -3.66119727E-01 -4.28988939E-02 -2.85133124E-01 -1.18552281E-01  2.89691130E-02
 -4.64806989E-03  6.45071643E-01  6.14226100E-01  4.06294244E-03 -8.23424126E-02
 -5.47758105E-01 -4.95794254E-01  1.95437789E-01 -6.44686729E-01 -3.99723373E-02
 -1.29926977E-01 -1.37248863E-01  4.83136842E-02  4.40162627E-02  7.05243331E-04
  2.12465619E-02  2.64629216E-01  6.27339728E-02 -2.39624042E-02 -3.00109405E-01
  3.43368136E-01 -5.36833202E-02 -1.89267981E-01  1.72606264E-01 -6.08384978E-02
  1.18131491E-01  7.95164574E-01 -6.22232737E-01 -3.23375985E-02 -3.81722607E-01
 -5.41355855E-01  3.99598608E-01 -2.87571098E-02  4.58366377E-01 -1.27118488E-01
 -7.89813535E-02 -1.34337069E-01  6.03708939E-02  6.29649151E-02 -5.60040163E-02
 -4.10493171E-01  6.44416637E-01 -9.29703485E-02  5.25384258E-01 -5.36833202E-02
 -1.89267981E-01 -1.72606264E-01  6.08384978E-02  1.18131491E-01  7.95164574E-01
  6.22232737E-01  3.23375985E-02 -3.81722607E-01 -5.41355855E-01 -3.99598608E-01
  2.87571098E-02  4.58366377E-01 -1.27118488E-01 -7.89813535E-02 -1.34337069E-01
  6.03708939E-02 -6.29649151E-02  5.60040163E-02 -4.10493171E-01  6.44416637E-01
 -9.29703485E-02  5.25384258E-01 -4.28988939E-02 -2.85133124E-01  1.18552281E-01
 -2.89691130E-02 -4.64806989E-03  6.45071643E-01 -6.14226100E-01 -4.06294244E-03
 -8.23424126E-02 -5.47758105E-01  4.95794254E-01 -1.95437789E-01 -6.44686729E-01
 -3.99723373E-02 -1.29926977E-01 -1.37248863E-01  4.83136842E-02 -4.40162627E-02
 -7.05243331E-04  2.12465619E-02  2.64629216E-01 -3.00109405E-01  3.43368136E-01
  6.27339728E-02 -2.39624042E-02 -1.30867616E-03  5.60734460E-02 -1.92149920E-01
 -2.05349242E-01 -1.60317273E-01 -5.88377792E-02  8.08136195E-01  7.96758961E-01
  6.42161830E-01 -6.68798340E-03  1.17826886E-01  2.04942826E-01  1.26895825E-01
  2.93609211E-02 -2.50576532E-02 -2.47084764E-02 -6.62961522E-04  2.71023422E-03
 -1.90899303E-02  7.99048702E-03 -2.24348516E-02 -2.23315714E-01  1.47180918E+00
  2.31213314E-01 -1.37187685E+00 -3.93057705E-03  4.23856925E-02 -5.67669985E-02
 -8.00048660E-02 -7.06358769E-02 -1.50493423E-02  1.50760992E-01  2.24500488E-01
  1.34289674E-01 -5.07886047E-02  2.84506940E-01  2.67846727E-01  1.12876799E-01
  3.35238246E-02 -8.61317806E-02  1.76926070E-02 -5.12306720E-03  2.83308550E-02
 -1.51453097E-02 -2.84189836E-01  9.45471207E-01  2.31274517E-01 -8.19839623E-01
 -3.93057705E-03  4.23856925E-02  5.67669985E-02  8.00048660E-02 -7.06358769E-02
 -1.50493423E-02 -1.50760992E-01 -2.24500488E-01  1.34289674E-01 -5.07886047E-02
 -2.84506940E-01 -2.67846727E-01  1.12876799E-01  3.35238246E-02 -8.61317806E-02
  1.76926070E-02 -5.12306720E-03 -2.83308550E-02  1.51453097E-02 -2.84189836E-01
  9.45471207E-01  2.31274517E-01 -8.19839623E-01 -1.30867616E-03  5.60734460E-02
  1.92149920E-01  2.05349242E-01 -1.60317273E-01 -5.88377792E-02 -8.08136195E-01
 -7.96758961E-01  6.42161830E-01 -6.68798340E-03 -1.17826886E-01 -2.04942826E-01
  1.26895825E-01  2.93609211E-02 -2.50576532E-02 -2.47084764E-02 -6.62961522E-04
 -2.71023422E-03  1.90899303E-02  7.99048702E-03 -2.24348516E-02  2.31213314E-01
 -1.37187685E+00 -2.23315714E-01  1.47180918E+00 -1.69420278E-01  1.48859224E+00
 -7.45210296E-02  2.70482434E-03  5.78512046E-02 -2.18413098E-01  3.62278568E-01
 -1.77777525E-01 -8.90643134E-04  4.53305209E-04 -1.05664205E-02 -1.37856102E-01
 -1.43839236E-02 -6.45278034E-01 -6.26206417E-01 -5.87449284E-01  1.32174307E-02
  1.71036285E-02 -6.48732544E-02 -1.90276877E-02  5.92480348E-01  1.37279760E-01
 -2.24829127E-01  7.51615219E-02 -1.84297579E-01 -2.27667102E-01  1.93690620E+00
  8.06935174E-02  7.63446579E-03 -3.34480498E-03 -2.15786029E-01 -2.21529165E-01
 -1.51045396E-01 -5.06819813E-02 -2.60787672E-02  2.91295824E-01  3.25251701E-02
 -6.34664864E-02 -8.12257413E-01 -8.02153259E-01 -8.52337787E-01 -3.64375453E-02
  1.88780792E-02 -3.32378742E-02  4.89386124E-02 -7.92494975E-02  6.32479562E-02
  2.13110723E-01 -2.27667102E-01  1.93690620E+00 -8.06935174E-02 -7.63446579E-03
 -3.34480498E-03 -2.15786029E-01  2.21529165E-01  1.51045396E-01 -5.06819813E-02
 -2.60787672E-02 -2.91295824E-01 -3.25251701E-02 -6.34664864E-02 -8.12257413E-01
 -8.02153259E-01 -8.52337787E-01 -3.64375453E-02 -1.88780792E-02  3.32378742E-02
  4.89386124E-02 -7.92494975E-02  6.32479562E-02  2.13110723E-01 -1.69420278E-01
  1.48859224E+00  7.45210296E-02 -2.70482434E-03  5.78512046E-02 -2.18413098E-01
 -3.62278568E-01  1.77777525E-01 -8.90643134E-04  4.53305209E-04  1.05664205E-02
  1.37856102E-01 -1.43839236E-02 -6.45278034E-01 -6.26206417E-01 -5.87449284E-01
  1.32174307E-02 -1.71036285E-02  6.48732544E-02 -1.90276877E-02  5.92480348E-01
  7.51615219E-02 -1.84297579E-01  1.37279760E-01 -2.24829127E-01 -1.66416802E-01
  1.40136561E+00 -1.85286604E-02  1.15436808E-01 -1.45722908E-01 -5.55398374E-02
  2.53126974E-01 -7.13217633E-01  7.78427426E-01 -4.93632081E-02 -5.27274980E-02
 -1.39919999E-01 -8.54164115E-02 -6.29655804E-01 -6.24178150E-01 -6.35120098E-01
 -3.62860635E-03  4.15737118E-02 -3.46636250E-02 -1.75978437E-02  6.90782035E-01
  2.95248749E-02  4.29172252E-01 -1.14138541E-01  6.72343022E-01  1.58329311E-01
 -1.20783448E+00  1.09503407E-01  7.63954584E-02 -1.89027721E-01 -6.74147449E-03
 -6.52530897E-01 -5.38773851E-01  8.16837200E-01 -1.06933408E-01  1.00007713E-01
  1.69103915E-01  3.31800438E-01  5.47414115E-01  6.28773246E-01  5.55697493E-01
  5.82084143E-02  7.12828910E-03  1.60529475E-02 -7.14135988E-02 -5.29904201E-01
  1.25404203E-01 -8.18911321E-01  1.58329311E-01 -1.20783448E+00 -1.09503407E-01
 -7.63954584E-02 -1.89027721E-01 -6.74147449E-03  6.52530897E-01  5.38773851E-01
  8.16837200E-01 -1.06933408E-01 -1.00007713E-01 -1.69103915E-01  3.31800438E-01
  5.47414115E-01  6.28773246E-01  5.55697493E-01  5.82084143E-02 -7.12828910E-03
 -1.60529475E-02 -7.14135988E-02 -5.29904201E-01  1.25404203E-01 -8.18911321E-01
 -1.66416802E-01  1.40136561E+00  1.85286604E-02 -1.15436808E-01 -1.45722908E-01
 -5.55398374E-02 -2.53126974E-01  7.13217633E-01  7.78427426E-01 -4.93632081E-02
  5.27274980E-02  1.39919999E-01 -8.54164115E-02 -6.29655804E-01 -6.24178150E-01
 -6.35120098E-01 -3.62860635E-03 -4.15737118E-02  3.46636250E-02 -1.75978437E-02
  6.90782035E-01 -1.14138541E-01  6.72343022E-01  2.95248749E-02  4.29172252E-01
  1.32885665E-01 -5.34385391E-01 -2.54387805E-01  5.47809161E-02  1.06459904E-01
 -6.32392962E-01  1.34102547E+00 -3.16047922E-01 -3.89117559E-01  1.26270932E-01
  6.00850491E-01 -4.28592296E-01  6.57321611E-02  4.75173354E-01  4.03662223E-01
  4.10675073E-01  3.13497498E-02  7.03709366E-02  4.66632872E-03 -2.87825604E-01
  1.85044011E+00  1.63103975E-01 -8.06686069E-01  1.02518765E-01 -1.19375964E+00
  1.07877703E-01 -2.15901105E-01  1.26269784E-01  3.30107542E-02  1.04388708E-02
 -5.87258951E-01 -7.45410405E-01 -2.81998494E-01 -3.46267561E-02  8.19941364E-02
  9.98690839E-02  1.59350302E-01 -2.66242453E-01  3.15496336E-01  3.46496366E-01
  2.67903955E-01  4.55465328E-02  7.30435485E-02  2.07699920E-02 -7.31229054E-02
 -3.92385939E-01 -1.01986574E-01  5.44283097E-01  1.07877703E-01 -2.15901105E-01
 -1.26269784E-01 -3.30107542E-02  1.04388708E-02 -5.87258951E-01  7.45410405E-01
  2.81998494E-01 -3.46267561E-02  8.19941364E-02 -9.98690839E-02 -1.59350302E-01
 -2.66242453E-01  3.15496336E-01  3.46496366E-01  2.67903955E-01  4.55465328E-02
 -7.30435485E-02 -2.07699920E-02 -7.31229054E-02 -3.92385939E-01 -1.01986574E-01
  5.44283097E-01  1.32885665E-01 -5.34385391E-01  2.54387805E-01 -5.47809161E-02
  1.06459904E-01 -6.32392962E-01 -1.34102547E+00  3.16047922E-01 -3.89117559E-01
  1.26270932E-01 -6.00850491E-01  4.28592296E-01  6.57321611E-02  4.75173354E-01
  4.03662223E-01  4.10675073E-01  3.13497498E-02 -7.03709366E-02 -4.66632872E-03
 -2.87825604E-01  1.85044011E+00  1.02518765E-01 -1.19375964E+00  1.63103975E-01
 -8.06686069E-01 -1.73163138E-01  1.40739312E+00 -1.47179527E-02 -4.84689121E-02
  7.12262680E-02  9.89093530E-02 -5.44150335E-02  8.69089835E-01 -9.61744162E-01
  8.14706304E-03  3.26089285E-01 -1.65476026E-02  4.44487482E-02 -6.32213196E-01
 -7.61399824E-01 -7.97474792E-01  4.19743563E-03 -3.11818318E-02  1.70201369E-01
  7.26028245E-02 -4.51715455E-01  1.29028971E-01 -5.86776811E-01  2.45106564E-01
 -9.25919252E-01  1.24629111E-01 -1.02903627E+00 -1.25743519E-01  7.22445235E-02
  1.22500300E-01 -6.17607245E-02  5.15137648E-01  4.82507880E-01 -1.09870067E+00
  6.91147091E-02 -3.21867978E-01  4.92184264E-02 -3.03946019E-01  4.48577646E-01
  4.90522471E-01  6.48585083E-01  7.40855391E-03  8.17623457E-03 -1.77616079E-01
 -5.76397155E-02  5.44609480E-01 -2.31895362E-01  1.15246735E+00  1.24629111E-01
 -1.02903627E+00  1.25743519E-01 -7.22445235E-02  1.22500300E-01 -6.17607245E-02
 -5.15137648E-01 -4.82507880E-01 -1.09870067E+00  6.91147091E-02  3.21867978E-01
 -4.92184264E-02 -3.03946019E-01  4.48577646E-01  4.90522471E-01  6.48585083E-01
  7.40855391E-03 -8.17623457E-03  1.77616079E-01 -5.76397155E-02  5.44609480E-01
 -2.31895362E-01  1.15246735E+00 -1.73163138E-01  1.40739312E+00  1.47179527E-02
  4.84689121E-02  7.12262680E-02  9.89093530E-02  5.44150335E-02 -8.69089835E-01
 -9.61744162E-01  8.14706304E-03 -3.26089285E-01  1.65476026E-02  4.44487482E-02
 -6.32213196E-01 -7.61399824E-01 -7.97474792E-01  4.19743563E-03  3.11818318E-02
 -1.70201369E-01  7.26028245E-02 -4.51715455E-01  2.45106564E-01 -9.25919252E-01
  1.29028971E-01 -5.86776811E-01  7.24325835E-02  2.34508360E-02  1.00027164E-01
 -1.81906804E-01  8.54118979E-03 -5.68480015E-01 -4.08976483E-01  1.00578702E+00
  4.05068553E-01  2.78947436E-01 -2.68562184E-01 -1.06311884E+00  5.53072612E-02
  2.39849420E-01  9.86946576E-02  2.28788486E-01 -4.53107483E-02 -6.11496059E-03
  8.15674985E-03  1.61937347E-02 -8.14059442E-01  1.57847935E-01  1.14122838E-01
 -5.67204808E-02  2.34613634E-01  2.11161201E-03 -1.23445801E-02  5.66933899E-02
  3.41562394E-01  9.59462036E-02 -2.12696769E-01 -6.52179774E-01 -1.58589242E+00
 -6.32926155E-01 -1.05191538E-01  9.55528189E-01  2.20329212E+00  5.01318628E-03
  4.25762956E-02  3.64066991E-02 -5.64144360E-02  2.46499611E-02 -7.43090499E-03
 -2.45407867E-02 -2.79945637E-01 -3.17308292E-01  1.86563041E-01  5.69479608E-01
  2.11161201E-03 -1.23445801E-02 -5.66933899E-02 -3.41562394E-01  9.59462036E-02
 -2.12696769E-01  6.52179774E-01  1.58589242E+00 -6.32926155E-01 -1.05191538E-01
 -9.55528189E-01 -2.20329212E+00  5.01318628E-03  4.25762956E-02  3.64066991E-02
 -5.64144360E-02  2.46499611E-02  7.43090499E-03  2.45407867E-02 -2.79945637E-01
 -3.17308292E-01  1.86563041E-01  5.69479608E-01  7.24325835E-02  2.34508360E-02
 -1.00027164E-01  1.81906804E-01  8.54118979E-03 -5.68480015E-01  4.08976483E-01
 -1.00578702E+00  4.05068553E-01  2.78947436E-01  2.68562184E-01  1.06311884E+00
  5.53072612E-02  2.39849420E-01  9.86946576E-02  2.28788486E-01 -4.53107483E-02
  6.11496059E-03 -8.15674985E-03  1.61937347E-02 -8.14059442E-01 -5.67204808E-02
  2.34613634E-01  1.57847935E-01  1.14122838E-01  3.32069945E-02  1.18693928E-01
 -2.02659656E-02  3.08203472E-02  1.57022724E-02 -6.49530430E-01  4.80725156E-02
 -1.16228828E-01 -2.49390328E-01  1.98707551E-01 -1.77969205E+00  2.23616930E-01
  3.49924167E-01  6.75859258E-02  8.34468029E-02  3.05319858E-02  9.19359451E-03
 -4.09551491E-03  2.87909485E-02  1.36980872E-01 -2.76018753E-01  6.20903324E-03
 -2.53302384E-01 -7.32615505E-02  2.24694686E-01  1.36222043E-01 -1.57945146E-02
  1.01610542E-01 -1.55906520E-01 -2.17415827E-03 -1.39613408E+00 -5.35255461E-02
  6.42452555E-01 -3.52603236E-02  2.08012233E-01  2.65497920E+00 -1.07408039E+00
 -4.75486303E-01  3.53184983E-01  3.62259205E-01  4.23231863E-01  2.27899041E-02
 -5.05365541E-03 -1.00674917E-02 -3.36977103E-02  3.87446406E-01 -3.94962018E-02
 -8.78801354E-02  1.36222043E-01 -1.57945146E-02 -1.01610542E-01  1.55906520E-01
 -2.17415827E-03 -1.39613408E+00  5.35255461E-02 -6.42452555E-01 -3.52603236E-02
  2.08012233E-01 -2.65497920E+00  1.07408039E+00 -4.75486303E-01  3.53184983E-01
  3.62259205E-01  4.23231863E-01  2.27899041E-02  5.05365541E-03  1.00674917E-02
 -3.36977103E-02  3.87446406E-01 -3.94962018E-02 -8.78801354E-02  3.32069945E-02
  1.18693928E-01  2.02659656E-02 -3.08203472E-02  1.57022724E-02 -6.49530430E-01
 -4.80725156E-02  1.16228828E-01 -2.49390328E-01  1.98707551E-01  1.77969205E+00
 -2.23616930E-01  3.49924167E-01  6.75859258E-02  8.34468029E-02  3.05319858E-02
  9.19359451E-03  4.09551491E-03 -2.87909485E-02  1.36980872E-01 -2.76018753E-01
 -7.32615505E-02  2.24694686E-01  6.20903324E-03 -2.53302384E-01 -1.40045423E-02
 -1.56614489E-02 -1.04953029E-02  1.73603571E-01  1.40020034E-01 -2.49378672E-02
 -1.93927832E-01 -1.13384175E+00 -1.35276447E+00  2.53807390E-01  2.78000882E-01
 -1.24906813E+00 -4.64586914E-01 -1.09333883E-01  8.48508971E-02 -9.04001763E-02
  3.65473772E-02 -1.18080262E-02  4.85190527E-02  1.87415403E-02  5.34016813E-01
  2.55540830E-02 -1.65036976E+00  3.09917297E-02  2.79244635E-01 -2.01004181E-02
 -5.75587058E-02 -1.55812513E-01 -2.37559568E-01 -1.62895522E-01  6.13845982E-01
  1.30613214E+00  2.04993132E+00  8.89428848E-01 -7.60276621E-02  9.14573980E-01
  2.98117770E+00  6.29113123E-01 -6.59461630E-02 -7.23627588E-02  1.82232362E-02
 -3.27579894E-02 -3.05997632E-02  1.87790953E-02  2.23928730E-02  1.70413685E+00
  5.92098592E-03 -1.88727914E+00 -2.01004181E-02 -5.75587058E-02  1.55812513E-01
  2.37559568E-01 -1.62895522E-01  6.13845982E-01 -1.30613214E+00 -2.04993132E+00
  8.89428848E-01 -7.60276621E-02 -9.14573980E-01 -2.98117770E+00  6.29113123E-01
 -6.59461630E-02 -7.23627588E-02  1.82232362E-02 -3.27579894E-02  3.05997632E-02
 -1.87790953E-02  2.23928730E-02  1.70413685E+00  5.92098592E-03 -1.88727914E+00
 -1.40045423E-02 -1.56614489E-02  1.04953029E-02 -1.73603571E-01  1.40020034E-01
 -2.49378672E-02  1.93927832E-01  1.13384175E+00 -1.35276447E+00  2.53807390E-01
 -2.78000882E-01  1.24906813E+00 -4.64586914E-01 -1.09333883E-01  8.48508971E-02
 -9.04001763E-02  3.65473772E-02  1.18080262E-02 -4.85190527E-02  1.87415403E-02
  5.34016813E-01  3.09917297E-02  2.79244635E-01  2.55540830E-02 -1.65036976E+00
  9.68513106E-02  1.18906419E-01  5.63258602E-02  1.15119649E-01 -8.69903940E-02
 -2.23765044E+00 -5.49389670E-01 -8.89349206E-01  8.48515998E-01 -1.11159462E+00
  5.19706520E-01  2.17770798E-01 -5.64888335E-01  2.20498901E-01  2.64399834E-01
  2.86577170E-01 -5.48795117E-03 -6.22152533E-02 -1.86572657E-02 -1.30187834E-01
  1.35080022E+00 -1.49798316E-01  1.60832457E+00 -9.52473191E-02  2.03673337E+00
  9.84037119E-02  2.06902025E-01 -1.95058397E-01 -3.38080297E-04  1.09126686E-01
 -2.42419711E+00  1.45791401E+00  9.65376761E-02 -5.53251959E-01 -1.00445889E+00
 -1.21548183E+00  4.94584434E-01  5.04155094E-01  2.50758295E-01  1.84001950E-01
  2.43353160E-01 -2.10224924E-02 -1.84656413E-02  1.94894811E-02 -9.41431292E-02
  2.52076863E+00 -1.70933924E-01  1.92031653E+00  9.84037119E-02  2.06902025E-01
  1.95058397E-01  3.38080297E-04  1.09126686E-01 -2.42419711E+00 -1.45791401E+00
 -9.65376761E-02 -5.53251959E-01 -1.00445889E+00  1.21548183E+00 -4.94584434E-01
  5.04155094E-01  2.50758295E-01  1.84001950E-01  2.43353160E-01 -2.10224924E-02
  1.84656413E-02 -1.94894811E-02 -9.41431292E-02  2.52076863E+00 -1.70933924E-01
  1.92031653E+00  9.68513106E-02  1.18906419E-01 -5.63258602E-02 -1.15119649E-01
 -8.69903940E-02 -2.23765044E+00  5.49389670E-01  8.89349206E-01  8.48515998E-01
 -1.11159462E+00 -5.19706520E-01 -2.17770798E-01 -5.64888335E-01  2.20498901E-01
  2.64399834E-01  2.86577170E-01 -5.48795117E-03  6.22152533E-02  1.86572657E-02
 -1.30187834E-01  1.35080022E+00 -9.52473191E-02  2.03673337E+00 -1.49798316E-01
  1.60832457E+00 -2.23763311E-01 -7.51056936E-01 -2.45410989E-02 -1.32679958E-02
  2.15413991E-02  6.49156199E+00  1.26941203E-01 -1.11209073E+00  1.29278320E+00
 -1.45006146E-01  3.38779508E-01  2.36199653E-02 -4.97317320E-01 -4.61534551E-01
 -3.86998690E-01 -3.35548191E-01 -1.46483639E-02 -2.81823929E-03 -1.51184090E-01
 -1.23281485E-01 -8.26579194E-01 -5.56344587E-02 -1.18356786E+00 -1.30375128E-01
 -1.01518594E+00  1.92653333E-01  6.42693420E-01  4.91767388E-03 -3.49036500E-02
 -6.01972077E-02 -5.10947795E+00  3.61257860E-01 -1.46497030E+00  1.45015836E+00
  1.87163475E-01 -2.73131043E-01  1.11506366E+00 -1.22653644E-01  4.13314599E-01
  3.72186979E-01  2.43649649E-01 -3.97128853E-04 -2.74736525E-02  1.47256624E-01
  2.27574453E-02  1.17548772E+00  1.08471741E-01  7.42340076E-01  1.92653333E-01
  6.42693420E-01 -4.91767388E-03  3.49036500E-02 -6.01972077E-02 -5.10947795E+00
 -3.61257860E-01  1.46497030E+00  1.45015836E+00  1.87163475E-01  2.73131043E-01
 -1.11506366E+00 -1.22653644E-01  4.13314599E-01  3.72186979E-01  2.43649649E-01
 -3.97128853E-04  2.74736525E-02 -1.47256624E-01  2.27574453E-02  1.17548772E+00
  1.08471741E-01  7.42340076E-01 -2.23763311E-01 -7.51056936E-01  2.45410989E-02
  1.32679958E-02  2.15413991E-02  6.49156199E+00 -1.26941203E-01  1.11209073E+00
  1.29278320E+00 -1.45006146E-01 -3.38779508E-01 -2.36199653E-02 -4.97317320E-01
 -4.61534551E-01 -3.86998690E-01 -3.35548191E-01 -1.46483639E-02  2.81823929E-03
  1.51184090E-01 -1.23281485E-01 -8.26579194E-01 -1.30375128E-01 -1.01518594E+00
 -5.56344587E-02 -1.18356786E+00  6.01384474E-02  2.16567758E-01  4.03891660E-02
 -5.24156642E-02  1.77955691E-02 -1.99638149E+00 -1.06888297E-01  6.32842194E-01
 -2.72898104E-01 -3.39682358E+01 -5.60719947E-01  5.67887900E+00 -7.80573221E+00
  1.13328494E-01  8.70085882E-02  8.86429786E-02 -4.57056289E-03  8.26102953E-03
  3.45219314E-02 -7.90896189E-02  5.41399893E-01 -4.18542077E-02  8.30274617E-01
 -1.27242105E-02  4.07915509E-01  3.43423465E-03  4.25549229E-03  6.21221302E-02
  6.74419488E-02 -6.83245139E-03  6.56212048E-01 -7.92504320E-01 -2.39090953E-02
 -1.95020720E-01  3.51402572E+01  1.63535136E+00  7.30114226E+00 -8.43623773E+00
 -1.43584494E-03  1.87756651E-02  2.37764056E-02  5.52122328E-03  3.39262398E-03
 -3.78968892E-02  1.70843577E-01 -2.38365317E+00  2.14662310E-01 -1.68012103E+00
  3.43423465E-03  4.25549229E-03 -6.21221302E-02 -6.74419488E-02 -6.83245139E-03
  6.56212048E-01  7.92504320E-01  2.39090953E-02 -1.95020720E-01  3.51402572E+01
 -1.63535136E+00 -7.30114226E+00 -8.43623773E+00 -1.43584494E-03  1.87756651E-02
  2.37764056E-02  5.52122328E-03 -3.39262398E-03  3.78968892E-02  1.70843577E-01
 -2.38365317E+00  2.14662310E-01 -1.68012103E+00  6.01384474E-02  2.16567758E-01
 -4.03891660E-02  5.24156642E-02  1.77955691E-02 -1.99638149E+00  1.06888297E-01
 -6.32842194E-01 -2.72898104E-01 -3.39682358E+01  5.60719947E-01 -5.67887900E+00
 -7.80573221E+00  1.13328494E-01  8.70085882E-02  8.86429786E-02 -4.57056289E-03
 -8.26102953E-03 -3.45219314E-02 -7.90896189E-02  5.41399893E-01 -1.27242105E-02
  4.07915509E-01 -4.18542077E-02  8.30274617E-01  1.27953607E-02  6.52571659E-02
 -4.23939596E-03  1.83073402E-03  9.26894703E-03  8.19531411E-02 -1.35413828E-02
  1.13084820E-02  2.04061257E-02  5.57335548E-02 -2.91771766E-02  4.43620175E-02
  1.42405016E-02  5.01274042E-02  5.03352650E-02  5.28159583E-02  4.22363629E-04
 -7.06655687E-04 -3.04827296E-03  3.66957542E-02  6.92971877E-02  2.47192087E-02
  4.70828563E-02  2.93018006E-02  5.58986504E-02  8.04050227E-03  4.04364873E-02
 -9.11927873E-03  2.22617270E-02 -7.19075243E-03  4.86334690E-02 -2.88004930E-02
  6.35772237E-02 -1.70087391E-02  2.96746814E-02 -4.24667963E-02  8.53189332E-02
 -9.99171694E-03  2.86763135E-02  3.12790875E-02  3.48875629E-02  4.34548686E-03
  8.14429115E-04 -6.10711954E-03  1.67001185E-02  3.07333439E-02  2.47981773E-02
  4.52851878E-02 -8.04050227E-03 -4.04364873E-02 -9.11927873E-03  2.22617270E-02
  7.19075243E-03 -4.86334690E-02 -2.88004930E-02  6.35772237E-02  1.70087391E-02
 -2.96746814E-02 -4.24667963E-02  8.53189332E-02  9.99171694E-03 -2.86763135E-02
 -3.12790875E-02 -3.48875629E-02 -4.34548686E-03  8.14429115E-04 -6.10711954E-03
 -1.67001185E-02 -3.07333439E-02 -2.47981773E-02 -4.52851878E-02 -1.27953607E-02
 -6.52571659E-02 -4.23939596E-03  1.83073402E-03 -9.26894703E-03 -8.19531411E-02
 -1.35413828E-02  1.13084820E-02 -2.04061257E-02 -5.57335548E-02 -2.91771766E-02
  4.43620175E-02 -1.42405016E-02 -5.01274042E-02 -5.03352650E-02 -5.28159583E-02
 -4.22363629E-04 -7.06655687E-04 -3.04827296E-03 -3.66957542E-02 -6.92971877E-02
 -2.93018006E-02 -5.58986504E-02 -2.47192087E-02 -4.70828563E-02  5.13342539E-03
  2.22751876E-02  3.12829296E-02  1.89092521E-02 -5.24207829E-03  2.19092166E-02
  7.60922246E-02  4.47023163E-02 -1.28555664E-02  1.20343189E-02  1.03025311E-01
  5.65414216E-02 -6.79859369E-03  2.12222048E-02  1.45674757E-02  1.52087169E-02
 -1.94621223E-03  4.66047757E-03  4.85455384E-03  2.31315607E-03  2.88378349E-03
  1.51276367E-03  6.56367808E-04  4.54317670E-02  6.97350576E-02 -9.22287300E-03
 -4.00839302E-02  4.39274384E-02  2.13481448E-02 -1.77992095E-03 -3.75273504E-02
  1.03723142E-01  5.08625455E-02 -5.25951758E-03 -1.64347000E-02  1.19980422E-01
  6.75079869E-02 -2.32161567E-03 -2.84134582E-02 -3.25011201E-02 -3.09212267E-02
 -5.26393052E-03 -3.26709386E-03 -4.05272894E-03 -6.37817464E-02 -9.46745798E-02
 -9.91927986E-03 -1.30839987E-02  9.22287300E-03  4.00839302E-02  4.39274384E-02
  2.13481448E-02  1.77992095E-03  3.75273504E-02  1.03723142E-01  5.08625455E-02
  5.25951758E-03  1.64347000E-02  1.19980422E-01  6.75079869E-02  2.32161567E-03
  2.84134582E-02  3.25011201E-02  3.09212267E-02  5.26393052E-03 -3.26709386E-03
 -4.05272894E-03  6.37817464E-02  9.46745798E-02  9.91927986E-03  1.30839987E-02
 -5.13342539E-03 -2.22751876E-02  3.12829296E-02  1.89092521E-02  5.24207829E-03
 -2.19092166E-02  7.60922246E-02  4.47023163E-02  1.28555664E-02 -1.20343189E-02
  1.03025311E-01  5.65414216E-02  6.79859369E-03 -2.12222048E-02 -1.45674757E-02
 -1.52087169E-02  1.94621223E-03  4.66047757E-03  4.85455384E-03 -2.31315607E-03
 -2.88378349E-03 -4.54317670E-02 -6.97350576E-02 -1.51276367E-03 -6.56367808E-04
 -1.48341621E-02 -6.04645916E-02  2.95573316E-02 -9.79985717E-03  6.75978237E-02
 -4.88524584E-02  5.48913386E-02 -1.52243330E-02  1.20477553E-01 -1.63478442E-02
  5.99030354E-02  1.65101999E-03  6.67317924E-02 -4.92705036E-02 -4.90458519E-02
 -3.80487732E-02  7.77842662E-04  3.94750315E-04 -2.06057142E-02 -4.89622940E-02
 -5.71082208E-02 -7.66043234E-02 -8.59218996E-02 -1.01654574E-02 -9.96281643E-03
  2.15901699E-02  8.36643352E-02  2.32618361E-03  5.28564251E-02  3.42731228E-02
  5.56852399E-02  4.35100529E-03  8.93803730E-02  6.65355987E-02  2.67705483E-03
  3.68827267E-02  5.16371795E-02  3.77908500E-02  6.21210263E-02  5.88441903E-02
  6.64697754E-02  1.85707208E-02 -7.37217813E-03  1.88728628E-02  1.21598833E-02
  5.22007075E-03  9.12570313E-02  9.96781122E-02 -2.15901699E-02 -8.36643352E-02
  2.32618361E-03  5.28564251E-02 -3.42731228E-02 -5.56852399E-02  4.35100529E-03
  8.93803730E-02 -6.65355987E-02 -2.67705483E-03  3.68827267E-02  5.16371795E-02
 -3.77908500E-02 -6.21210263E-02 -5.88441903E-02 -6.64697754E-02 -1.85707208E-02
 -7.37217813E-03  1.88728628E-02 -1.21598833E-02 -5.22007075E-03 -9.12570313E-02
 -9.96781122E-02  1.48341621E-02  6.04645916E-02  2.95573316E-02 -9.79985717E-03
 -6.75978237E-02  4.88524584E-02  5.48913386E-02 -1.52243330E-02 -1.20477553E-01
  1.63478442E-02  5.99030354E-02  1.65101999E-03 -6.67317924E-02  4.92705036E-02
  4.90458519E-02  3.80487732E-02 -7.77842662E-04  3.94750315E-04 -2.06057142E-02
  4.89622940E-02  5.71082208E-02  1.01654574E-02  9.96281643E-03  7.66043234E-02
  8.59218996E-02 -1.82539560E-02 -7.84439376E-02 -7.77954435E-02  1.32344539E-01
  7.47541918E-03 -4.04180938E-02 -9.52878971E-02  1.53823399E-01  2.74586766E-02
  5.09771023E-02 -6.62381556E-02  7.61258293E-02  3.80379307E-02 -4.06038645E-02
 -5.69455575E-02 -7.95251468E-02 -3.87199844E-02 -8.36513144E-03  2.96442423E-02
  1.28872741E-01  1.16722726E-01 -8.00165381E-02 -5.80482569E-02 -3.40296996E-02
 -2.19733295E-02 -2.08325482E-02 -8.13962125E-02  4.53249973E-03 -9.82047518E-03
  7.65862517E-02 -3.81854615E-02  1.37179151E-03  6.87417170E-04  7.77597620E-02
  3.10262168E-02 -5.91408741E-02  9.03401875E-02  9.15989708E-03 -5.04697770E-02
 -4.96709761E-02 -8.12966144E-02 -3.47583856E-02  1.05385764E-03  5.13370010E-02
 -2.94953549E-02 -1.48000751E-02  3.71191887E-02  3.94582986E-02  2.08325482E-02
  8.13962125E-02  4.53249973E-03 -9.82047518E-03 -7.65862517E-02  3.81854615E-02
  1.37179151E-03  6.87417170E-04 -7.77597620E-02 -3.10262168E-02 -5.91408741E-02
  9.03401875E-02 -9.15989708E-03  5.04697770E-02  4.96709761E-02  8.12966144E-02
  3.47583856E-02  1.05385764E-03  5.13370010E-02  2.94953549E-02  1.48000751E-02
 -3.71191887E-02 -3.94582986E-02  1.82539560E-02  7.84439376E-02 -7.77954435E-02
  1.32344539E-01 -7.47541918E-03  4.04180938E-02 -9.52878971E-02  1.53823399E-01
 -2.74586766E-02 -5.09771023E-02 -6.62381556E-02  7.61258293E-02 -3.80379307E-02
  4.06038645E-02  5.69455575E-02  7.95251468E-02  3.87199844E-02 -8.36513144E-03
  2.96442423E-02 -1.28872741E-01 -1.16722726E-01  3.40296996E-02  2.19733295E-02
  8.00165381E-02  5.80482569E-02 -1.22838244E-02 -4.20445715E-02  1.27946361E-01
  8.78712753E-02 -8.51288301E-02 -8.17106941E-03  1.30757921E-01  8.25971675E-02
 -7.74964449E-02  3.41524075E-02  4.88046102E-02  6.13429289E-02 -1.75297298E-02
 -7.48462462E-03 -3.17176306E-02 -5.26554727E-02  6.68431971E-02 -1.88169547E-02
  1.58931608E-02 -6.13320883E-02 -3.03528582E-02 -1.05789445E-02 -2.23936253E-03
  1.67130207E-01  1.25199884E-01  1.98185668E-03  5.72202921E-03 -9.11963759E-02
 -1.29713315E-01  7.18381863E-02  8.84308174E-03 -9.60386594E-02 -1.20372731E-01
  5.91590756E-02  1.25513971E-02 -1.71931571E-02  3.31245361E-02  7.40168114E-03
  1.60345349E-02  1.38699431E-02 -1.80848350E-02  4.43878322E-02 -2.59731730E-02
  3.72338406E-02  1.45081410E-01  9.77480873E-02  7.92089438E-04  1.60771258E-03
 -1.98185668E-03 -5.72202921E-03 -9.11963759E-02 -1.29713315E-01 -7.18381863E-02
 -8.84308174E-03 -9.60386594E-02 -1.20372731E-01 -5.91590756E-02 -1.25513971E-02
 -1.71931571E-02  3.31245361E-02 -7.40168114E-03 -1.60345349E-02 -1.38699431E-02
  1.80848350E-02 -4.43878322E-02 -2.59731730E-02  3.72338406E-02 -1.45081410E-01
 -9.77480873E-02 -7.92089438E-04 -1.60771258E-03  1.22838244E-02  4.20445715E-02
  1.27946361E-01  8.78712753E-02  8.51288301E-02  8.17106941E-03  1.30757921E-01
  8.25971675E-02  7.74964449E-02 -3.41524075E-02  4.88046102E-02  6.13429289E-02
  1.75297298E-02  7.48462462E-03  3.17176306E-02  5.26554727E-02 -6.68431971E-02
 -1.88169547E-02  1.58931608E-02  6.13320883E-02  3.03528582E-02 -1.67130207E-01
 -1.25199884E-01  1.05789445E-02  2.23936253E-03 -1.32323946E-02 -4.87916543E-02
 -1.28311634E-02 -7.48706014E-02 -1.81049484E-01 -1.13620167E-02 -1.28533802E-02
 -7.65190228E-02 -1.45855380E-01  2.86698955E-02 -2.69743290E-02  7.08110188E-03
 -1.68524273E-02 -5.36396425E-02 -5.16519073E-02 -1.98542421E-03  7.65986172E-03
  3.12277247E-02  9.19440251E-02 -7.07545067E-02 -3.47808834E-02  1.98214114E-01
  1.20864571E-01 -5.88627911E-02 -2.87850466E-02 -2.98481715E-04 -7.28780485E-03
  4.37811567E-02  3.15897841E-02  1.33208034E-01  3.51004390E-03  3.93911711E-02
  4.27882316E-02  9.17195076E-02  1.60321139E-02 -1.72331483E-02  5.21072094E-02
  4.11321433E-03 -5.72065782E-03 -2.94433758E-02  1.72130377E-02 -6.19895720E-03
 -2.15913409E-03  1.21922915E-01 -5.18539921E-02 -2.87388340E-02  1.67271148E-01
  1.03737990E-01  2.98481715E-04  7.28780485E-03  4.37811567E-02  3.15897841E-02
 -1.33208034E-01 -3.51004390E-03  3.93911711E-02  4.27882316E-02 -9.17195076E-02
 -1.60321139E-02 -1.72331483E-02  5.21072094E-02 -4.11321433E-03  5.72065782E-03
  2.94433758E-02 -1.72130377E-02  6.19895720E-03 -2.15913409E-03  1.21922915E-01
  5.18539921E-02  2.87388340E-02 -1.67271148E-01 -1.03737990E-01  1.32323946E-02
  4.87916543E-02 -1.28311634E-02 -7.48706014E-02  1.81049484E-01  1.13620167E-02
 -1.28533802E-02 -7.65190228E-02  1.45855380E-01 -2.86698955E-02 -2.69743290E-02
  7.08110188E-03  1.68524273E-02  5.36396425E-02  5.16519073E-02  1.98542421E-03
 -7.65986172E-03  3.12277247E-02  9.19440251E-02  7.07545067E-02  3.47808834E-02
  5.88627911E-02  2.87850466E-02 -1.98214114E-01 -1.20864571E-01 -2.69779676E-02
 -4.99106058E-02 -1.79013997E-01 -2.26714171E-02 -7.07077964E-02 -7.28519116E-03
 -9.81450551E-02 -1.81393274E-03 -6.54744140E-02  1.55193891E-02  1.84867169E-01
  1.06786714E-01 -5.21127433E-02 -6.92733831E-02 -7.12266785E-03 -2.15940011E-02
 -1.29178923E-01 -9.58457241E-05 -4.42964052E-02  1.22300923E-01  4.57431390E-02
  4.48637992E-02  2.59919100E-02 -1.53399527E-01 -1.54709388E-02  5.41006253E-02
  1.26560438E-01 -9.81291725E-02 -1.17714441E-01 -2.62448493E-02  2.51673836E-02
 -5.61406218E-02 -8.01556186E-02 -2.34988470E-02 -3.98989697E-02  2.25175456E-01
  7.63395907E-02 -2.26683153E-02  8.57153239E-02  8.69126119E-02  8.70275526E-02
  7.18473005E-02  2.11476205E-02  5.96962735E-03  1.01266835E-01 -1.79634955E-02
 -4.24814603E-02 -3.94398419E-02 -5.41006253E-02 -1.26560438E-01 -9.81291725E-02
 -1.17714441E-01  2.62448493E-02 -2.51673836E-02 -5.61406218E-02 -8.01556186E-02
  2.34988470E-02  3.98989697E-02  2.25175456E-01  7.63395907E-02  2.26683153E-02
 -8.57153239E-02 -8.69126119E-02 -8.70275526E-02 -7.18473005E-02  2.11476205E-02
  5.96962735E-03 -1.01266835E-01  1.79634955E-02  4.24814603E-02  3.94398419E-02
  2.69779676E-02  4.99106058E-02 -1.79013997E-01 -2.26714171E-02  7.07077964E-02
  7.28519116E-03 -9.81450551E-02 -1.81393274E-03  6.54744140E-02 -1.55193891E-02
  1.84867169E-01  1.06786714E-01  5.21127433E-02  6.92733831E-02  7.12266785E-03
  2.15940011E-02  1.29178923E-01 -9.58457241E-05 -4.42964052E-02 -1.22300923E-01
 -4.57431390E-02  1.53399527E-01  1.54709388E-02 -4.48637992E-02 -2.59919100E-02
 -5.23934566E-02 -1.30879359E-01 -3.81259439E-02 -1.86167116E-01  5.54296803E-02
 -3.55100906E-02 -4.62538128E-02 -6.87708796E-02  2.07901572E-02  1.05428466E-01
 -2.24612488E-02  1.48767054E-01  3.87396709E-02 -1.14109272E-01 -9.98427319E-02
 -5.84663918E-02  2.11803050E-01 -7.65538677E-02 -1.26548058E-02 -1.66218814E-01
  7.15404889E-03  3.50922094E-02  2.81446394E-02 -9.40461426E-03  2.37619121E-02
 -1.63570984E-02 -5.89558720E-02 -8.52440516E-02  1.19090853E-02 -1.78998865E-01
 -1.49465088E-02 -4.29504752E-02  2.03332664E-03 -7.49659821E-02  4.61069435E-02
 -2.01348065E-02  2.09586625E-01 -9.60383657E-04 -1.49473137E-02 -4.37223300E-02
 -6.87507091E-02 -1.16359173E-01  1.19611222E-01 -4.80906626E-02 -1.52203363E-02
  2.84342508E-03 -1.27225996E-01 -8.18769184E-03  1.63570984E-02  5.89558720E-02
 -8.52440516E-02  1.19090853E-02  1.78998865E-01  1.49465088E-02 -4.29504752E-02
  2.03332664E-03  7.49659821E-02 -4.61069435E-02 -2.01348065E-02  2.09586625E-01
  9.60383657E-04  1.49473137E-02  4.37223300E-02  6.87507091E-02  1.16359173E-01
  1.19611222E-01 -4.80906626E-02  1.52203363E-02 -2.84342508E-03  1.27225996E-01
  8.18769184E-03  5.23934566E-02  1.30879359E-01 -3.81259439E-02 -1.86167116E-01
 -5.54296803E-02  3.55100906E-02 -4.62538128E-02 -6.87708796E-02 -2.07901572E-02
 -1.05428466E-01 -2.24612488E-02  1.48767054E-01 -3.87396709E-02  1.14109272E-01
  9.98427319E-02  5.84663918E-02 -2.11803050E-01 -7.65538677E-02 -1.26548058E-02
  1.66218814E-01 -7.15404889E-03  9.40461426E-03 -2.37619121E-02 -3.50922094E-02
 -2.81446394E-02 -5.17158323E-02 -9.51755263E-02  1.30744378E-01 -7.70365543E-02
  1.40968619E-02 -2.20741323E-02  6.76545773E-02 -6.74341919E-03 -2.00765392E-02
  7.39982738E-02 -1.07722305E-01  7.44508383E-02 -9.85327336E-03 -9.18463842E-02
 -6.79264748E-02 -3.03190031E-02 -1.98288076E-01  2.40195434E-01 -5.16483561E-02
 -1.42695211E-02  2.74904487E-02  2.53297175E-02  2.92033968E-02 -6.88264950E-02
  1.50618495E-02  1.52080393E-03 -2.18607692E-03  1.66243854E-01 -3.33312565E-03
 -6.59653274E-02 -1.80242018E-02  8.11057946E-02  1.70161914E-02 -1.58857802E-03
  3.92526201E-02 -1.04465870E-01  7.66456401E-02 -9.66911182E-03  8.61660592E-02
 -4.94849608E-02 -4.33909289E-02  2.28507733E-01 -1.87451979E-01 -1.43696474E-01
  7.67834551E-02  1.32749128E-02 -1.26356248E-01 -1.97405823E-02 -1.52080393E-03
  2.18607692E-03  1.66243854E-01 -3.33312565E-03  6.59653274E-02  1.80242018E-02
  8.11057946E-02  1.70161914E-02  1.58857802E-03 -3.92526201E-02 -1.04465870E-01
  7.66456401E-02  9.66911182E-03 -8.61660592E-02  4.94849608E-02  4.33909289E-02
 -2.28507733E-01 -1.87451979E-01 -1.43696474E-01 -7.67834551E-02 -1.32749128E-02
  1.26356248E-01  1.97405823E-02  5.17158323E-02  9.51755263E-02  1.30744378E-01
 -7.70365543E-02 -1.40968619E-02  2.20741323E-02  6.76545773E-02 -6.74341919E-03
  2.00765392E-02 -7.39982738E-02 -1.07722305E-01  7.44508383E-02  9.85327336E-03
  9.18463842E-02  6.79264748E-02  3.03190031E-02  1.98288076E-01  2.40195434E-01
 -5.16483561E-02  1.42695211E-02 -2.74904487E-02  6.88264950E-02 -1.50618495E-02
 -2.53297175E-02 -2.92033968E-02  6.69061959E-02  6.82007518E-02 -1.63954799E-02
 -6.01343880E-02  1.15861054E-01  7.18737129E-03  1.20252389E-02 -5.58133317E-02
  1.39153947E-01 -3.90766325E-02  8.53706197E-02 -2.97548900E-02  1.22920084E-01
  5.06746880E-02  1.45109255E-02  5.52040522E-02 -6.77048698E-02  3.48870781E-02
  4.51860734E-01  7.66225115E-03 -3.97410257E-02  1.07146934E-01 -4.21758666E-02
 -7.36500641E-02 -2.34651991E-02 -6.10364218E-02 -1.00637239E-01 -8.61012304E-02
 -7.95847923E-02  3.95838386E-02  7.61016316E-03 -4.30308367E-02  2.21987425E-02
 -1.28676105E-02  1.40276273E-03  4.54328581E-02  5.23669613E-02  4.91304728E-02
  5.76622641E-03 -2.52348553E-02 -1.77814424E-01  4.71929228E-02 -5.32686171E-02
  9.08449435E-03  1.39885185E-01  3.86586487E-02 -6.46311962E-02  2.40704606E-02
  6.10364218E-02  1.00637239E-01 -8.61012304E-02 -7.95847923E-02 -3.95838386E-02
 -7.61016316E-03 -4.30308367E-02  2.21987425E-02  1.28676105E-02 -1.40276273E-03
  4.54328581E-02  5.23669613E-02 -4.91304728E-02 -5.76622641E-03  2.52348553E-02
  1.77814424E-01 -4.71929228E-02 -5.32686171E-02  9.08449435E-03 -1.39885185E-01
 -3.86586487E-02  6.46311962E-02 -2.40704606E-02 -6.69061959E-02 -6.82007518E-02
 -1.63954799E-02 -6.01343880E-02 -1.15861054E-01 -7.18737129E-03  1.20252389E-02
 -5.58133317E-02 -1.39153947E-01  3.90766325E-02  8.53706197E-02 -2.97548900E-02
 -1.22920084E-01 -5.06746880E-02 -1.45109255E-02 -5.52040522E-02  6.77048698E-02
  3.48870781E-02  4.51860734E-01 -7.66225115E-03  3.97410257E-02  7.36500641E-02
  2.34651991E-02 -1.07146934E-01  4.21758666E-02 -2.07119355E-02 -4.22206438E-02
 -1.69788122E-02  7.91801009E-02  4.68070002E-03  1.33368805E-02 -2.86533059E-02
 -8.35081425E-03  4.28640911E-02 -2.90516573E-03 -5.23876977E-02 -2.93807736E-02
 -3.24286628E-02  3.08002047E-02  5.57415300E-03 -1.21781831E-01  1.26961704E-01
  9.36089290E-02  1.18917456E-01  3.61146009E-02  2.62678409E-02 -1.99860974E-02
  6.12497056E-03  8.08642952E-02  6.40345404E-03  8.63459005E-02  5.76836194E-02
  1.63414893E-01  6.76029707E-04 -1.24333999E-01  4.95607053E-03  8.14148138E-02
  4.01891661E-02 -1.09400604E-01 -1.05242000E-02  4.64568019E-03 -4.29773901E-02
 -4.49891044E-02  1.54657696E-01 -4.64912962E-02 -1.75970843E-02  2.44777985E-01
  3.09574739E-01  3.13074719E-01  6.08448556E-02 -1.69987130E-02 -2.16080432E-02
 -5.62444936E-02 -8.63459005E-02 -5.76836194E-02  1.63414893E-01  6.76029707E-04
  1.24333999E-01 -4.95607053E-03  8.14148138E-02  4.01891661E-02  1.09400604E-01
  1.05242000E-02  4.64568019E-03 -4.29773901E-02  4.49891044E-02 -1.54657696E-01
  4.64912962E-02  1.75970843E-02 -2.44777985E-01  3.09574739E-01  3.13074719E-01
 -6.08448556E-02  1.69987130E-02  2.16080432E-02  5.62444936E-02  2.07119355E-02
  4.22206438E-02 -1.69788122E-02  7.91801009E-02 -4.68070002E-03 -1.33368805E-02
 -2.86533059E-02 -8.35081425E-03 -4.28640911E-02  2.90516573E-03 -5.23876977E-02
 -2.93807736E-02  3.24286628E-02 -3.08002047E-02 -5.57415300E-03  1.21781831E-01
 -1.26961704E-01  9.36089290E-02  1.18917456E-01 -3.61146009E-02 -2.62678409E-02
 -8.08642952E-02 -6.40345404E-03  1.99860974E-02 -6.12497056E-03 -1.15116153E-02
  1.61133498E-02 -1.77686266E-01  1.57423676E-01  6.42492999E-02 -1.51227568E-04
 -8.70323323E-02  7.64237922E-02  1.95874947E-02 -1.71556870E-02  2.72787423E-02
 -1.03644662E-02 -2.45911018E-02 -4.01157441E-02 -4.28182572E-02  1.22896073E-01
  3.63172754E-01  4.16104038E-01 -2.45061583E-03 -8.59555978E-02  8.04867288E-03
  7.20742194E-02  6.36501049E-03  1.81018751E-02 -1.90989110E-02  5.14897029E-02
  3.54909895E-02 -1.93784248E-02  1.62186546E-02  1.11391318E-01  4.93593244E-03
 -6.35295933E-03 -6.52258913E-03  3.34233431E-02 -1.96204285E-02  5.64329743E-02
 -3.11632835E-02 -1.51716010E-02 -2.42100514E-02  1.15407777E-01 -3.11901331E-02
  2.14943693E-02 -7.86679910E-02 -1.38784202E-01 -1.49627550E-02 -2.00385418E-02
 -1.92269086E-02 -9.93832857E-03 -5.14897029E-02 -3.54909895E-02 -1.93784248E-02
  1.62186546E-02 -1.11391318E-01 -4.93593244E-03 -6.35295933E-03 -6.52258913E-03
 -3.34233431E-02  1.96204285E-02  5.64329743E-02 -3.11632835E-02  1.51716010E-02
  2.42100514E-02 -1.15407777E-01  3.11901331E-02 -2.14943693E-02 -7.86679910E-02
 -1.38784202E-01  1.49627550E-02  2.00385418E-02  1.92269086E-02  9.93832857E-03
  1.15116153E-02 -1.61133498E-02 -1.77686266E-01  1.57423676E-01 -6.42492999E-02
  1.51227568E-04 -8.70323323E-02  7.64237922E-02 -1.95874947E-02  1.71556870E-02
  2.72787423E-02 -1.03644662E-02  2.45911018E-02  4.01157441E-02  4.28182572E-02
 -1.22896073E-01 -3.63172754E-01  4.16104038E-01 -2.45061583E-03  8.59555978E-02
 -8.04867288E-03 -1.81018751E-02  1.90989110E-02 -7.20742194E-02 -6.36501049E-03
 -3.03127699E-01 -5.21256025E-02  6.94192981E-02  5.83529383E-02  4.69347542E-02
  1.02079800E-03  2.80100510E-02  2.14575400E-02  1.65789188E-02  4.50755536E-03
 -3.53189519E-02 -8.68247164E-03 -4.69686779E-02 -3.44479170E-02 -4.10383031E-02
  5.84193611E-02 -4.79721344E-02 -1.30831324E-01  1.64078677E-01  3.50041216E-02
  1.84146158E-02  7.76547975E-02  2.38727820E-02  3.29007119E-02  1.63199414E-02
  5.21568162E-01  7.45339513E-02 -7.54150169E-03  5.18829196E-02  4.08430710E-02
  1.34560186E-02  4.14901059E-03  1.88740296E-02 -2.90521874E-03 -5.65287070E-03
 -2.00387727E-02 -4.75115431E-02 -2.68519890E-02 -5.30928997E-03  5.56780520E-02
 -5.44184757E-02 -9.88769149E-02 -5.56346488E-02 -4.71990897E-02 -8.50903542E-02
 -1.75254354E-02 -8.72411827E-02 -4.47550114E-02 -5.21568162E-01 -7.45339513E-02
 -7.54150169E-03  5.18829196E-02 -4.08430710E-02 -1.34560186E-02  4.14901059E-03
  1.88740296E-02  2.90521874E-03  5.65287070E-03 -2.00387727E-02 -4.75115431E-02
  2.68519890E-02  5.30928997E-03 -5.56780520E-02  5.44184757E-02  9.88769149E-02
 -5.56346488E-02 -4.71990897E-02  8.50903542E-02  1.75254354E-02  8.72411827E-02
  4.47550114E-02  3.03127699E-01  5.21256025E-02  6.94192981E-02  5.83529383E-02
 -4.69347542E-02 -1.02079800E-03  2.80100510E-02  2.14575400E-02 -1.65789188E-02
 -4.50755536E-03 -3.53189519E-02 -8.68247164E-03  4.69686779E-02  3.44479170E-02
  4.10383031E-02 -5.84193611E-02  4.79721344E-02 -1.30831324E-01  1.64078677E-01
 -3.50041216E-02 -1.84146158E-02 -3.29007119E-02 -1.63199414E-02 -7.76547975E-02
 -2.38727820E-02  5.78211374E-01  1.00065515E-02  1.68479922E-02 -3.20209405E-02
 -2.50930159E-02  5.15286348E-03  6.79521746E-04 -1.16352226E-02 -6.22420653E-04
  1.82342876E-02 -1.55380773E-02  2.97552127E-02  1.67559396E-02 -4.03276356E-02
 -2.98620734E-02 -8.01543080E-02 -6.39486637E-03  3.65940663E-02 -2.14410068E-02
 -4.16459479E-02  2.98582471E-03 -4.81111391E-02 -9.08188538E-03 -3.20201476E-02
 -3.42202870E-03  3.70057513E-01  4.17992110E-03  1.42217761E-02 -7.33589491E-02
 -3.38708368E-03  4.03651780E-03 -3.25752696E-03 -1.58346693E-02 -6.48077376E-03
  1.15385280E-02 -1.73212895E-02  3.95708877E-02  7.59130193E-03 -6.08091770E-02
 -3.55272557E-02 -4.90589777E-03 -2.75389925E-02 -3.23884327E-02  1.63786377E-02
 -4.53773628E-02 -3.92345753E-03 -1.76644072E-02  4.72366047E-03 -3.70057513E-01
 -4.17992110E-03  1.42217761E-02 -7.33589491E-02  3.38708368E-03 -4.03651780E-03
 -3.25752696E-03 -1.58346693E-02  6.48077376E-03 -1.15385280E-02 -1.73212895E-02
  3.95708877E-02 -7.59130193E-03  6.08091770E-02  3.55272557E-02  4.90589777E-03
  2.75389925E-02 -3.23884327E-02  1.63786377E-02  4.53773628E-02  3.92345753E-03
  1.76644072E-02 -4.72366047E-03 -5.78211374E-01 -1.00065515E-02  1.68479922E-02
 -3.20209405E-02  2.50930159E-02 -5.15286348E-03  6.79521746E-04 -1.16352226E-02
  6.22420653E-04 -1.82342876E-02 -1.55380773E-02  2.97552127E-02 -1.67559396E-02
  4.03276356E-02  2.98620734E-02  8.01543080E-02  6.39486637E-03  3.65940663E-02
 -2.14410068E-02  4.16459479E-02 -2.98582471E-03  3.20201476E-02  3.42202870E-03
  4.81111391E-02  9.08188538E-03  1.58196477E-01 -2.06306283E-02 -5.19229985E-02
  1.71270601E-01 -8.91693068E-02  1.16769402E-02  5.25917666E-03  4.40192623E-02
 -3.23530284E-02 -1.28116028E-02  9.04567726E-03 -3.55362705E-02 -5.16788896E-02
 -8.00743763E-02 -1.62995805E-01  1.56713190E-01  2.53254142E-02 -2.41132759E-01
 -6.27662747E-02 -2.85157309E-02 -8.09314847E-03  5.97298951E-02  2.99503153E-02
 -4.25348336E-02 -7.08711422E-04 -5.06138245E-02  1.04456440E-02 -2.09439172E-02
  2.92147121E-01  9.72837965E-02  4.21951430E-03  2.14833928E-02  1.00936530E-01
  2.73113110E-02 -1.41046078E-02  1.30838448E-02 -5.73051301E-02 -2.12764001E-02
  3.17172518E-01 -7.11485346E-02 -2.10349457E-01  4.62990750E-02  5.73333218E-02
 -1.35562783E-01  1.53675824E-01  1.25334347E-02 -1.07930760E-01 -2.26045037E-02
  5.06138245E-02 -1.04456440E-02 -2.09439172E-02  2.92147121E-01 -9.72837965E-02
 -4.21951430E-03  2.14833928E-02  1.00936530E-01 -2.73113110E-02  1.41046078E-02
  1.30838448E-02 -5.73051301E-02  2.12764001E-02 -3.17172518E-01  7.11485346E-02
  2.10349457E-01 -4.62990750E-02  5.73333218E-02 -1.35562783E-01 -1.53675824E-01
 -1.25334347E-02  1.07930760E-01  2.26045037E-02 -1.58196477E-01  2.06306283E-02
 -5.19229985E-02  1.71270601E-01  8.91693068E-02 -1.16769402E-02  5.25917666E-03
  4.40192623E-02  3.23530284E-02  1.28116028E-02  9.04567726E-03 -3.55362705E-02
  5.16788896E-02  8.00743763E-02  1.62995805E-01 -1.56713190E-01 -2.53254142E-02
 -2.41132759E-01 -6.27662747E-02  2.85157309E-02  8.09314847E-03  4.25348336E-02
  7.08711422E-04 -5.97298951E-02 -2.99503153E-02  1.26269873E-01 -5.67943380E-02
  1.60388753E-01  1.19403436E-01  1.61825724E-01 -9.09045158E-04  3.91466706E-02
  8.72445952E-02 -4.72114160E-03  4.17033487E-02 -6.82833024E-02  5.37914007E-02
 -1.03235304E-01 -2.51518798E-01 -8.93457138E-02  1.94922294E-01 -7.88502775E-02
 -1.00758150E-01  1.09186786E-01 -5.04282652E-02  3.26181963E-02  8.82236141E-02
  4.77870994E-02 -7.24642073E-02  1.13827003E-02 -1.61422764E-01  8.76820722E-02
  5.62033149E-02 -3.74698668E-02 -4.92423267E-02 -6.84428827E-03  2.43905412E-02
 -4.09780383E-02 -1.98974486E-02 -2.55001940E-03 -2.59628552E-02 -3.45969320E-02
 -5.04149908E-02 -2.00312356E-01  3.94201612E-01  2.47280561E-02  6.45040235E-02
  1.38718929E-01  5.51296904E-02 -9.65972099E-02 -2.88179573E-02  2.99914447E-03
 -5.13956563E-02  1.61422764E-01 -8.76820722E-02  5.62033149E-02 -3.74698668E-02
  4.92423267E-02  6.84428827E-03  2.43905412E-02 -4.09780383E-02  1.98974486E-02
  2.55001940E-03 -2.59628552E-02 -3.45969320E-02  5.04149908E-02  2.00312356E-01
 -3.94201612E-01 -2.47280561E-02 -6.45040235E-02  1.38718929E-01  5.51296904E-02
  9.65972099E-02  2.88179573E-02 -2.99914447E-03  5.13956563E-02 -1.26269873E-01
  5.67943380E-02  1.60388753E-01  1.19403436E-01 -1.61825724E-01  9.09045158E-04
  3.91466706E-02  8.72445952E-02  4.72114160E-03 -4.17033487E-02 -6.82833024E-02
  5.37914007E-02  1.03235304E-01  2.51518798E-01  8.93457138E-02 -1.94922294E-01
  7.88502775E-02 -1.00758150E-01  1.09186786E-01  5.04282652E-02 -3.26181963E-02
  7.24642073E-02 -1.13827003E-02 -8.82236141E-02 -4.77870994E-02  4.29080713E-02
 -6.51911434E-02  1.10308621E-01  6.47274793E-02 -8.10228061E-03  2.08540403E-02
  7.63402903E-03  8.25159385E-04  7.57620777E-03  7.13639483E-03  2.95463211E-03
 -3.12688551E-03 -8.52231652E-02 -3.39007351E-02 -4.76332749E-02 -5.91480488E-02
 -1.37894998E-01  2.58502856E-01  7.94849580E-03  2.30059271E-02  1.48504328E-02
  1.27523888E-02  3.17503530E-02  3.45842932E-02  3.45645918E-02 -7.21699239E-02
  3.81935481E-02 -2.71377152E-01  2.45012585E-01 -1.83861492E-01  1.39267381E-02
 -4.37425714E-02  4.34402268E-02 -7.14525713E-02 -1.90219893E-02  3.05633862E-02
 -5.66174447E-02 -5.22780397E-02  1.12086023E-01  4.19319082E-02 -6.38975763E-02
 -3.06080082E-01 -2.01146190E-01  3.36885033E-01 -2.07900293E-02  1.02727393E-03
 -3.57321677E-02 -7.16538979E-02  7.21699239E-02 -3.81935481E-02 -2.71377152E-01
  2.45012585E-01  1.83861492E-01 -1.39267381E-02 -4.37425714E-02  4.34402268E-02
  7.14525713E-02  1.90219893E-02  3.05633862E-02 -5.66174447E-02  5.22780397E-02
 -1.12086023E-01 -4.19319082E-02  6.38975763E-02  3.06080082E-01 -2.01146190E-01
  3.36885033E-01  2.07900293E-02 -1.02727393E-03  3.57321677E-02  7.16538979E-02
 -4.29080713E-02  6.51911434E-02  1.10308621E-01  6.47274793E-02  8.10228061E-03
 -2.08540403E-02  7.63402903E-03  8.25159385E-04 -7.57620777E-03 -7.13639483E-03
  2.95463211E-03 -3.12688551E-03  8.52231652E-02  3.39007351E-02  4.76332749E-02
  5.91480488E-02  1.37894998E-01  2.58502856E-01  7.94849580E-03 -2.30059271E-02
 -1.48504328E-02 -3.45842932E-02 -3.45645918E-02 -1.27523888E-02 -3.17503530E-02
 -1.00471556E-01  1.20202694E-01  2.85342681E-02  1.36497065E-01 -2.32679102E-01
 -1.26489190E-02  3.05523784E-02  1.71508119E-02  1.09138375E-02 -5.47183589E-02
  6.05765747E-02 -5.72175955E-02  2.08443411E-01 -1.91231173E-02  2.48520140E-02
  2.54848917E-01 -1.21154451E-01  1.17340439E-01 -2.18809537E-01 -8.87810553E-02
 -8.41180193E-02  3.80549651E-03 -7.13158017E-02 -1.25885184E-01 -5.38976436E-02
  1.46011489E-01 -1.41876855E-01 -4.54419244E-02 -1.32002125E-02 -2.45773457E-01
 -7.18247603E-03 -2.73218256E-02  9.95848024E-03  2.39530852E-02  2.80890255E-02
 -3.33031817E-02  8.51450604E-02  1.15742130E-01 -1.58308050E-01  6.42369696E-02
 -2.14518703E-01  2.99349720E-02  1.82716699E-01  9.35537776E-02  1.00681695E-01
  5.22301220E-02  3.50647155E-02  1.20649317E-01 -1.46011489E-01  1.41876855E-01
 -4.54419244E-02 -1.32002125E-02  2.45773457E-01  7.18247603E-03 -2.73218256E-02
  9.95848024E-03 -2.39530852E-02 -2.80890255E-02 -3.33031817E-02  8.51450604E-02
 -1.15742130E-01  1.58308050E-01 -6.42369696E-02  2.14518703E-01 -2.99349720E-02
  1.82716699E-01  9.35537776E-02 -1.00681695E-01 -5.22301220E-02 -3.50647155E-02
 -1.20649317E-01  1.00471556E-01 -1.20202694E-01  2.85342681E-02  1.36497065E-01
  2.32679102E-01  1.26489190E-02  3.05523784E-02  1.71508119E-02 -1.09138375E-02
  5.47183589E-02  6.05765747E-02 -5.72175955E-02 -2.08443411E-01  1.91231173E-02
 -2.48520140E-02 -2.54848917E-01  1.21154451E-01  1.17340439E-01 -2.18809537E-01
  8.87810553E-02  8.41180193E-02  1.25885184E-01  5.38976436E-02 -3.80549651E-03
  7.13158017E-02  9.28368247E-04  2.82688111E-02  8.41455091E-02  2.11861167E-01
 -2.79812938E-02 -8.98031898E-03  2.89750096E-02  7.94596194E-02  1.61548930E-02
 -1.74019954E-02  6.78272625E-03  4.15230325E-03  6.05838246E-02 -4.26438491E-01
  4.58395789E-01  2.74614942E-02  1.09722280E-01 -4.32687001E-02  9.88414338E-02
 -3.74067331E-02 -5.28468145E-03  7.42588469E-02 -3.15111928E-02 -1.30593383E-01
 -3.16410717E-02 -1.72947501E-02  2.59994542E-02  1.99598075E-02 -3.41253774E-02
 -1.19006268E-01 -1.46399460E-03 -6.65276635E-04 -2.10421096E-02  9.80475063E-03
  6.34113039E-03 -1.99290119E-02  6.92642068E-03  3.46170594E-02  1.21532682E-01
 -2.69392326E-01  1.99046583E-01 -6.73287981E-02 -7.28645994E-02 -1.68822971E-02
 -2.13343604E-02  4.12991080E-03 -1.91647102E-02  1.88283600E-02  1.72947501E-02
 -2.59994542E-02  1.99598075E-02 -3.41253774E-02  1.19006268E-01  1.46399460E-03
 -6.65276635E-04 -2.10421096E-02 -9.80475063E-03 -6.34113039E-03 -1.99290119E-02
  6.92642068E-03 -3.46170594E-02 -1.21532682E-01  2.69392326E-01 -1.99046583E-01
  6.73287981E-02 -7.28645994E-02 -1.68822971E-02  2.13343604E-02 -4.12991080E-03
  1.91647102E-02 -1.88283600E-02 -9.28368247E-04 -2.82688111E-02  8.41455091E-02
  2.11861167E-01  2.79812938E-02  8.98031898E-03  2.89750096E-02  7.94596194E-02
 -1.61548930E-02  1.74019954E-02  6.78272625E-03  4.15230325E-03 -6.05838246E-02
  4.26438491E-01 -4.58395789E-01 -2.74614942E-02 -1.09722280E-01 -4.32687001E-02
  9.88414338E-02  3.74067331E-02  5.28468145E-03  1.30593383E-01  3.16410717E-02
 -7.42588469E-02  3.15111928E-02  9.00828461E-04 -8.10121380E-03  1.62633152E-01
 -4.05787862E-02  1.64574975E-01  9.33829789E-04  4.68055087E-02  1.19500391E-02
 -3.81670564E-02  2.35455253E-02  9.87498609E-03  2.78933204E-02 -9.37679212E-02
 -3.72762964E-02  3.10677686E-02 -1.25063701E-02 -2.24492875E-01  2.92585788E-01
  6.09854947E-03  2.52811148E-02 -6.34866744E-03  1.18083951E-02  3.13560566E-02
 -2.91542762E-02  3.99762549E-02  3.33825683E-02 -4.30313250E-02 -1.71840134E-01
  5.33362741E-02  2.24813068E-01  3.12437413E-03 -1.13254396E-02 -1.79800182E-02
  3.30145629E-02 -5.97277307E-03 -1.79273564E-03 -3.67560076E-02 -2.80778993E-02
  3.09538474E-02 -1.85289844E-01  8.03002021E-02 -1.82686690E-01  5.53042069E-01
 -2.36292754E-01  4.48254135E-02  3.46452675E-02  6.26102629E-02 -3.59612506E-03
 -3.33825683E-02  4.30313250E-02 -1.71840134E-01  5.33362741E-02 -2.24813068E-01
 -3.12437413E-03 -1.13254396E-02 -1.79800182E-02 -3.30145629E-02  5.97277307E-03
 -1.79273564E-03 -3.67560076E-02  2.80778993E-02 -3.09538474E-02  1.85289844E-01
 -8.03002021E-02  1.82686690E-01  5.53042069E-01 -2.36292754E-01 -4.48254135E-02
 -3.46452675E-02 -6.26102629E-02  3.59612506E-03 -9.00828461E-04  8.10121380E-03
  1.62633152E-01 -4.05787862E-02 -1.64574975E-01 -9.33829789E-04  4.68055087E-02
  1.19500391E-02  3.81670564E-02 -2.35455253E-02  9.87498609E-03  2.78933204E-02
  9.37679212E-02  3.72762964E-02 -3.10677686E-02  1.25063701E-02  2.24492875E-01
  2.92585788E-01  6.09854947E-03 -2.52811148E-02  6.34866744E-03  2.91542762E-02
 -3.99762549E-02 -1.18083951E-02 -3.13560566E-02 -2.18875288E-02  7.35581486E-03
 -2.25521611E-01 -7.09230035E-02  3.73667501E-01  2.01289099E-02  4.73885436E-02
  2.11160280E-02 -9.98781342E-02  5.65906798E-02  1.17083992E-01  8.11169608E-02
 -2.39731258E-01 -1.07988120E-01  1.24554662E-01 -1.28235931E-02 -2.31040286E-02
 -5.72628446E-02 -6.83289457E-02 -5.88374754E-02 -5.95846907E-02 -2.86412511E-02
  9.16383283E-02 -3.16040535E-02  1.15402795E-01  1.17020701E-01 -2.21156750E-01
  1.23739502E-01  2.63736362E-01 -8.50323510E-02  9.83148795E-03 -7.12492211E-02
 -6.33100734E-02  2.82532245E-02 -1.63736233E-02  2.26131004E-02 -8.64277331E-02
 -5.84867109E-02 -2.04776766E-01 -8.51970380E-02 -8.73372428E-02  9.69242481E-02
 -1.02132432E-01  1.01525109E-01  2.82969418E-01  1.54118937E-01  2.99031491E-01
  2.13161127E-02 -1.17020701E-01  2.21156750E-01  1.23739502E-01  2.63736362E-01
  8.50323510E-02 -9.83148795E-03 -7.12492211E-02 -6.33100734E-02 -2.82532245E-02
  1.63736233E-02  2.26131004E-02 -8.64277331E-02  5.84867109E-02  2.04776766E-01
  8.51970380E-02  8.73372428E-02 -9.69242481E-02 -1.02132432E-01  1.01525109E-01
 -2.82969418E-01 -1.54118937E-01 -2.99031491E-01 -2.13161127E-02  2.18875288E-02
 -7.35581486E-03 -2.25521611E-01 -7.09230035E-02 -3.73667501E-01 -2.01289099E-02
  4.73885436E-02  2.11160280E-02  9.98781342E-02 -5.65906798E-02  1.17083992E-01
  8.11169608E-02  2.39731258E-01  1.07988120E-01 -1.24554662E-01  1.28235931E-02
  2.31040286E-02 -5.72628446E-02 -6.83289457E-02  5.88374754E-02  5.95846907E-02
  3.16040535E-02 -1.15402795E-01  2.86412511E-02 -9.16383283E-02 -3.17411662E-02
  8.92043398E-02  1.74321613E-01 -3.30278763E-01 -2.75983958E-01 -6.40000692E-03
 -3.53833390E-02  6.51052032E-02  5.60548586E-02  2.38607355E-02 -2.49707883E-02
  1.16960823E-01 -3.11369649E-02 -9.65655791E-02  3.71890572E-01 -1.25556602E-01
  1.29788977E-01  2.39768197E-02  1.79464357E-02 -5.24753265E-03  1.08126534E-01
 -2.19477696E-01 -1.27511653E-01 -1.43164006E-01 -4.60584842E-02  2.26271664E-02
 -5.31110726E-03 -2.46274762E-02  2.89052690E-01  3.08287945E-01 -1.28406797E-02
 -3.73198711E-03 -3.39667247E-02 -4.69640550E-02 -1.65308148E-02  3.16328924E-02
 -1.61101079E-02 -4.32341654E-02 -6.73386048E-02  2.87290255E-01 -2.13939285E-01
  8.18713427E-02  3.42823992E-02  4.13212688E-02  7.54570267E-02  1.95608306E-03
 -8.22643502E-02 -1.15765519E-01 -2.26271664E-02  5.31110726E-03 -2.46274762E-02
  2.89052690E-01 -3.08287945E-01  1.28406797E-02 -3.73198711E-03 -3.39667247E-02
  4.69640550E-02  1.65308148E-02  3.16328924E-02 -1.61101079E-02  4.32341654E-02
  6.73386048E-02 -2.87290255E-01  2.13939285E-01 -8.18713427E-02  3.42823992E-02
  4.13212688E-02 -7.54570267E-02 -1.95608306E-03  8.22643502E-02  1.15765519E-01
  3.17411662E-02 -8.92043398E-02  1.74321613E-01 -3.30278763E-01  2.75983958E-01
  6.40000692E-03 -3.53833390E-02  6.51052032E-02 -5.60548586E-02 -2.38607355E-02
 -2.49707883E-02  1.16960823E-01  3.11369649E-02  9.65655791E-02 -3.71890572E-01
  1.25556602E-01 -1.29788977E-01  2.39768197E-02  1.79464357E-02  5.24753265E-03
 -1.08126534E-01  1.43164006E-01  4.60584842E-02  2.19477696E-01  1.27511653E-01
 -6.89145857E-02  1.56574875E-01  3.61825857E-01  1.06135041E-01  1.87054656E-01
 -5.47418557E-03 -1.47013046E-01 -3.92520752E-02 -4.41826100E-02  7.10878016E-02
 -1.34484959E-01  1.00711144E-01 -1.77144015E-01  1.89534787E-01 -8.18798192E-02
  1.38744166E-01  1.43049597E-01 -7.62642673E-02 -7.36006545E-02 -2.09556642E-01
  7.39794874E-02 -1.92792631E-01  6.51767395E-02 -3.37262554E-01 -2.03100145E-01
  5.31473931E-02 -6.12479696E-02 -2.41441363E-01 -1.93762964E-01  7.17889897E-02
 -1.70003893E-02  6.88267826E-02  4.23351273E-02 -2.82190581E-02 -2.82879508E-02
  1.44823761E-01  6.31486179E-02 -1.11827779E-01  8.68371745E-02 -1.62873555E-01
 -9.28460837E-04  1.33861891E-01 -1.11692154E-01  1.30260782E-01  6.23686116E-02
 -1.37933286E-01  1.39311025E-01  3.88062713E-03 -5.31473931E-02  6.12479696E-02
 -2.41441363E-01 -1.93762964E-01 -7.17889897E-02  1.70003893E-02  6.88267826E-02
  4.23351273E-02  2.82190581E-02  2.82879508E-02  1.44823761E-01  6.31486179E-02
  1.11827779E-01 -8.68371745E-02  1.62873555E-01  9.28460837E-04 -1.33861891E-01
 -1.11692154E-01  1.30260782E-01 -6.23686116E-02  1.37933286E-01 -1.39311025E-01
 -3.88062713E-03  6.89145857E-02 -1.56574875E-01  3.61825857E-01  1.06135041E-01
 -1.87054656E-01  5.47418557E-03 -1.47013046E-01 -3.92520752E-02  4.41826100E-02
 -7.10878016E-02 -1.34484959E-01  1.00711144E-01  1.77144015E-01 -1.89534787E-01
  8.18798192E-02 -1.38744166E-01 -1.43049597E-01 -7.62642673E-02 -7.36006545E-02
  2.09556642E-01 -7.39794874E-02  3.37262554E-01  2.03100145E-01  1.92792631E-01
 -6.51767395E-02  4.77905845E-02 -1.50449140E-01  2.53114550E-01  3.98025875E-03
  9.99613763E-02  9.73559083E-03 -8.82527762E-02 -5.67903217E-02 -2.66643660E-02
 -8.81007999E-02 -4.15100551E-02 -2.08498422E-01  6.52633817E-02 -8.12356740E-02
  1.30885588E-01 -2.89156167E-01  1.43447060E-01 -5.05248243E-02 -1.38556074E-01
  3.52209649E-01  6.49207789E-02  2.78342080E-01  1.36348079E-01  1.61881330E-01
 -1.06058018E-01  2.92178312E-02 -8.26507599E-02 -2.77198210E-01 -1.55673573E-02
 -1.75752449E-01 -1.64263078E-03  7.96825649E-02  9.80054371E-02  3.51424480E-02
 -2.87841596E-02  1.20492536E-01 -1.11435327E-02 -1.61537351E-03 -4.37910417E-02
  1.36401144E-01 -2.21556065E-01  1.82351534E-01 -1.19858467E-02 -2.22436448E-01
  6.08173376E-02 -1.26198722E-01  2.04199315E-01  1.53323165E-01 -2.92178312E-02
  8.26507599E-02 -2.77198210E-01 -1.55673573E-02  1.75752449E-01  1.64263078E-03
  7.96825649E-02  9.80054371E-02 -3.51424480E-02  2.87841596E-02  1.20492536E-01
 -1.11435327E-02  1.61537351E-03  4.37910417E-02 -1.36401144E-01  2.21556065E-01
 -1.82351534E-01 -1.19858467E-02 -2.22436448E-01 -6.08173376E-02  1.26198722E-01
 -2.04199315E-01 -1.53323165E-01 -4.77905845E-02  1.50449140E-01  2.53114550E-01
  3.98025875E-03 -9.99613763E-02 -9.73559083E-03 -8.82527762E-02 -5.67903217E-02
  2.66643660E-02  8.81007999E-02 -4.15100551E-02 -2.08498422E-01 -6.52633817E-02
  8.12356740E-02 -1.30885588E-01  2.89156167E-01 -1.43447060E-01 -5.05248243E-02
 -1.38556074E-01 -3.52209649E-01 -6.49207789E-02 -1.61881330E-01  1.06058018E-01
 -2.78342080E-01 -1.36348079E-01  3.19565240E-02 -3.72091542E-02  3.42560584E-01
 -2.81863746E-01 -1.23199045E-01 -9.57363066E-03 -1.11556867E-01  1.37993364E-01
  6.77768733E-02 -6.97087797E-02  1.39111329E-01  3.99680449E-02  5.75306880E-02
 -4.82285757E-02 -3.18547166E-01  3.34569086E-01  2.34333151E-01  3.55979882E-02
  6.46383560E-02  3.67022324E-01  2.20234927E-01  5.99538950E-02 -1.60983106E-01
  2.14835033E-02 -6.07672505E-02  1.91424125E-02 -3.91390258E-02  2.19918547E-01
  1.27244842E-01 -1.38153905E-01  7.17670852E-03 -1.03575975E-01 -1.16783089E-01
  1.58801577E-02 -4.62512240E-02  1.06717739E-01 -9.63714697E-02  8.48334220E-03
 -7.41171279E-02 -2.00769263E-01  2.24683172E-01 -8.36348467E-02 -2.92504986E-02
  9.70587809E-03  1.64797297E-01  1.05477433E-01  1.38154021E-01 -5.24079210E-02
 -1.91424125E-02  3.91390258E-02  2.19918547E-01  1.27244842E-01  1.38153905E-01
 -7.17670852E-03 -1.03575975E-01 -1.16783089E-01 -1.58801577E-02  4.62512240E-02
  1.06717739E-01 -9.63714697E-02 -8.48334220E-03  7.41171279E-02  2.00769263E-01
 -2.24683172E-01  8.36348467E-02 -2.92504986E-02  9.70587809E-03 -1.64797297E-01
 -1.05477433E-01 -1.38154021E-01  5.24079210E-02 -3.19565240E-02  3.72091542E-02
  3.42560584E-01 -2.81863746E-01  1.23199045E-01  9.57363066E-03 -1.11556867E-01
  1.37993364E-01 -6.77768733E-02  6.97087797E-02  1.39111329E-01  3.99680449E-02
 -5.75306880E-02  4.82285757E-02  3.18547166E-01 -3.34569086E-01 -2.34333151E-01
  3.55979882E-02  6.46383560E-02 -3.67022324E-01 -2.20234927E-01 -2.14835033E-02
  6.07672505E-02 -5.99538950E-02  1.60983106E-01  9.08445551E-04 -8.52852397E-03
  2.86229430E-01  3.28997955E-01  1.85605380E-01 -9.54764341E-03 -1.59617485E-01
 -1.90804729E-01 -3.56854131E-02 -1.00300316E-02  1.66197971E-01  1.45906622E-02
  1.74375901E-01  2.06540404E-01  4.78637726E-02 -2.67113751E-01  3.60239002E-02
 -2.05492309E-02 -1.68363977E-01  7.52069838E-03 -6.79312512E-02  2.39438816E-01
  1.43125252E-01 -1.51575211E-01 -1.43705539E-01 -3.37872580E-02  1.24794149E-02
  4.43444225E-01  1.45378665E-01  2.09610467E-01  3.16207993E-02 -1.72086485E-01
 -1.03822122E-01 -7.22832713E-02  1.51591140E-02  1.19154362E-01  1.96999933E-01
  6.43303665E-02 -1.06511471E-01  7.57156140E-02  9.61295695E-03 -2.27698450E-01
  1.64812999E-04  8.07185039E-02  1.28193984E-01  1.55542939E-01 -2.54951411E-01
 -2.40827714E-02  3.37872580E-02 -1.24794149E-02  4.43444225E-01  1.45378665E-01
 -2.09610467E-01 -3.16207993E-02 -1.72086485E-01 -1.03822122E-01  7.22832713E-02
 -1.51591140E-02  1.19154362E-01  1.96999933E-01 -6.43303665E-02  1.06511471E-01
 -7.57156140E-02 -9.61295695E-03  2.27698450E-01  1.64812999E-04  8.07185039E-02
 -1.28193984E-01 -1.55542939E-01  2.54951411E-01  2.40827714E-02 -9.08445551E-04
  8.52852397E-03  2.86229430E-01  3.28997955E-01 -1.85605380E-01  9.54764341E-03
 -1.59617485E-01 -1.90804729E-01  3.56854131E-02  1.00300316E-02  1.66197971E-01
  1.45906622E-02 -1.74375901E-01 -2.06540404E-01 -4.78637726E-02  2.67113751E-01
 -3.60239002E-02 -2.05492309E-02 -1.68363977E-01 -7.52069838E-03  6.79312512E-02
  1.51575211E-01  1.43705539E-01 -2.39438816E-01 -1.43125252E-01 -1.15959048E-02
 -8.24372913E-03 -8.32670294E-02 -1.53529981E-01  2.49265244E-01  8.85867157E-03
  3.47057601E-02  1.98040224E-02  8.81324903E-02 -7.00068222E-02 -6.33457070E-02
 -1.08101671E-01  3.13175711E-01 -1.97779051E-01 -3.32585889E-02  2.00633110E-01
 -4.38435815E-02 -5.13639036E-02 -3.39201464E-01  5.21344756E-02  3.05824323E-02
  2.76270666E-01 -2.38136497E-02  1.61858966E-01  4.16216163E-02  4.92382191E-02
 -1.08865812E-01 -3.12027929E-01  6.77541824E-02  4.40834602E-01 -6.53619042E-02
  7.90233518E-02  6.51842299E-04 -1.11526778E-01  1.95494023E-02 -4.57792926E-02
  7.09695993E-02  5.49747582E-02 -1.52653473E-01 -1.68884904E-01  2.20852173E-01
  2.81793566E-01 -5.00701342E-02  3.97839469E-01  1.22772365E-02 -7.72660846E-02
 -2.88571347E-01 -1.68258589E-01 -4.92382191E-02  1.08865812E-01 -3.12027929E-01
  6.77541824E-02 -4.40834602E-01  6.53619042E-02  7.90233518E-02  6.51842299E-04
  1.11526778E-01 -1.95494023E-02 -4.57792926E-02  7.09695993E-02 -5.49747582E-02
  1.52653473E-01  1.68884904E-01 -2.20852173E-01 -2.81793566E-01 -5.00701342E-02
  3.97839469E-01 -1.22772365E-02  7.72660846E-02  2.88571347E-01  1.68258589E-01
  1.15959048E-02  8.24372913E-03 -8.32670294E-02 -1.53529981E-01 -2.49265244E-01
 -8.85867157E-03  3.47057601E-02  1.98040224E-02 -8.81324903E-02  7.00068222E-02
 -6.33457070E-02 -1.08101671E-01 -3.13175711E-01  1.97779051E-01  3.32585889E-02
 -2.00633110E-01  4.38435815E-02 -5.13639036E-02 -3.39201464E-01 -5.21344756E-02
 -3.05824323E-02 -1.61858966E-01 -4.16216163E-02 -2.76270666E-01  2.38136497E-02
  3.62199005E-02  2.69467293E-02  5.14473842E-02  2.31948455E-01 -7.83112776E-02
 -9.39347494E-02 -4.32333657E-02 -6.13808769E-02 -1.12364292E-01  3.39529702E-02
  1.23941454E-01  2.16936792E-01  6.87654318E-02  2.60443919E-01 -4.75169079E-02
 -1.04369805E-01 -1.27442363E-02 -1.24451264E-02  2.37437816E-01 -2.57049803E-02
 -9.04242840E-02  9.24366209E-03 -5.96306832E-02 -3.96442902E-02 -8.38009417E-02
  1.54294469E-02  7.56570164E-03 -3.30755531E-01  5.91417818E-01 -1.90406161E-01
 -3.72114541E-02 -1.42862844E-01 -2.95913769E-01  4.72360455E-02  3.59796993E-02
 -9.62738151E-02  8.16340047E-02  1.36801599E-01 -1.64883167E-01 -8.93853784E-02
  2.93673496E-01  5.15514950E-01  2.25491753E-02 -1.63690312E-01 -3.85942662E-01
  6.16203568E-02  1.86791311E-04 -4.71336088E-02 -1.54294469E-02 -7.56570164E-03
 -3.30755531E-01  5.91417818E-01  1.90406161E-01  3.72114541E-02 -1.42862844E-01
 -2.95913769E-01 -4.72360455E-02 -3.59796993E-02 -9.62738151E-02  8.16340047E-02
 -1.36801599E-01  1.64883167E-01  8.93853784E-02 -2.93673496E-01 -5.15514950E-01
  2.25491753E-02 -1.63690312E-01  3.85942662E-01 -6.16203568E-02 -1.86791311E-04
  4.71336088E-02 -3.62199005E-02 -2.69467293E-02  5.14473842E-02  2.31948455E-01
  7.83112776E-02  9.39347494E-02 -4.32333657E-02 -6.13808769E-02  1.12364292E-01
 -3.39529702E-02  1.23941454E-01  2.16936792E-01 -6.87654318E-02 -2.60443919E-01
  4.75169079E-02  1.04369805E-01  1.27442363E-02 -1.24451264E-02  2.37437816E-01
  2.57049803E-02  9.04242840E-02  3.96442902E-02  8.38009417E-02 -9.24366209E-03
  5.96306832E-02  2.28625304E-03 -1.05187257E-01 -7.20713226E-02  2.45509182E-01
 -3.26190745E-01 -1.69355627E-02 -2.08895386E-01 -1.69017407E-01  2.05237855E-01
  1.66292005E-02 -3.34411148E-01 -1.05771994E-01  3.22571426E-02 -8.99937791E-02
 -3.60781232E-02 -2.14619040E-02 -2.16037442E-01 -1.98527841E-02  1.79977147E-01
 -2.88299701E-01  5.29296777E-02 -1.34110447E-01  2.61234983E-02  3.76407237E-01
 -1.25209980E-01  6.25696559E-03 -6.89797251E-02 -9.81040026E-03  1.58887146E-01
  1.16565126E-02 -7.25176023E-03  1.01827645E-01  1.04552905E-01 -2.42866436E-01
 -5.39100509E-02  3.26636844E-01  1.67956261E-01 -2.56991740E-01 -3.74559368E-01
 -3.32582708E-02  3.23141349E-01 -4.06552217E-02 -4.37177896E-02 -2.01974448E-01
  4.81303329E-01 -1.18809237E-01  9.75698541E-02 -1.11626923E-01 -6.25696559E-03
  6.89797251E-02 -9.81040026E-03  1.58887146E-01 -1.16565126E-02  7.25176023E-03
  1.01827645E-01  1.04552905E-01  2.42866436E-01  5.39100509E-02  3.26636844E-01
  1.67956261E-01  2.56991740E-01  3.74559368E-01  3.32582708E-02 -3.23141349E-01
  4.06552217E-02 -4.37177896E-02 -2.01974448E-01 -4.81303329E-01  1.18809237E-01
 -9.75698541E-02  1.11626923E-01 -2.28625304E-03  1.05187257E-01 -7.20713226E-02
  2.45509182E-01  3.26190745E-01  1.69355627E-02 -2.08895386E-01 -1.69017407E-01
 -2.05237855E-01 -1.66292005E-02 -3.34411148E-01 -1.05771994E-01 -3.22571426E-02
  8.99937791E-02  3.60781232E-02  2.14619040E-02  2.16037442E-01 -1.98527841E-02
  1.79977147E-01  2.88299701E-01 -5.29296777E-02 -3.76407237E-01  1.25209980E-01
  1.34110447E-01 -2.61234983E-02 -4.62276974E-03  5.17471070E-02  1.07571228E-01
 -9.40464796E-02  1.20624638E-01 -8.26033259E-03 -4.89812928E-01 -8.23704346E-02
 -3.24824964E-02 -3.52946501E-02  1.04603329E-01  4.70142743E-03  9.04772442E-02
 -2.56056047E-01  9.32544999E-02  2.21015617E-01 -2.87390758E-01  3.82691424E-02
 -4.38571007E-02 -2.53418306E-01  8.76416191E-02 -1.34014913E-01  2.70526503E-02
  5.78736343E-01 -1.51548291E-01 -6.66795066E-03 -4.93627047E-02  1.86200241E-01
 -5.60735166E-02  9.60792730E-02  4.77215877E-02 -3.94410403E-01 -2.37926585E-01
 -9.73082130E-02 -3.67152098E-02  2.44218563E-01  9.53260033E-02 -3.86535957E-02
  3.29699899E-01 -6.44833810E-02 -3.47024102E-01  1.39612057E-01 -2.93619313E-02
  1.47768197E-02 -4.76359579E-01  8.48319704E-02  2.15512792E-01  2.68245604E-02
  6.66795066E-03  4.93627047E-02  1.86200241E-01 -5.60735166E-02 -9.60792730E-02
 -4.77215877E-02 -3.94410403E-01 -2.37926585E-01  9.73082130E-02  3.67152098E-02
  2.44218563E-01  9.53260033E-02  3.86535957E-02 -3.29699899E-01  6.44833810E-02
  3.47024102E-01 -1.39612057E-01 -2.93619313E-02  1.47768197E-02  4.76359579E-01
 -8.48319704E-02 -2.15512792E-01 -2.68245604E-02  4.62276974E-03 -5.17471070E-02
  1.07571228E-01 -9.40464796E-02 -1.20624638E-01  8.26033259E-03 -4.89812928E-01
 -8.23704346E-02  3.24824964E-02  3.52946501E-02  1.04603329E-01  4.70142743E-03
 -9.04772442E-02  2.56056047E-01 -9.32544999E-02 -2.21015617E-01  2.87390758E-01
  3.82691424E-02 -4.38571007E-02  2.53418306E-01 -8.76416191E-02 -5.78736343E-01
  1.51548291E-01  1.34014913E-01 -2.70526503E-02  5.18123532E-02  1.96048808E-01
 -1.02579102E-01 -8.15962504E-02  1.50541270E-01 -2.47590064E-01  8.59254952E-02
  2.72368003E-01  5.90601663E-02 -1.93289815E-02 -2.69116151E-01  4.54191611E-01
  1.61198069E-01  2.92072524E-01  1.47369176E-01 -6.09330919E-02 -1.20798560E-01
 -4.99096209E-02 -1.05108132E-01 -2.63705403E-01  1.01070087E-01  6.03439048E-01
 -4.22081502E-01  1.77463055E-01 -3.00027137E-01  4.25463652E-02  1.91978165E-01
  5.59415447E-02  3.49194617E-02 -1.26449191E-01 -1.76069774E-01  2.01206552E-01
 -3.14627187E-01  8.92156289E-02 -3.52209966E-02 -3.56700249E-02 -4.45774955E-02
  7.18544678E-02  2.70451774E-01  1.26809379E-01 -4.65900065E-02 -1.83276619E-01
  1.72703928E-02 -1.80443043E-02  2.33068626E-01 -2.36082567E-01  3.34654302E-01
 -2.39454455E-01 -4.25463652E-02 -1.91978165E-01  5.59415447E-02  3.49194617E-02
  1.26449191E-01  1.76069774E-01  2.01206552E-01 -3.14627187E-01 -8.92156289E-02
  3.52209966E-02 -3.56700249E-02 -4.45774955E-02 -7.18544678E-02 -2.70451774E-01
 -1.26809379E-01  4.65900065E-02  1.83276619E-01  1.72703928E-02 -1.80443043E-02
 -2.33068626E-01  2.36082567E-01 -3.34654302E-01  2.39454455E-01 -5.18123532E-02
 -1.96048808E-01 -1.02579102E-01 -8.15962504E-02 -1.50541270E-01  2.47590064E-01
  8.59254952E-02  2.72368003E-01 -5.90601663E-02  1.93289815E-02 -2.69116151E-01
  4.54191611E-01 -1.61198069E-01 -2.92072524E-01 -1.47369176E-01  6.09330919E-02
  1.20798560E-01 -4.99096209E-02 -1.05108132E-01  2.63705403E-01 -1.01070087E-01
 -1.77463055E-01  3.00027137E-01 -6.03439048E-01  4.22081502E-01 -3.64813705E-02
 -1.62167307E-01  6.21823928E-02  7.28137004E-02 -2.46543580E-01  2.09374327E-01
 -9.29375179E-02  2.26715086E-01  6.06117760E-01 -1.29776323E-02  2.43117595E-01
  2.99436372E-02 -9.49140218E-02  1.00144625E-01 -7.53697744E-02 -3.16468911E-01
 -9.93808009E-02 -5.36927675E-02 -1.76593073E-01 -4.29204543E-01  3.12710486E-01
  4.98565196E-01 -1.53553121E-01 -2.84856263E-01  2.96828262E-01 -2.84967573E-02
 -1.87275542E-01 -2.13006637E-02 -1.57760072E-01  2.79742702E-02  1.48216031E-01
 -2.42166418E-01  3.00272833E-01 -1.55177927E-01 -6.40942752E-02  4.01687615E-03
 -3.78922692E-01 -2.40417938E-01 -1.20481728E-01 -1.42489926E-01 -3.29501273E-02
  1.73224280E-01 -8.12053901E-03 -8.05862209E-02 -2.75268345E-01  2.50061640E-01
  1.71882703E-01 -1.87040478E-01  2.84967573E-02  1.87275542E-01 -2.13006637E-02
 -1.57760072E-01 -2.79742702E-02 -1.48216031E-01 -2.42166418E-01  3.00272833E-01
  1.55177927E-01  6.40942752E-02  4.01687615E-03 -3.78922692E-01  2.40417938E-01
  1.20481728E-01  1.42489926E-01  3.29501273E-02 -1.73224280E-01 -8.12053901E-03
 -8.05862209E-02  2.75268345E-01 -2.50061640E-01 -1.71882703E-01  1.87040478E-01
  3.64813705E-02  1.62167307E-01  6.21823928E-02  7.28137004E-02  2.46543580E-01
 -2.09374327E-01 -9.29375179E-02  2.26715086E-01 -6.06117760E-01  1.29776323E-02
  2.43117595E-01  2.99436372E-02  9.49140218E-02 -1.00144625E-01  7.53697744E-02
  3.16468911E-01  9.93808009E-02 -5.36927675E-02 -1.76593073E-01  4.29204543E-01
 -3.12710486E-01  2.84856263E-01 -2.96828262E-01 -4.98565196E-01  1.53553121E-01
  7.02031020E-03  2.79250504E-02  3.41855860E-02 -2.79228017E-01  1.30025248E-01
  1.13104959E-01 -2.41853376E-01  6.86027828E-01 -2.92728197E-01 -1.63003175E-01
  5.96003510E-02 -3.19510159E-01 -7.80561756E-02  1.53598104E-01  5.66522410E-02
 -1.59701336E-01 -1.43083436E-01 -2.69767826E-02  1.01722918E-01 -5.34618043E-01
  4.18060955E-01  1.86397745E-02  1.18801011E-01  1.24383422E-01 -1.90977874E-01
  3.81040492E-03  6.62677704E-02  1.44549855E-02  1.30841214E-01 -2.15398768E-01
  6.61986364E-02 -6.61003887E-02  1.21122215E-01  5.50592910E-01 -5.64774083E-02
  1.85393944E-01 -1.54490518E-01  1.12032571E-01 -1.22474498E-01 -1.15101127E-02
  2.08300987E-01  4.73331668E-02  6.96647513E-02  8.75168403E-02  1.54735239E-01
 -1.21328204E-01 -6.15994236E-01  5.70307938E-01 -3.81040492E-03 -6.62677704E-02
  1.44549855E-02  1.30841214E-01  2.15398768E-01 -6.61986364E-02 -6.61003887E-02
  1.21122215E-01 -5.50592910E-01  5.64774083E-02  1.85393944E-01 -1.54490518E-01
 -1.12032571E-01  1.22474498E-01  1.15101127E-02 -2.08300987E-01 -4.73331668E-02
  6.96647513E-02  8.75168403E-02 -1.54735239E-01  1.21328204E-01  6.15994236E-01
 -5.70307938E-01 -7.02031020E-03 -2.79250504E-02  3.41855860E-02 -2.79228017E-01
 -1.30025248E-01 -1.13104959E-01 -2.41853376E-01  6.86027828E-01  2.92728197E-01
  1.63003175E-01  5.96003510E-02 -3.19510159E-01  7.80561756E-02 -1.53598104E-01
 -5.66522410E-02  1.59701336E-01  1.43083436E-01 -2.69767826E-02  1.01722918E-01
  5.34618043E-01 -4.18060955E-01 -1.24383422E-01  1.90977874E-01 -1.86397745E-02
 -1.18801011E-01 -4.90127463E-02 -1.35830242E-01 -3.65119652E-03 -4.76839086E-02
  1.50522571E-01  2.95335763E-01  2.67144712E-02  3.00174471E-01 -4.54583125E-01
 -2.13776034E-01  3.93953603E-02 -4.95000980E-01  8.21460231E-01  4.86790364E-03
 -1.45295326E-01 -1.59772471E-01  9.48077880E-03 -1.68833834E-04  1.42692634E-01
 -3.04974892E-01  3.50806699E-01 -2.82778231E-01  2.63569822E-01 -3.85499314E-01
  4.30850840E-01  3.34671778E-02  1.65357472E-01  9.24375399E-03  1.11394490E-01
 -2.18033789E-02 -1.26728653E-01  1.01484167E-01 -2.55830849E-01 -3.25897410E-01
  2.27687438E-02 -3.54824858E-02  9.04893963E-02  6.86598748E-02  1.67714826E-01
  9.98344534E-02  3.36628745E-03 -6.77329759E-02 -2.87374228E-02 -1.34622286E-01
  5.84977004E-02 -1.00201789E-01  4.80005923E-01 -4.22353925E-01 -3.34671778E-02
 -1.65357472E-01  9.24375399E-03  1.11394490E-01  2.18033789E-02  1.26728653E-01
  1.01484167E-01 -2.55830849E-01  3.25897410E-01 -2.27687438E-02 -3.54824858E-02
  9.04893963E-02 -6.86598748E-02 -1.67714826E-01 -9.98344534E-02 -3.36628745E-03
  6.77329759E-02 -2.87374228E-02 -1.34622286E-01 -5.84977004E-02  1.00201789E-01
 -4.80005923E-01  4.22353925E-01  4.90127463E-02  1.35830242E-01 -3.65119652E-03
 -4.76839086E-02 -1.50522571E-01 -2.95335763E-01  2.67144712E-02  3.00174471E-01
  4.54583125E-01  2.13776034E-01  3.93953603E-02 -4.95000980E-01 -8.21460231E-01
 -4.86790364E-03  1.45295326E-01  1.59772471E-01 -9.48077880E-03 -1.68833834E-04
  1.42692634E-01  3.04974892E-01 -3.50806699E-01  3.85499314E-01 -4.30850840E-01
  2.82778231E-01 -2.63569822E-01 -1.61589984E-02 -1.33549853E-01  1.25524109E-01
  1.44288435E-01 -6.88442190E-03  1.28018688E-01 -5.66128577E-01 -3.62704199E-01
 -2.20849495E-01 -2.85066401E-02  9.81485246E-01  4.97833980E-01 -3.48689706E-02
 -1.37256985E-01  5.05966959E-03 -7.94554948E-04 -7.26648640E-02 -1.17570614E-02
  6.62311969E-02 -2.17752807E-01  3.49861854E-01 -1.87063300E-01  6.06725016E-02
  3.57554405E-01 -2.79302668E-01  1.63189129E-02  1.76732245E-02 -1.05528372E-01
 -1.55038843E-01  8.67747955E-02 -1.02257732E-01  3.96828153E-01  4.93480886E-01
 -2.53461295E-01  1.17480529E-01 -8.97964573E-01 -4.60189813E-01  7.08423933E-01
 -9.10003405E-02  9.80443013E-02  8.32780859E-02 -4.73047940E-02 -4.96050557E-02
 -4.40813485E-02  3.80486467E-01 -3.32749767E-01  6.68112431E-02 -1.67429406E-01
 -1.63189129E-02 -1.76732245E-02 -1.05528372E-01 -1.55038843E-01 -8.67747955E-02
  1.02257732E-01  3.96828153E-01  4.93480886E-01  2.53461295E-01 -1.17480529E-01
 -8.97964573E-01 -4.60189813E-01 -7.08423933E-01  9.10003405E-02 -9.80443013E-02
 -8.32780859E-02  4.73047940E-02 -4.96050557E-02 -4.40813485E-02 -3.80486467E-01
  3.32749767E-01 -6.68112431E-02  1.67429406E-01  1.61589984E-02  1.33549853E-01
  1.25524109E-01  1.44288435E-01  6.88442190E-03 -1.28018688E-01 -5.66128577E-01
 -3.62704199E-01  2.20849495E-01  2.85066401E-02  9.81485246E-01  4.97833980E-01
  3.48689706E-02  1.37256985E-01 -5.05966959E-03  7.94554948E-04  7.26648640E-02
 -1.17570614E-02  6.62311969E-02  2.17752807E-01 -3.49861854E-01 -3.57554405E-01
  2.79302668E-01  1.87063300E-01 -6.06725016E-02 -2.00907766E-02 -1.82733710E-01
 -2.57970585E-01  2.79993367E-01  1.58288715E-01  3.45979273E-01  1.02655369E+00
 -1.14972637E+00 -6.81479271E-01 -2.90138754E-01 -3.37732325E-01  6.82343954E-01
  6.29521612E-01 -1.25913289E-01  2.18013483E-03  2.68389144E-02  8.29863498E-02
  5.24848845E-02  1.88088759E-02 -5.47498471E-02  1.35507811E+00 -1.91793275E-01
 -3.55225697E-01  5.07276600E-02 -4.51334634E-01 -3.86962319E-02 -1.87977550E-01
 -2.92223388E-02 -5.70147117E-02 -2.63738779E-02  3.09064668E-01 -1.04304127E-01
  3.13968579E-01  4.69013780E-01 -2.97197673E-01  5.10976284E-01 -5.64886403E-01
 -2.57964686E-01 -1.06355683E-01 -1.35447197E-04 -1.18563508E-01  3.94955111E-03
  7.01663013E-02  4.24976951E-02 -1.94045745E-01  5.13927702E-01 -1.76089170E-01
  1.84349086E-02  3.86962319E-02  1.87977550E-01 -2.92223388E-02 -5.70147117E-02
  2.63738779E-02 -3.09064668E-01 -1.04304127E-01  3.13968579E-01 -4.69013780E-01
  2.97197673E-01  5.10976284E-01 -5.64886403E-01  2.57964686E-01  1.06355683E-01
  1.35447197E-04  1.18563508E-01 -3.94955111E-03  7.01663013E-02  4.24976951E-02
  1.94045745E-01 -5.13927702E-01  1.76089170E-01 -1.84349086E-02  2.00907766E-02
  1.82733710E-01 -2.57970585E-01  2.79993367E-01 -1.58288715E-01 -3.45979273E-01
  1.02655369E+00 -1.14972637E+00  6.81479271E-01  2.90138754E-01 -3.37732325E-01
  6.82343954E-01 -6.29521612E-01  1.25913289E-01 -2.18013483E-03 -2.68389144E-02
 -8.29863498E-02  5.24848845E-02  1.88088759E-02  5.47498471E-02 -1.35507811E+00
 -5.07276600E-02  4.51334634E-01  1.91793275E-01  3.55225697E-01  2.56688242E-02
 -3.89972166E-01 -1.12918270E-01 -1.87488345E-01 -5.60650600E-02  1.50417379E-01
  3.01543875E-01  1.07398166E+00  6.40151592E-02 -1.02127444E-01  1.23941826E-01
  6.11119059E-01  4.62862347E-01  1.64801414E-01  6.46345975E-02  8.43603565E-02
 -8.66644401E-04 -4.33356874E-02  2.88534891E-02  5.38227868E-02 -5.91148376E-01
 -1.93491039E-01  9.98577040E-01  1.88853840E-01 -1.28364667E+00 -3.93727214E-02
  2.87356928E-01 -2.03238633E-01 -1.12752389E-01  7.97626492E-02  1.05980785E-01
  8.90731008E-01  2.22548971E-01 -7.37609987E-01 -1.06987852E-02  2.00467420E-01
 -2.33455881E-01 -2.35479117E-01 -1.28649867E-01 -1.45009108E-01 -1.05662420E-01
 -4.62410909E-02 -5.35950827E-02 -5.06569243E-02 -2.41080508E-01  1.47796355E+00
  7.59610012E-02  1.14252258E-01  3.93727214E-02 -2.87356928E-01 -2.03238633E-01
 -1.12752389E-01 -7.97626492E-02 -1.05980785E-01  8.90731008E-01  2.22548971E-01
  7.37609987E-01  1.06987852E-02  2.00467420E-01 -2.33455881E-01  2.35479117E-01
  1.28649867E-01  1.45009108E-01  1.05662420E-01  4.62410909E-02 -5.35950827E-02
 -5.06569243E-02  2.41080508E-01 -1.47796355E+00 -7.59610012E-02 -1.14252258E-01
 -2.56688242E-02  3.89972166E-01 -1.12918270E-01 -1.87488345E-01  5.60650600E-02
 -1.50417379E-01  3.01543875E-01  1.07398166E+00 -6.40151592E-02  1.02127444E-01
  1.23941826E-01  6.11119059E-01 -4.62862347E-01 -1.64801414E-01 -6.46345975E-02
 -8.43603565E-02  8.66644401E-04 -4.33356874E-02  2.88534891E-02 -5.38227868E-02
  5.91148376E-01 -1.88853840E-01  1.28364667E+00  1.93491039E-01 -9.98577040E-01
  7.29065577E-02 -6.92682259E-01 -1.05634825E-01 -6.10692016E-02 -1.77763390E-01
  1.89495268E-01  6.37358734E-01  2.40021813E-01  8.59425872E-01 -1.11443952E-01
 -9.96361952E-02  3.79562142E-01  2.19140003E-01  2.98167522E-01  2.69641337E-01
  2.73145958E-01  1.92277613E-02  5.18154471E-02 -2.49206828E-02  5.67882076E-02
 -1.14708844E-01 -3.07682222E-01  1.48121322E+00 -4.97105923E-03 -5.62163717E-01
  1.43174796E-01 -1.29106216E+00  1.97702380E-01 -2.34938979E-02 -7.15068146E-02
  1.15451272E-01 -9.29948569E-01 -1.07200081E-01  6.56353981E-01 -6.88627988E-02
 -3.61441917E-02 -1.78144350E-01  4.06273347E-01  6.28457816E-01  4.91640975E-01
  5.20971879E-01 -1.41835601E-02  8.94939528E-02  4.38721227E-02  5.26617557E-02
 -1.00463341E+00  5.69584772E-02 -6.72097455E-01 -1.43174796E-01  1.29106216E+00
  1.97702380E-01 -2.34938979E-02  7.15068146E-02 -1.15451272E-01 -9.29948569E-01
 -1.07200081E-01 -6.56353981E-01  6.88627988E-02 -3.61441917E-02 -1.78144350E-01
 -4.06273347E-01 -6.28457816E-01 -4.91640975E-01 -5.20971879E-01  1.41835601E-02
  8.94939528E-02  4.38721227E-02 -5.26617557E-02  1.00463341E+00 -5.69584772E-02
  6.72097455E-01 -7.29065577E-02  6.92682259E-01 -1.05634825E-01 -6.10692016E-02
  1.77763390E-01 -1.89495268E-01  6.37358734E-01  2.40021813E-01 -8.59425872E-01
  1.11443952E-01 -9.96361952E-02  3.79562142E-01 -2.19140003E-01 -2.98167522E-01
 -2.69641337E-01 -2.73145958E-01 -1.92277613E-02  5.18154471E-02 -2.49206828E-02
 -5.67882076E-02  1.14708844E-01  4.97105923E-03  5.62163717E-01  3.07682222E-01
 -1.48121322E+00 -2.65999848E-01  2.09076720E+00 -5.63961645E-02 -1.26713825E-02
 -1.15020042E-01  2.24801275E-02  2.59713836E-01 -7.88891189E-02  7.32731124E-01
 -3.24326487E-02  1.00462105E-01  2.52145048E-01  2.47505689E-01 -9.99573531E-01
 -9.73942324E-01 -9.51125114E-01  6.27683556E-03  3.50019703E-03 -5.39756202E-02
  8.31952458E-02  1.81595526E-01 -1.21188359E-01  1.09167268E+00  1.26024635E-01
 -2.10492854E-01 -9.00013413E-02  6.12504258E-01 -1.21468881E-02  6.75806293E-02
 -1.14642764E-01  5.68816525E-02 -4.88785288E-02 -2.51459416E-01  5.28187591E-01
 -3.84616861E-02 -2.81159073E-02 -2.39094967E-01  3.57985527E-02 -3.31485455E-01
 -3.37458005E-01 -2.70521902E-01  1.82888201E-02  4.50358039E-02 -2.37102099E-02
  5.60233864E-02 -2.14566202E-01  4.01612664E-02 -2.73587514E-01  9.00013413E-02
 -6.12504258E-01 -1.21468881E-02  6.75806293E-02  1.14642764E-01 -5.68816525E-02
 -4.88785288E-02 -2.51459416E-01 -5.28187591E-01  3.84616861E-02 -2.81159073E-02
 -2.39094967E-01 -3.57985527E-02  3.31485455E-01  3.37458005E-01  2.70521902E-01
 -1.82888201E-02  4.50358039E-02 -2.37102099E-02 -5.60233864E-02  2.14566202E-01
 -4.01612664E-02  2.73587514E-01  2.65999848E-01 -2.09076720E+00 -5.63961645E-02
 -1.26713825E-02  1.15020042E-01 -2.24801275E-02  2.59713836E-01 -7.88891189E-02
 -7.32731124E-01  3.24326487E-02  1.00462105E-01  2.52145048E-01 -2.47505689E-01
  9.99573531E-01  9.73942324E-01  9.51125114E-01 -6.27683556E-03  3.50019703E-03
 -5.39756202E-02 -8.31952458E-02 -1.81595526E-01 -1.26024635E-01  2.10492854E-01
  1.21188359E-01 -1.09167268E+00  6.44853693E-02 -1.03214780E+00 -8.21966913E-02
  5.19814200E-02 -7.49391350E-02  3.59399146E-01  4.20370513E-01 -2.65491371E-01
  8.35274321E-01 -1.92872290E-01 -2.10690033E-01  3.43488809E-01 -1.32588642E-01
  3.34471350E-01  3.09783993E-01  4.70979098E-01  8.10474081E-04  1.50733609E-02
 -1.56667045E-01 -6.53807105E-02  3.86207390E-01 -9.91438524E-02  5.40751853E-01
 -1.76902119E-01  2.10011573E-01 -2.16064369E-01  1.55038485E+00  3.40146445E-02
  1.67063380E-01  2.20448938E-01  2.59410814E-01 -2.14675758E-01 -1.12965100E+00
 -5.58024859E-01 -7.54494584E-02  4.69329266E-02 -4.34007420E-01  5.63525698E-01
 -7.66843512E-01 -9.44690774E-01 -8.99772435E-01  3.34753055E-02 -1.79862008E-02
  7.77573503E-02  1.52015742E-01 -9.90496493E-01  2.46950072E-02  1.03358456E+00
  2.16064369E-01 -1.55038485E+00  3.40146445E-02  1.67063380E-01 -2.20448938E-01
 -2.59410814E-01 -2.14675758E-01 -1.12965100E+00  5.58024859E-01  7.54494584E-02
  4.69329266E-02 -4.34007420E-01 -5.63525698E-01  7.66843512E-01  9.44690774E-01
  8.99772435E-01 -3.34753055E-02 -1.79862008E-02  7.77573503E-02 -1.52015742E-01
  9.90496493E-01 -2.46950072E-02 -1.03358456E+00 -6.44853693E-02  1.03214780E+00
 -8.21966913E-02  5.19814200E-02  7.49391350E-02 -3.59399146E-01  4.20370513E-01
 -2.65491371E-01 -8.35274321E-01  1.92872290E-01 -2.10690033E-01  3.43488809E-01
  1.32588642E-01 -3.34471350E-01 -3.09783993E-01 -4.70979098E-01 -8.10474081E-04
  1.50733609E-02 -1.56667045E-01  6.53807105E-02 -3.86207390E-01  1.76902119E-01
 -2.10011573E-01  9.91438524E-02 -5.40751853E-01 -1.07451747E-01  4.90324122E-01
 -2.49699303E-03  1.35019184E-01 -7.39717534E-02  3.37852157E-01 -1.44015266E-01
 -8.76914038E-02  1.98913933E-01 -2.23057151E-01 -2.38733860E-01  6.14298333E-01
  2.06926670E-01 -3.19841797E-01 -4.71370111E-01 -3.62074148E-01 -1.05198048E-02
 -2.80847177E-02  3.51675810E-02  2.86360980E-03  3.39233294E-02  4.63269352E-02
 -8.30030804E-02 -1.34093955E-01  5.65470580E-01  1.52888823E-01 -1.42155950E+00
  1.55779377E-02  1.14187115E-01  2.03086542E-01  8.25486591E-02  7.13837191E-01
 -1.13756701E+00 -1.22873003E+00 -8.98234656E-02  1.26484298E-01 -7.38250579E-01
  4.66290635E-02  7.78855055E-01  6.83317395E-01  6.18569332E-01 -1.74967182E-01
 -9.18914169E-02 -5.29684657E-02 -2.49580729E-02 -1.52613051E-01 -2.33755212E-01
  1.87408565E+00 -1.52888823E-01  1.42155950E+00  1.55779377E-02  1.14187115E-01
 -2.03086542E-01 -8.25486591E-02  7.13837191E-01 -1.13756701E+00  1.22873003E+00
  8.98234656E-02  1.26484298E-01 -7.38250579E-01 -4.66290635E-02 -7.78855055E-01
 -6.83317395E-01 -6.18569332E-01  1.74967182E-01 -9.18914169E-02 -5.29684657E-02
  2.49580729E-02  1.52613051E-01  2.33755212E-01 -1.87408565E+00  1.07451747E-01
 -4.90324122E-01 -2.49699303E-03  1.35019184E-01  7.39717534E-02 -3.37852157E-01
 -1.44015266E-01 -8.76914038E-02 -1.98913933E-01  2.23057151E-01 -2.38733860E-01
  6.14298333E-01 -2.06926670E-01  3.19841797E-01  4.71370111E-01  3.62074148E-01
  1.05198048E-02 -2.80847177E-02  3.51675810E-02 -2.86360980E-03 -3.39233294E-02
  1.34093955E-01 -5.65470580E-01 -4.63269352E-02  8.30030804E-02  6.86382885E-02
 -1.99923270E-01  2.46379680E-01 -5.93917501E-02  1.03939440E-01 -2.66818391E-01
 -1.19898954E+00 -8.38416873E-02 -2.62591288E-01 -9.08098375E-03 -2.09978768E-01
  1.22148331E+00  1.47528301E+00  1.86693283E-01  2.61657500E-01  2.28986438E-01
 -2.72286632E-02 -1.85536267E-02  2.69017294E-02  1.69629670E-01 -1.17444180E+00
 -1.75250221E-01  3.05176224E-01 -5.19116342E-02  1.16932245E+00 -2.96387136E-02
  3.16500227E-01 -6.28777757E-04 -4.38532141E-02 -1.85544847E-01  1.34850397E-01
  1.40754499E-02  3.98492524E-01  9.48773492E-01 -2.35005839E-01 -7.40621146E-03
 -1.14987415E+00 -1.41612570E+00 -2.04798977E-01 -1.22386605E-01 -1.13503199E-01
  3.85415484E-02  1.73108620E-02  3.90965909E-02  1.96460005E-01 -4.36447162E-01
 -2.76018497E-01  7.18705676E-02  2.96387136E-02 -3.16500227E-01 -6.28777757E-04
 -4.38532141E-02  1.85544847E-01 -1.34850397E-01  1.40754499E-02  3.98492524E-01
 -9.48773492E-01  2.35005839E-01 -7.40621146E-03 -1.14987415E+00  1.41612570E+00
  2.04798977E-01  1.22386605E-01  1.13503199E-01 -3.85415484E-02  1.73108620E-02
  3.90965909E-02 -1.96460005E-01  4.36447162E-01  2.76018497E-01 -7.18705676E-02
 -6.86382885E-02  1.99923270E-01  2.46379680E-01 -5.93917501E-02 -1.03939440E-01
  2.66818391E-01 -1.19898954E+00 -8.38416873E-02  2.62591288E-01  9.08098375E-03
 -2.09978768E-01  1.22148331E+00 -1.47528301E+00 -1.86693283E-01 -2.61657500E-01
 -2.28986438E-01  2.72286632E-02 -1.85536267E-02  2.69017294E-02 -1.69629670E-01
  1.17444180E+00  5.19116342E-02 -1.16932245E+00  1.75250221E-01 -3.05176224E-01
  1.21255470E-01 -3.61561714E-01  2.78267230E-02  4.67513556E-02 -7.40532436E-02
 -7.15031450E-01 -4.48926409E-01 -8.54202358E-01  1.16406355E+00  3.65911817E-01
  6.06228938E-01 -6.37607328E-01 -8.54927497E-02  3.32929456E-01  4.53129405E-01
  4.76787953E-01 -8.92964723E-03 -9.08536285E-02 -1.02996517E-01 -2.55523303E-01
  1.02793666E+00 -9.72359193E-02  7.68359568E-01  4.89759753E-02  5.31991983E-01
  6.05869205E-02 -1.25833456E-01 -1.94986956E-01  3.77698897E-02 -1.47302671E-01
 -3.82639770E-01  1.82614382E+00 -1.26960162E+00  1.42705627E+00  1.73783744E-01
 -1.46746459E-01  2.26813988E-01 -4.30599125E-01  3.22994379E-01  2.18060165E-01
  4.90564495E-02 -1.70767965E-01  3.10605793E-02  1.42268605E-01 -7.38588105E-02
  1.05356525E+00 -8.33957775E-02 -1.56443484E-01 -6.05869205E-02  1.25833456E-01
 -1.94986956E-01  3.77698897E-02  1.47302671E-01  3.82639770E-01  1.82614382E+00
 -1.26960162E+00 -1.42705627E+00 -1.73783744E-01 -1.46746459E-01  2.26813988E-01
  4.30599125E-01 -3.22994379E-01 -2.18060165E-01 -4.90564495E-02  1.70767965E-01
  3.10605793E-02  1.42268605E-01  7.38588105E-02 -1.05356525E+00  8.33957775E-02
  1.56443484E-01 -1.21255470E-01  3.61561714E-01  2.78267230E-02  4.67513556E-02
  7.40532436E-02  7.15031450E-01 -4.48926409E-01 -8.54202358E-01 -1.16406355E+00
 -3.65911817E-01  6.06228938E-01 -6.37607328E-01  8.54927497E-02 -3.32929456E-01
 -4.53129405E-01 -4.76787953E-01  8.92964723E-03 -9.08536285E-02 -1.02996517E-01
  2.55523303E-01 -1.02793666E+00 -4.89759753E-02 -5.31991983E-01  9.72359193E-02
 -7.68359568E-01 -8.01953412E-02 -1.99046550E-01  2.01836788E-01 -3.09211797E-02
 -1.81460164E-02  1.84868200E+00 -1.40897126E+00 -1.61986890E-01  1.97673287E-01
 -1.10211648E+00 -1.92965249E+00  8.78811566E-01 -6.37304807E-01 -2.21616857E-01
 -1.29075415E-01 -1.69809718E-01 -2.88332405E-02 -7.72851661E-02 -1.17947534E-02
 -5.09730547E-02 -9.49351981E-01 -2.11951177E-02 -1.80616516E-01 -9.96944789E-02
  1.25902045E+00 -3.87670091E-02 -9.68453031E-02 -9.16576766E-02 -1.08118813E-01
 -1.09484157E-01  9.23326481E-01  1.11490519E+00  5.85721102E-02  1.17160939E+00
 -3.54976341E-01  1.47265986E+00 -3.24562030E-02  3.51206488E+00 -9.77434889E-02
 -5.09928216E-02 -1.03762417E-01 -3.20841320E-02  4.06029115E-03  3.89619872E-02
 -1.12184000E-01  1.22264404E+00  4.21151199E-02 -1.23114921E+00  3.87670091E-02
  9.68453031E-02 -9.16576766E-02 -1.08118813E-01  1.09484157E-01 -9.23326481E-01
  1.11490519E+00  5.85721102E-02 -1.17160939E+00  3.54976341E-01  1.47265986E+00
 -3.24562030E-02 -3.51206488E+00  9.77434889E-02  5.09928216E-02  1.03762417E-01
  3.20841320E-02  4.06029115E-03  3.89619872E-02  1.12184000E-01 -1.22264404E+00
 -4.21151199E-02  1.23114921E+00  8.01953412E-02  1.99046550E-01  2.01836788E-01
 -3.09211797E-02  1.81460164E-02 -1.84868200E+00 -1.40897126E+00 -1.61986890E-01
 -1.97673287E-01  1.10211648E+00 -1.92965249E+00  8.78811566E-01  6.37304807E-01
  2.21616857E-01  1.29075415E-01  1.69809718E-01  2.88332405E-02 -7.72851661E-02
 -1.17947534E-02  5.09730547E-02  9.49351981E-01  9.96944789E-02 -1.25902045E+00
  2.11951177E-02  1.80616516E-01 -1.87097548E-01 -4.82759032E-01 -1.23711411E-02
 -1.60990326E-02  6.27253788E-02  4.95666651E+00 -7.32140428E-02 -1.40187558E-01
  1.30942515E-01  9.30730156E-01  1.02075147E+00 -5.76320524E-01  5.26853876E-02
 -4.42172954E-01 -4.02271090E-01 -3.43892968E-01 -2.29079884E-03 -3.87496795E-02
 -7.01667169E-02 -2.22763601E-02 -1.39638061E+00  6.34966044E-02 -1.75256096E+00
  1.33945977E-01 -1.90184659E+00 -6.88029559E-02 -2.20546675E-01 -1.74705769E-02
  9.63507144E-02 -6.54344316E-02  1.76421876E+00  1.08462954E+00 -1.89993439E+00
  1.42999634E+00  4.02401209E-01 -1.02704865E+00  6.85977865E-01 -2.11998066E+00
 -1.99303895E-02 -1.40698797E-01 -2.24488777E-01 -1.25374612E-01  4.52629930E-02
  8.49092110E-02  1.06976997E-01 -1.05404822E+00 -6.06517475E-02 -5.10016851E-01
  6.88029559E-02  2.20546675E-01 -1.74705769E-02  9.63507144E-02  6.54344316E-02
 -1.76421876E+00  1.08462954E+00 -1.89993439E+00 -1.42999634E+00 -4.02401209E-01
 -1.02704865E+00  6.85977865E-01  2.11998066E+00  1.99303895E-02  1.40698797E-01
  2.24488777E-01  1.25374612E-01  4.52629930E-02  8.49092110E-02 -1.06976997E-01
  1.05404822E+00  6.06517475E-02  5.10016851E-01  1.87097548E-01  4.82759032E-01
 -1.23711411E-02 -1.60990326E-02 -6.27253788E-02 -4.95666651E+00 -7.32140428E-02
 -1.40187558E-01 -1.30942515E-01 -9.30730156E-01  1.02075147E+00 -5.76320524E-01
 -5.26853876E-02  4.42172954E-01  4.02271090E-01  3.43892968E-01  2.29079884E-03
 -3.87496795E-02 -7.01667169E-02  2.22763601E-02  1.39638061E+00 -1.33945977E-01
  1.90184659E+00 -6.34966044E-02  1.75256096E+00  1.04053526E-01  3.91385167E-01
 -6.59298891E-02  7.59266079E-02 -4.50667972E-02 -3.87381725E+00  7.36491316E-02
  8.70043157E-01 -1.13626900E+00  2.93903231E-01  3.10493971E-01 -5.42326320E-01
  1.26464291E-01  2.45957550E-01  1.15393365E-01  1.09999534E-01 -1.14010683E-02
 -5.44188492E-02  1.00285078E-01  4.43986874E-02  6.60892828E-01  1.40635486E-01
  1.54792239E-01  7.77112522E-02  2.61996270E-01 -2.92904110E-01 -1.08662017E+00
  2.55033341E-02 -3.11553718E-02 -2.60514478E-02  9.26496789E+00  1.55581171E+00
 -7.09924574E-01 -9.18832920E-01 -1.83427357E-01 -5.12376802E-01  3.00822293E-01
  2.19907311E-01 -4.47317306E-01 -4.22635487E-01 -5.10155140E-01 -1.62076977E-01
 -5.04887858E-02 -9.50741392E-02 -1.90259987E-01 -1.21400900E+00 -1.54164143E-01
 -1.31636096E+00  2.92904110E-01  1.08662017E+00  2.55033341E-02 -3.11553718E-02
  2.60514478E-02 -9.26496789E+00  1.55581171E+00 -7.09924574E-01  9.18832920E-01
  1.83427357E-01 -5.12376802E-01  3.00822293E-01 -2.19907311E-01  4.47317306E-01
  4.22635487E-01  5.10155140E-01  1.62076977E-01 -5.04887858E-02 -9.50741392E-02
  1.90259987E-01  1.21400900E+00  1.54164143E-01  1.31636096E+00 -1.04053526E-01
 -3.91385167E-01 -6.59298891E-02  7.59266079E-02  4.50667972E-02  3.87381725E+00
  7.36491316E-02  8.70043157E-01  1.13626900E+00 -2.93903231E-01  3.10493971E-01
 -5.42326320E-01 -1.26464291E-01 -2.45957550E-01 -1.15393365E-01 -1.09999534E-01
  1.14010683E-02 -5.44188492E-02  1.00285078E-01 -4.43986874E-02 -6.60892828E-01
 -7.77112522E-02 -2.61996270E-01 -1.40635486E-01 -1.54792239E-01  9.73814278E-03
  7.15830344E-02 -4.67822652E-02  4.85330092E-02  3.52481004E-02 -8.11240247E-02
  4.35174561E-01  4.67341439E-02 -6.08918639E-01  2.38712830E+01 -8.73368860E-01
 -4.34427354E+00  5.15830309E+00 -3.25890094E-03 -3.08958775E-03 -4.52552064E-04
  9.80211383E-03  1.08167074E-02  2.27155028E-02  1.33141794E-01 -5.64839057E-01
  1.39602149E-01 -1.29474737E+00  1.49033907E-01 -1.38776913E+00  4.78580518E-03
  2.48992496E-02  2.75586308E-02 -1.55954360E-02  6.59432206E-02 -2.49939325E-01
 -4.68757290E-01  3.45934813E-01 -4.67892666E-01  1.03172337E+01  8.63701891E+00
 -1.08492986E+01  7.24941263E+00 -2.36512755E-02  1.65207530E-02  1.75980741E-02
  2.21906340E-02 -5.09090489E-03 -2.16162209E-02  1.36652369E-02 -3.42190648E-01
  1.11722990E-01 -3.96390348E-01 -4.78580518E-03 -2.48992496E-02  2.75586308E-02
 -1.55954360E-02 -6.59432206E-02  2.49939325E-01 -4.68757290E-01  3.45934813E-01
  4.67892666E-01 -1.03172337E+01  8.63701891E+00 -1.08492986E+01 -7.24941263E+00
  2.36512755E-02 -1.65207530E-02 -1.75980741E-02 -2.21906340E-02 -5.09090489E-03
 -2.16162209E-02 -1.36652369E-02  3.42190648E-01 -1.11722990E-01  3.96390348E-01
 -9.73814278E-03 -7.15830344E-02 -4.67822652E-02  4.85330092E-02 -3.52481004E-02
  8.11240247E-02  4.35174561E-01  4.67341439E-02  6.08918639E-01 -2.38712830E+01
 -8.73368860E-01 -4.34427354E+00 -5.15830309E+00  3.25890094E-03  3.08958775E-03
  4.52552064E-04 -9.80211383E-03  1.08167074E-02  2.27155028E-02 -1.33141794E-01
  5.64839057E-01 -1.49033907E-01  1.38776913E+00 -1.39602149E-01  1.29474737E+00
  3.02551362E-02  8.48676277E-02 -3.47235025E-02  7.39234205E-02  5.19715863E-02
 -1.08708855E+00  2.70422777E-01 -5.39083029E-01 -4.26793374E-01 -2.10555759E+01
 -5.25082229E-02  4.40678271E+00 -4.22777674E+00  4.67399197E-02  6.23358253E-02
  7.15301907E-02  9.13330258E-03  1.67322007E-02  1.21798231E-02 -5.50649691E-02
  1.12516449E+00 -3.81246288E-02 -3.76303995E-02 -6.41623612E-02  7.14965152E-01
 -3.57156341E-02 -1.09177913E-01  4.06055180E-02  1.02662646E-03 -7.60685812E-02
  1.61880302E+00 -2.92446093E-01  1.20610982E-01  6.99120922E-01  4.93706729E+01
  6.59793873E+00 -2.06560707E+00 -6.18061778E+00 -7.63638120E-02 -3.41278851E-02
 -8.39012463E-02 -1.38966549E-04  4.28212311E-02  4.52567561E-03  1.48889138E-01
 -1.64888202E+00  1.02457650E-01 -1.76590081E+00  3.57156341E-02  1.09177913E-01
  4.06055180E-02  1.02662646E-03  7.60685812E-02 -1.61880302E+00 -2.92446093E-01
  1.20610982E-01 -6.99120922E-01 -4.93706729E+01  6.59793873E+00 -2.06560707E+00
  6.18061778E+00  7.63638120E-02  3.41278851E-02  8.39012463E-02  1.38966549E-04
  4.28212311E-02  4.52567561E-03 -1.48889138E-01  1.64888202E+00 -1.02457650E-01
  1.76590081E+00 -3.02551362E-02 -8.48676277E-02 -3.47235025E-02  7.39234205E-02
 -5.19715863E-02  1.08708855E+00  2.70422777E-01 -5.39083029E-01  4.26793374E-01
  2.10555759E+01 -5.25082229E-02  4.40678271E+00  4.22777674E+00 -4.67399197E-02
 -6.23358253E-02 -7.15301907E-02 -9.13330258E-03  1.67322007E-02  1.21798231E-02
  5.50649691E-02 -1.12516449E+00  6.41623612E-02 -7.14965152E-01  3.81246288E-02
  3.76303995E-02
Total SCF Density                          R   N=        4656
  2.05294759E+00 -5.74299745E-02  2.82148483E-01  1.31345870E-04 -9.14227538E-04
  3.99351124E-01 -1.45686270E-03 -1.08790592E-03 -6.28786033E-04  3.91752207E-01
  1.83268143E-03  2.08561776E-03  1.36702369E-03  1.04790772E-02  3.89702115E-01
 -1.89900048E-01  2.87572146E-01  3.99749705E-03  8.25837405E-03 -1.18069617E-02
  3.10443417E-01 -1.13835205E-03  1.35211613E-03  2.06875958E-01 -1.70152043E-03
 -1.51755779E-03  4.47129691E-03  1.07966195E-01  1.52607987E-03 -6.52747480E-04
 -3.42143280E-03  1.96446198E-01  1.41753769E-02  2.55439675E-04 -2.78173639E-03
  1.00616248E-01 -5.41087747E-04 -2.17530690E-04  7.05940390E-04  1.26988176E-02
  1.90724794E-01 -2.94884961E-03 -4.79639877E-04  9.16476420E-03  9.56993838E-02
 -6.36369194E-02  8.62605289E-02  3.20290869E-02  5.05740742E-02 -9.01976641E-02
  1.06290647E-01  1.81339637E-02  1.74701366E-02 -3.86254919E-02  7.77149264E-02
 -1.08700233E-03  7.61004034E-04  3.50453353E-02 -2.86811999E-03  9.02781312E-04
  1.81849168E-03  1.88635226E-02 -2.09747717E-03  8.80623473E-04  3.23494681E-03
  4.05720638E-03  1.08128196E-02 -1.60990109E-02 -9.68958981E-03  2.36911892E-02
  1.75124519E-02 -1.95521235E-02 -5.53091854E-03  1.39651745E-02  8.06676227E-03
 -1.18370058E-02 -1.34794782E-03  5.06455472E-03 -1.19649149E-02  1.74239296E-02
  5.63781041E-03  1.26331784E-02  1.09436034E-02  2.10390928E-02  3.10983117E-03
  5.27855647E-03  7.12256893E-03  9.49599157E-03  7.77660151E-04 -8.04676709E-04
  3.22798068E-03 -1.63743827E-02  9.05497164E-04  7.82760666E-03  1.96112009E-02
  1.57745404E-03  2.52170319E-03  3.97574887E-03  9.79662021E-03  1.27182419E-03
  3.57784804E-03  6.01254783E-04  9.87529503E-04  9.92724248E-04  1.30872308E-03
 -1.54343218E-02 -9.56732501E-04 -5.02356131E-03  4.08928784E-03  1.63986832E-03
 -1.33646287E-04 -2.65855948E-03  2.37777537E-03  9.19109499E-04 -7.71898523E-04
 -5.28645326E-04  7.99939135E-04  1.30801199E-04  2.72560548E-04  3.82164465E-04
 -1.49190800E-02 -2.05778553E-03 -3.10306297E-03 -1.84249069E-02 -9.27076082E-03
 -1.64065855E-03 -1.46886377E-03 -9.49141913E-03 -5.26515781E-03 -1.03291601E-03
 -1.57602414E-04 -1.60584164E-03 -1.26836041E-03 -9.85804312E-04 -2.43374181E-04
  1.53470748E-03  2.83588456E-05 -1.25960307E-04  2.47285432E-02 -5.63080743E-03
 -4.32806942E-03  8.35621941E-05  1.30583041E-02 -3.09653733E-03 -2.19511035E-03
  1.95388158E-03  2.58182137E-03 -1.11014462E-03  3.44681948E-05  2.25097683E-04
 -4.07854513E-04  1.72862679E-04  1.85866072E-03 -9.91178759E-05  2.03567984E-04
 -1.15082366E-03 -4.43216165E-03 -3.44712815E-03  3.18659164E-04 -7.56565208E-04
 -2.31934839E-03 -1.81146775E-03  4.29439347E-04 -3.87102463E-04 -4.32745402E-04
 -2.44567462E-04 -2.82489988E-04 -4.65096114E-05  3.13168816E-04 -1.25916377E-04
  2.07248799E-04 -1.34411951E-03  2.67962460E-03 -4.36967517E-03 -1.23431294E-03
 -1.88251243E-02  3.92986308E-03 -2.09818599E-03 -1.39676917E-03 -8.96594166E-03
  5.83504930E-03 -3.47965267E-04 -1.33479453E-03 -2.35928268E-04 -1.95368740E-04
 -1.33951912E-04  5.62742730E-04 -5.39334567E-05  2.00976689E-04  1.09684736E-03
 -5.23828304E-02  9.83116007E-02 -1.91216280E-01  1.75312266E-01  2.63057569E-02
  1.03431924E-01 -9.95818754E-02  9.01242837E-02  1.59116198E-02  3.29333643E-02
 -1.84712538E-02  1.09532209E-02  9.90762093E-03  5.68938614E-03  4.50253139E-03
 -8.05910322E-03 -1.50024955E-02 -1.27075319E-03  1.30355566E-03  2.06902633E-01
 -2.68638329E-03  1.70590827E-02 -1.47264053E-01  1.30573902E-01  2.37737990E-02
  1.83662656E-02 -7.74371324E-02  6.74678837E-02  1.43472840E-02  5.82197224E-03
 -1.52646259E-02  1.22230732E-02  4.19406423E-03  3.77198139E-03  3.75344088E-03
 -6.22819639E-03 -1.20381982E-02 -6.55157849E-04  1.38642357E-04  1.38206959E-01
  1.04743161E-01 -5.23623762E-02  9.74439089E-02 -3.72815672E-02 -1.35026608E-01
 -2.20315956E-01  1.05901997E-01 -1.67557769E-02 -7.32226848E-02 -1.10907392E-01
  6.29095491E-02 -2.34879512E-03 -2.33827309E-02 -4.76857814E-03 -7.67078745E-03
 -2.32362256E-03  1.16639755E-02  1.93948396E-03  3.62452956E-03  1.25198311E-02
 -2.08856629E-02 -3.80563691E-02  2.06686365E-01 -8.71381655E-04  1.34216621E-02
 -3.39798279E-02 -1.09219976E-01 -1.66283462E-01  1.66014867E-02 -1.59868091E-02
 -5.94965588E-02 -8.40993711E-02  2.80067761E-02 -2.49007690E-03 -1.55198297E-02
 -8.18617584E-03 -6.93131117E-03 -2.30817835E-03  1.02482845E-02  1.13515746E-03
  2.91912698E-03  9.26193714E-03 -3.83871346E-02 -3.40704249E-02  1.39485969E-01
  1.08697322E-01 -5.20183966E-02  9.68860330E-02  2.28405313E-01  1.23934275E-01
 -1.17402008E-02  1.06581235E-01  1.19061982E-01  6.02606815E-02 -3.59743281E-03
  6.75875337E-02  2.02919899E-02 -3.97169072E-03  1.30235583E-02  1.14075482E-02
 -1.59906678E-03 -7.99690218E-03  1.30037141E-02 -2.25645756E-03 -1.28889883E-03
 -2.08196829E-02 -3.92236767E-02 -2.15065238E-02 -4.41645584E-02  2.06591238E-01
 -5.31944243E-04  1.22688058E-02  1.74513474E-01  9.65975516E-02 -2.68147599E-03
  1.55428205E-02  9.07584078E-02  4.77958482E-02  7.07799768E-04  2.85247174E-02
  1.62516935E-02  1.77519542E-03  6.29952939E-03  8.65438156E-03 -9.59224092E-04
 -6.48432460E-03  1.04685209E-02 -2.33655913E-03 -2.10423826E-03 -3.73624040E-02
 -3.44113598E-02 -4.35640349E-02 -4.22177091E-02  1.38291639E-01  1.07478538E-01
  1.04718075E-02 -1.99910747E-02 -6.76820080E-04  3.98916674E-02 -4.84308077E-02
  9.64035892E-03 -2.35558339E-04  7.65745710E-03 -8.93812224E-03  3.66857006E-02
  1.98849481E-04 -5.15407182E-03  6.19948400E-03  2.11710237E-03 -8.16798228E-04
 -2.91376001E-03 -9.27304243E-05  2.19239065E-05  4.39806065E-03  7.85450345E-03
  9.09150409E-03  6.58276501E-03  8.37540187E-03  6.95085861E-03  9.18023724E-03
  2.05326140E+00 -1.93023267E-02  3.28370175E-02  4.72563633E-04 -7.92356486E-02
  9.89566711E-02  4.02978913E-04 -7.58101750E-05 -2.24971253E-02  2.85908600E-02
 -7.27676526E-02 -1.74487220E-03  1.06765698E-02 -1.22672470E-02 -4.82146410E-03
  8.20168048E-04  4.17367272E-03 -8.16709877E-05  2.14416209E-04 -8.21096369E-03
 -1.72472103E-02 -1.80487879E-02 -1.75449442E-02 -1.87133161E-02 -1.75847498E-02
 -2.00382360E-02 -5.79747852E-02  2.86819656E-01 -2.77527518E-03  5.63968593E-03
  4.04015500E-03 -5.57676439E-03  1.67936543E-03  1.57684321E-02 -7.93935128E-03
 -5.67196940E-03  1.04133690E-03  1.78702251E-02 -1.61325254E-02 -3.02200199E-03
  1.35510486E-03 -1.72142011E-03  2.29294682E-04  6.25726115E-04 -8.35708718E-03
  6.94772621E-03  6.09904931E-04  1.39148151E-02  3.02660671E-02  5.38458730E-03
  8.40998655E-03 -1.94358233E-02 -4.34975031E-02  1.94120941E-03  2.40718890E-03
  3.88982056E-01 -3.82597948E-02  7.61698998E-02 -1.34634882E-03 -1.14325963E-01
  1.50426756E-01  7.60590431E-02  6.27780687E-04 -6.55685956E-02  7.05823909E-02
 -4.39034404E-04  3.10809301E-03 -2.03805886E-02  5.11807147E-03 -6.66824510E-03
 -6.86539980E-03  8.94055313E-03  1.63116234E-04  4.68109901E-04 -1.83533932E-03
 -2.57804252E-02 -4.43066325E-02 -7.99944246E-04  9.45002543E-03 -2.38720702E-02
 -4.36454373E-02  7.65857816E-04 -1.26547599E-03  8.89114900E-03  3.86614066E-01
  5.16923446E-02 -1.04195112E-01  1.08916273E-03  1.53737626E-01 -1.93296027E-01
 -1.07326018E-01  1.53997168E-03  7.18252163E-02 -1.01455764E-01  2.71593400E-02
 -1.39902285E-03  1.93054925E-03 -1.52966542E-02  4.29342126E-03 -3.14264823E-03
  5.30497242E-03  3.20782875E-04  2.78975233E-04  9.02572280E-03  1.29167887E-02
  1.91275003E-02  3.51474066E-02  6.44986348E-02  1.58758367E-02  2.37933037E-02
 -3.31733718E-03  1.73719766E-04  1.20264813E-03  1.12262614E-02  3.86786592E-01
  5.49926922E-03  5.41734462E-03  2.80130304E-03 -8.99232005E-02  8.61115993E-02
 -3.21359844E-02  8.25271984E-04 -2.64605370E-02  1.96913938E-02 -8.27315805E-02
 -1.75139487E-03  1.16592329E-02 -1.60075302E-02 -5.61255271E-03  4.70992023E-04
  5.41309051E-03  6.77855300E-04  2.51813821E-04 -8.10118589E-03 -3.45335494E-02
 -2.66752804E-02 -1.71950154E-02 -1.19334958E-02 -2.84729218E-02 -2.15317342E-02
 -1.93452255E-01  2.86611271E-01 -1.34924143E-02 -6.34790609E-03  2.05952793E-02
  3.08253042E-01 -3.11072512E-03  3.97169351E-03 -4.38304370E-03 -9.20203148E-03
 -1.61512380E-03  9.43243390E-03 -7.46950448E-03 -6.12172170E-03 -1.00046818E-03
  9.42891938E-03 -8.70719095E-03 -2.13882587E-03  4.01286031E-04 -1.33000568E-03
 -1.48558015E-05  8.86798035E-04 -4.38270084E-03  3.59586982E-03  5.83412107E-04
  7.07033219E-03  1.44664301E-02  7.31497198E-03  8.06911257E-03 -1.50450800E-02
 -2.61230535E-02 -3.56425582E-04 -3.46559191E-04  1.92230435E-01  1.15855183E-02
  1.99888455E-03 -4.29533647E-03  9.74069787E-02 -7.17669002E-03  2.18521020E-02
 -4.51413691E-03 -5.51590232E-02  7.08255892E-02  2.07447668E-02 -1.93817561E-03
 -3.17012306E-02  3.31850390E-02 -5.45855161E-03  8.35240082E-04 -9.13731963E-03
  1.12035788E-03 -3.50022504E-03 -3.39955011E-03  4.64303207E-03 -3.36529282E-04
  3.92635586E-04 -8.07120924E-04 -1.58764993E-02 -2.06793433E-02 -3.75820872E-03
  6.16029197E-03 -1.95751370E-02 -2.47852767E-02  1.38504997E-03 -1.96152977E-03
  1.35257934E-02  1.87150188E-01  1.65011649E-02 -5.39950089E-03  8.99778359E-03
  9.28780218E-02  1.21075533E-02 -3.40539322E-02  6.48566270E-03  7.08366363E-02
 -1.00529653E-01 -3.40355373E-02  4.32042611E-03  3.22294191E-02 -5.26879332E-02
  2.14381819E-02  1.75685416E-05 -1.30758838E-03 -6.53481124E-03  2.03246510E-03
 -1.82074925E-03  3.03835104E-03  5.84569454E-04  2.69702049E-04  4.93162351E-03
  7.10996029E-03  6.38345066E-03  2.80566404E-02  3.66494657E-02  1.57087077E-02
  1.30539905E-02  4.54068221E-04  8.42198687E-04  3.32124485E-03  1.60861504E-02
  1.89059062E-01  9.07142986E-03  2.26984146E-03  1.23825316E-02  9.42668026E-02
  5.46113538E-02 -4.90770538E-02  1.60482101E-02 -8.25082558E-02  4.11513632E-02
 -7.59184597E-02  7.56764105E-03 -3.02741182E-02  7.18823180E-03 -6.68790874E-02
  1.39431093E-03  7.22323228E-03 -1.33320446E-02 -4.52930187E-03 -6.01325042E-04
  4.28092391E-03  2.91851950E-03 -3.10172559E-04 -4.57176201E-03 -6.20426822E-02
 -3.95012991E-02 -1.65309845E-02 -4.99420279E-04 -3.36241780E-02 -9.55676275E-03
 -7.31929032E-02  1.31510875E-01 -5.85506966E-02 -1.78166938E-03  6.46439964E-03
  1.57286780E-01 -2.41183304E-02 -1.86255353E-03 -1.40498563E-03  1.14976846E-01
  4.61115702E-04  6.73020974E-03 -3.81960046E-03 -1.26620332E-02 -5.09254043E-03
  5.70738894E-03 -2.80024255E-03 -5.62165163E-03 -4.17287380E-03  2.42298981E-04
 -1.86826776E-03 -8.69470772E-04 -1.08788775E-03 -9.55224612E-04 -1.44522758E-04
  1.02580839E-03 -6.71543784E-04  7.78281966E-04  2.41218310E-04 -6.78843094E-04
 -5.26744684E-04  9.97498212E-03  7.22878890E-03 -5.63292485E-03 -8.27178935E-03
 -6.90696353E-03  1.49016573E-02  2.99101334E-02  4.26298047E-03  3.56114182E-03
  1.73089681E-02  1.66106930E-02  1.73400081E-03  2.36979445E-03  6.95572224E-03
  5.06114110E-03  7.66394161E-03 -1.31646445E-02 -1.16033985E-02 -2.01667240E-02
  2.41923164E-02 -1.45471902E-02 -5.77726886E-03 -1.04776898E-02  1.17047736E-02
 -1.22283166E-02 -6.19864201E-04 -4.67192473E-04 -1.21646247E-03 -1.47107353E-03
 -5.02712256E-04  1.24164108E-03 -7.74266355E-04  1.19404454E-04 -6.92376381E-04
 -7.58566077E-03 -3.31091642E-03 -8.53930236E-03 -5.10191120E-04 -1.96661603E-02
 -1.33230597E-02 -2.73921778E-04  3.33245770E-03  5.15098607E-03  3.59484036E-02
 -5.51392313E-04  1.88191634E-03  1.92465739E-03  1.98848208E-02 -6.11673367E-04
  2.82695462E-03 -3.67407820E-04  7.54060358E-03 -1.10464981E-02  1.14669201E-02
  2.96311426E-03  1.81615017E-02 -4.35967493E-02  1.51245395E-02  2.01772338E-03
  6.74675080E-03 -2.11449539E-02  2.09770910E-02 -4.62579948E-05 -3.56452462E-03
  2.71878763E-04  6.99258862E-04 -6.44423012E-04  8.99803769E-04  1.92509992E-04
  3.79304556E-04  2.63823113E-03  7.73436952E-03  2.27566868E-03  2.42931290E-02
  1.80198234E-02  1.21058262E-02  3.79478558E-03  9.65130936E-03 -2.06000178E-02
  9.83859963E-03  9.58381832E-03  4.25731162E-02 -2.07342104E-02  5.20791014E-03
  4.96712434E-03  2.31624628E-02 -1.56430540E-02  1.13817282E-03 -1.61194044E-03
  1.03321354E-02  2.25766739E-03 -5.07758582E-03  2.53770200E-04  6.71964375E-03
 -4.97794792E-03 -5.94601036E-03  5.40140648E-05  3.88104405E-03 -2.36873763E-03
 -1.27393092E-03  1.65874615E-04  1.26752741E-03 -2.28930258E-04  4.78314625E-04
  3.40172728E-04 -5.85575309E-04  1.72927845E-04 -2.23351939E-04 -5.14339270E-05
  9.56082298E-04  1.72206994E-03 -2.30021942E-03 -2.19276934E-03  1.70203060E-03
  3.82511933E-03 -1.43517485E-02 -2.30315903E-03 -9.97115934E-03 -1.79701997E-02
 -2.09806365E-03 -9.57011107E-04 -5.55024001E-03 -8.78186433E-03 -1.78801215E-03
  9.50579893E-04 -1.40926455E-03 -1.80781332E-03 -1.02604769E-03  1.52485665E-03
 -1.11585793E-03  1.15935624E-03 -1.98971135E-04  7.00883262E-03  3.86708328E-03
  1.94451252E-03 -5.80328925E-06  3.41207120E-03  2.32568035E-03  1.06459408E-03
  3.62030214E-05  3.15715704E-04  5.53739173E-04  3.49532660E-04  7.84683241E-05
 -4.06300295E-04 -1.68501795E-04 -1.00266174E-04 -1.29003416E-04  3.84008773E-03
  2.66510595E-03 -3.92996900E-03 -3.23034895E-03  2.25406022E-03  1.29535988E-03
 -1.38148213E-02 -3.09589293E-03  1.05870860E-03  3.88554886E-04  1.47122520E-04
 -2.87218532E-03  3.91992598E-04  2.53753571E-04  3.69938019E-05 -2.84241980E-03
 -2.49982385E-04  2.00568869E-04  1.34447518E-04 -6.30010179E-05  4.57484982E-04
 -2.77483114E-03  4.14715843E-03 -5.40388865E-04 -8.89613612E-03 -4.37764141E-03
  4.69930976E-03 -9.35847905E-05 -5.24781813E-03 -2.40221624E-03  2.85788503E-03
  6.94606930E-05 -1.90094782E-03 -1.65274117E-04 -5.77981603E-04 -4.69718401E-04
  9.87257946E-04  1.00789583E-04  2.10733781E-04  5.31388965E-04 -3.02359683E-03
 -3.69132903E-03  8.09198595E-03  6.91122629E-03 -2.09887226E-03 -3.57015426E-03
 -1.42841068E-02 -2.29507124E-03  3.08793245E-03  1.82640766E-02  7.91983799E-03
 -1.06501936E-03  2.17732054E-03  8.93692652E-03  4.74180184E-03 -9.64728586E-04
  8.34809679E-04  1.45207621E-03  2.07277181E-03 -9.83382910E-04  2.41365034E-05
  1.45199344E-03  3.33902477E-04 -5.83734486E-04  8.62696637E-03  3.70539070E-05
 -4.06560344E-04 -1.59273888E-03  4.90730503E-03  3.36641017E-04 -5.34600262E-04
 -8.68255062E-04  1.51816399E-03  1.68058659E-04 -1.35892652E-04  2.45902170E-04
 -9.96811735E-05 -6.61116682E-05  9.90871936E-04 -3.77479227E-04 -1.80394772E-04
 -5.13742423E-03 -4.88455787E-03 -1.00213338E-03 -1.13043917E-03  5.95047847E-03
  6.21082453E-03 -1.43816849E-03  2.77170141E-03 -2.06012469E-02 -1.74427850E-03
  8.96508053E-04  4.32695656E-03 -1.00719539E-02 -1.64530074E-03  3.59101214E-04
  5.61520889E-03 -1.34323788E-03 -1.00014008E-03 -6.04135554E-04  6.21123172E-04
 -1.88314099E-04 -2.28418064E-04  1.42252177E-03 -1.16623624E-04  3.32332120E-04
 -6.74924764E-03 -7.78766064E-04  1.11145260E-04  7.15962037E-04 -3.55238013E-03
 -5.57066556E-04  2.18872136E-04 -8.46219767E-05 -5.46526670E-04 -2.87072151E-05
  1.90531444E-05 -1.75924063E-04  4.92832680E-05  1.08760897E-04 -3.97629120E-04
  3.49020326E-05  9.11983850E-05  2.94702604E-03  2.12274539E-03  1.01298397E-03
  8.59434383E-04 -4.02818608E-03 -3.13649087E-03  6.73297596E-05 -1.67247568E-05
  5.72492052E-04  1.00421865E-03  4.18223039E-04 -3.28737687E-04  4.54544697E-04
  5.26916253E-04  1.02308041E-04 -9.39498305E-04  6.04579026E-05  2.13959406E-04
 -1.35930978E-04 -6.00145548E-05 -2.15410867E-06  8.36165328E-05 -1.82727156E-04
  2.23713692E-04  4.79269488E-03 -8.96402758E-03 -5.32659154E-04  2.72097051E-03
 -9.86741874E-03 -1.03315472E-02 -1.91028495E-04  1.41743602E-03 -5.71595708E-03
 -1.39892480E-03 -2.29142622E-04  1.51656022E-04 -1.50457142E-03 -1.10408563E-04
 -2.37499237E-04  6.36018415E-04  3.41106381E-06  9.75091354E-05  4.36097880E-04
 -2.63506946E-03 -6.69086411E-04  2.41289365E-03  4.97382406E-03 -2.60990225E-03
 -8.76027147E-04 -1.41282575E-03  2.69788849E-03  9.72375164E-04  3.37648203E-03
  2.11534604E-02  4.57438201E-03  5.90622218E-04  2.56529694E-03  1.02730289E-02
  3.66712145E-03  5.61153504E-04  7.77702575E-04  2.16410066E-03 -2.82838260E-04
 -1.20792021E-04  5.99213505E-04  1.64382292E-05 -9.62192392E-05  1.51096406E-03
  8.35490201E-03 -1.87775742E-02  1.75593274E-02  2.36542008E-02 -1.57403555E-02
 -3.72522503E-02  1.36151725E-02  2.24441974E-02 -1.41747157E-02 -3.43256129E-02
  8.79346246E-03  1.27523666E-02 -6.46978317E-03  2.47307772E-03  2.30370460E-03
 -2.50924159E-03  5.69637948E-03 -4.17789911E-03 -2.93788014E-03 -1.05206433E-02
 -1.25116686E-02 -1.51524030E-02 -1.94233821E-02  2.66565662E-02  4.37795580E-02
 -5.18580088E-02  9.61381710E-02 -2.22913906E-01 -1.36406051E-01 -1.86910632E-04
  1.08977172E-01 -1.13689270E-01 -7.18606983E-02 -5.06031863E-03  8.00161603E-02
 -1.40225730E-02 -1.52566582E-02 -1.57067183E-02  1.18398948E-02 -1.84447439E-03
 -8.81278842E-03  1.38667000E-02 -9.96234839E-04 -6.41093912E-04  2.08221018E-01
  9.54258243E-03 -2.28215148E-02  3.70827679E-02  4.83546284E-02 -2.71139404E-02
 -3.11433537E-02  2.18449572E-02  2.87968267E-02 -1.40498125E-02 -9.74748070E-03
  8.71022344E-03  8.39074421E-03 -1.46245094E-03  4.24280543E-03  1.51011838E-03
 -3.93847672E-03  5.62323892E-03 -3.51443331E-03 -1.14655029E-03 -9.76914475E-03
 -9.68542301E-03 -1.87778896E-02 -2.00355987E-02  4.17399204E-02  5.27960249E-02
  1.06616361E-03  9.26956980E-03 -1.72757216E-01 -1.07456562E-01 -1.77134212E-03
  1.71482883E-02 -8.85349681E-02 -5.66403202E-02 -5.14661202E-03  3.23147210E-02
 -1.53634028E-02 -1.45159661E-02 -8.24992111E-03  1.05160205E-02 -1.28020470E-03
 -7.24243457E-03  1.09062389E-02 -1.13301593E-03 -1.43014591E-03  1.42797813E-01
  1.16125089E-01  8.06220877E-03 -1.90424823E-02 -4.63617568E-04  6.77337259E-04
 -3.36465383E-02 -3.26899128E-02  9.07450765E-04  5.89638832E-04 -2.88948017E-02
 -9.76696213E-03 -6.39167977E-04 -3.96367773E-03 -1.20790168E-02 -2.60176061E-03
 -4.09356663E-03  8.71386934E-03  3.04817792E-04  8.51140029E-04  2.27269873E-03
 -1.52606094E-02 -1.63990967E-02  2.67940552E-02  4.36045530E-02 -1.14079167E-02
 -1.49907959E-02 -5.20970962E-02  9.70774624E-02  1.30513467E-02  1.44117034E-01
  2.18566737E-01  1.09491456E-01  9.54105506E-03  7.59629633E-02  1.11435079E-01
  5.03138494E-02  1.02385697E-02  1.44172044E-02  2.14592149E-02 -8.74038910E-03
 -8.39589176E-04  1.10150197E-02  2.92240972E-04  3.32029796E-04  1.45154540E-02
 -2.15577681E-02 -4.24902530E-02  2.08699283E-01  9.32186500E-03 -2.16954350E-02
 -7.64974565E-03 -3.93828288E-03 -6.43750714E-02 -2.52269652E-02 -2.39007612E-03
 -5.59368784E-03 -3.72431509E-02  8.54949636E-03 -7.65591325E-04 -7.25487882E-03
 -8.06484706E-03 -2.32838910E-03 -3.56741057E-03  7.36561447E-03  1.21385253E-04
  1.10461533E-03  4.58530641E-03 -1.49776911E-02 -1.36448952E-02  4.21428344E-02
  5.21846083E-02 -1.58502177E-02 -1.70717675E-02 -6.11506933E-04  1.21551653E-02
  1.44631333E-02  1.15399621E-01  1.68976413E-01  2.11259173E-02  1.04097603E-02
  6.15493083E-02  8.66886795E-02  1.21524476E-02  6.33793693E-03  1.19133197E-02
  2.29319530E-02 -7.39843351E-03 -3.61019164E-04  9.83889776E-03 -9.25877045E-04
  7.11457619E-05  1.14565322E-02 -4.41072443E-02 -4.23688151E-02  1.44113561E-01
  1.16525887E-01 -2.86429001E-03  4.72779388E-03  8.05928057E-03 -8.52444512E-03
  3.45280072E-03  9.06672248E-03  6.91609374E-03 -7.25314778E-03  1.95790483E-03
 -9.62886006E-04  2.54277725E-03 -9.37326416E-04 -2.20456559E-04 -4.00512822E-04
 -1.05620293E-03  5.46066118E-04  1.52302338E-03 -6.35862078E-04  2.61867650E-04
 -8.63047371E-03 -9.11622679E-03  3.36192325E-03  1.90254915E-03  4.77223098E-03
  4.25376226E-03  1.03813056E-02 -1.91801907E-02 -4.92329566E-02  4.01404902E-02
  3.53545466E-03  7.15929722E-03 -1.08589934E-02  7.36035786E-03  3.10204156E-03
  3.12566779E-02  3.43612539E-03 -3.57203051E-03 -9.76143960E-04 -2.49033807E-03
 -1.16148305E-03  2.22718166E-03  4.79701803E-03 -1.79465604E-04  3.62486033E-04
  7.59663838E-03  1.04660926E-02  8.48917274E-03  1.08801305E-02  2.05326140E+00
  5.00705361E-03 -1.12873031E-02 -1.74667676E-02  1.77823061E-02 -1.17788865E-02
 -1.44936595E-02 -1.21241385E-02  1.23113684E-02 -6.44410588E-03 -1.99733359E-02
 -5.32512565E-03  4.99274988E-03 -5.43600475E-03  4.95387702E-04  1.66025453E-03
 -1.37601349E-03 -3.26300851E-03  1.27818560E-03 -3.51842607E-04  1.71989538E-02
  2.08848067E-02 -4.30647715E-03 -4.00557171E-03 -1.07322619E-02 -1.01192348E-02
 -1.91801907E-02  3.16918105E-02  1.00029930E-01 -7.98061897E-02 -5.63456443E-03
  3.23226544E-03  3.11615660E-02 -2.27616358E-02 -4.13867142E-03 -2.95374242E-02
 -3.38519023E-03  1.15573948E-02 -3.22664711E-03  3.56845551E-03  1.54001291E-03
 -4.89905485E-03 -9.07039861E-03  1.87443510E-04 -3.83610895E-04 -1.93154259E-02
 -2.39793650E-02 -1.78842883E-02 -2.19479553E-02 -5.79747852E-02  2.86819656E-01
 -2.60733925E-03  7.79370008E-03  3.79079600E-03 -2.63079515E-02  9.74811155E-03
 -2.90098126E-03  2.13260338E-03 -1.94843107E-02  4.49927101E-03  3.84711075E-03
  7.48008304E-03 -9.96629432E-03  1.51352307E-03  2.59682845E-04 -3.60576952E-03
  2.34869914E-03  4.81892494E-03 -2.96245840E-03  1.92934370E-03 -2.23978369E-02
 -3.33368322E-02  9.92693029E-03  1.13029476E-02  6.32099954E-03  1.84252419E-02
  4.92329566E-02 -1.00029930E-01 -1.86326380E-01  1.55735304E-01  5.03959506E-03
 -1.02239321E-01 -9.70283386E-02  7.58546193E-02  4.60049173E-03 -1.70366978E-02
 -2.51712509E-02  1.03242914E-02  5.55757095E-03  5.54804522E-03 -4.22332988E-03
  4.64491523E-03  9.25973705E-03  5.47318066E-05  4.35845448E-04  3.34317132E-02
  6.75831084E-02  1.54292847E-02  2.26964615E-02 -1.94120941E-03 -2.40718890E-03
  3.88982056E-01  9.86446827E-03 -2.07975541E-02 -2.30477758E-02  2.31553689E-02
 -2.60960511E-02 -4.52428005E-02 -2.25833583E-02  2.03321615E-02 -2.34866724E-02
 -1.98691095E-02 -1.44868254E-02  1.27777662E-02 -5.39229616E-03  1.05981454E-03
  3.14531626E-03 -2.33332669E-03 -5.46009353E-03  3.08952913E-03 -1.79162279E-03
  2.47862893E-02  3.72308575E-02 -5.43128398E-03 -8.47649423E-03 -1.64826277E-02
 -9.40218439E-03 -4.01404902E-02  7.98061897E-02  1.55735304E-01 -1.22393175E-01
 -4.56493255E-03  8.25388174E-02  7.55420128E-02 -5.98626896E-02 -6.66514527E-03
  2.44012161E-02  1.32700945E-02 -2.10945895E-02 -6.44264709E-03  8.51535856E-03
 -6.52152817E-03 -6.95870270E-03 -3.65919867E-03  4.28780581E-04  2.52209377E-04
 -3.08918265E-03  3.73268254E-03 -2.29127679E-02 -4.69546805E-02 -7.65857816E-04
  1.26547599E-03  8.89114900E-03  3.86614066E-01 -7.09908992E-03  1.43041477E-02
  2.96521553E-03 -1.61803494E-02  1.38483318E-02  4.36540181E-02 -7.09223789E-04
 -1.98225473E-02  1.87274413E-02  2.77922230E-02  4.71347544E-03 -7.64776564E-03
  8.80649361E-03 -4.89754709E-04 -8.12552723E-04  3.31366624E-04  1.80811108E-03
 -3.43755749E-04  7.77165240E-06 -5.88135577E-03 -1.31370993E-02  4.12963320E-03
 -1.62533466E-03  3.26421152E-03  4.61005496E-03  3.53545466E-03 -5.63456443E-03
 -5.03959506E-03  4.56493255E-03  3.72110693E-03 -2.36095588E-02 -9.99074334E-04
 -4.19798576E-04 -3.16481949E-04 -4.24772654E-02 -5.55249248E-03 -3.96689940E-03
 -9.24247991E-03  1.58085879E-04  4.72444809E-04  6.68706066E-04 -8.11702657E-05
  6.29780110E-03 -8.45541074E-03 -1.13006470E-03  2.50281458E-03 -1.63440939E-02
 -3.24494698E-02 -3.31733718E-03  1.73719766E-04 -1.20264813E-03 -1.12262614E-02
  3.86786592E-01  8.79516127E-03 -1.22023396E-02 -4.29300329E-02  4.53887105E-02
  9.11416393E-03 -1.16693521E-02 -2.58531357E-02  2.47055609E-02  7.17627720E-03
 -1.43093756E-02 -7.37807334E-03  6.28180858E-03 -1.69493956E-03  1.68972139E-03
  2.40766988E-03 -3.67991315E-03 -5.47057117E-03  8.58225163E-04 -8.09086765E-04
  4.28586256E-02  4.11401311E-02 -2.38416831E-02 -1.98565808E-02 -1.74156350E-02
 -1.38426693E-02  7.15929722E-03  3.23226544E-03  1.02239321E-01 -8.25388174E-02
 -2.36095588E-02 -3.21630230E-02  3.07424349E-02 -2.34933917E-02 -1.42319073E-02
 -5.35196573E-02 -6.75115685E-03  1.15850571E-02 -4.05447855E-03  4.41801717E-03
  2.23945962E-03 -6.18328209E-03 -1.01721318E-02  8.47780954E-04 -2.33755803E-03
 -2.97113829E-02 -2.45446645E-02 -4.16992573E-02 -3.71607445E-02 -1.93452255E-01
  2.86611271E-01  1.34924143E-02  6.34790609E-03  2.05952793E-02  3.08253042E-01
 -2.01953312E-03  5.28713962E-03  7.61343151E-03 -3.17150940E-02  9.47899025E-04
 -3.03041871E-03  3.93827257E-03 -1.77569302E-02 -1.43085594E-03 -3.49654824E-03
  4.19597516E-03 -5.20522525E-03 -9.15161444E-04 -7.18402508E-04 -1.94910756E-03
  2.20176577E-03  3.15029720E-03 -1.31422760E-03  8.31413062E-04 -2.19576272E-02
 -2.53014038E-02  1.29979700E-02  1.14726264E-02  1.50424965E-03  8.05066737E-03
  1.08589934E-02 -3.11615660E-02 -9.70283386E-02  7.55420128E-02  9.99074334E-04
 -3.07424349E-02 -5.03527666E-02  3.67516623E-02  1.59289613E-03  3.96767425E-03
 -1.14770938E-02  5.05433109E-03  1.42448441E-03  2.92935826E-03 -2.67274951E-03
  2.43077725E-03  5.21746631E-03 -7.69501084E-05  5.18548002E-04  2.64611474E-02
  3.71298147E-02  1.34228829E-02  1.24713301E-02  3.56425582E-04  3.46559191E-04
  1.92230435E-01  1.15855183E-02 -1.99888455E-03  4.29533647E-03  9.74069787E-02
  7.20577984E-03 -1.28875344E-02 -2.10199705E-02  2.09555952E-02 -1.81462708E-02
 -2.43367457E-02 -1.61323083E-02  1.42451953E-02 -1.32971424E-02 -8.22396666E-03
 -8.03126029E-03  6.69950592E-03 -2.40446446E-03  8.46833325E-04  1.65459697E-03
 -1.51169624E-03 -3.37693525E-03  1.47714510E-03 -3.38347715E-04  1.97566464E-02
  2.46235655E-02 -2.84242677E-03 -3.51146480E-03 -1.13607032E-02 -6.51929931E-03
 -7.36035786E-03  2.27616358E-02  7.58546193E-02 -5.98626896E-02  4.19798576E-04
  2.34933917E-02  3.67516623E-02 -2.88077964E-02 -2.18307117E-03  4.55233902E-03
  5.39525429E-03 -9.95013985E-03 -2.02844045E-03  4.37234111E-03 -3.06625324E-03
 -3.43535545E-03 -2.14078087E-03  2.12312900E-04  3.25400708E-04 -7.00471814E-03
  1.29252158E-03 -1.51937997E-02 -2.20870686E-02 -1.38504997E-03  1.96152977E-03
  1.35257934E-02  1.87150188E-01 -1.65011649E-02  5.39950089E-03  8.99778359E-03
  9.28780218E-02 -6.00944747E-03  9.02349803E-03 -5.50579895E-03 -1.57962736E-02
  4.49814499E-03  2.41991653E-02 -3.40085844E-03 -1.40653548E-02  8.51175506E-03
  1.29470626E-02  2.15580043E-03 -4.26411052E-03  4.20863663E-03 -7.87842491E-04
 -4.29150941E-04  6.62719939E-04  6.36361259E-04 -1.01542891E-04  3.34339970E-04
 -2.63948476E-03 -6.61225061E-03  7.63725712E-03  3.58234700E-03 -4.06823754E-03
 -2.77817152E-03  3.10204156E-03 -4.13867142E-03 -4.60049173E-03  6.66514527E-03
 -3.16481949E-04 -1.42319073E-02 -1.59289613E-03  2.18307117E-03 -8.35490700E-04
 -2.29487221E-02 -3.12152843E-03 -5.84559262E-04 -4.76043001E-03 -3.67538511E-04
  3.04857284E-04  7.62854954E-04 -2.34994529E-04  3.22844905E-03 -4.14606890E-03
 -2.41393754E-03 -1.39805251E-03 -7.43338507E-03 -1.39216534E-02  4.54068221E-04
  8.42198687E-04 -3.32124485E-03 -1.60861504E-02  1.89059062E-01  9.07142986E-03
 -2.26984146E-03 -1.23825316E-02  9.42668026E-02  3.65159857E-03 -5.82771779E-04
 -1.81972727E-02  5.88771502E-02  5.04632154E-02  5.06811427E-04 -1.08753996E-02
  2.97390166E-02  2.89012181E-02 -2.17509441E-03 -1.94399884E-03  4.53520921E-03
  4.54531002E-03  3.31642774E-03  1.57051578E-03 -5.33124245E-03 -2.85989722E-03
 -9.95513873E-04 -2.22543996E-03  3.93187306E-02  3.18261713E-02 -4.84853478E-02
 -4.06289762E-02  6.92157127E-03  7.58418707E-03  3.12566779E-02 -2.95374242E-02
  1.70366978E-02 -2.44012161E-02 -4.24772654E-02 -5.35196573E-02 -3.96767425E-03
 -4.55233902E-03 -2.29487221E-02 -4.55384327E-02 -1.03517151E-02  6.05512053E-03
 -3.43751928E-03  3.59358034E-03  1.78787155E-03 -4.63244434E-03 -3.55746031E-03
  8.26530845E-05 -3.39718967E-03 -9.59876376E-03  3.42303044E-03 -4.66744451E-02
 -3.59559578E-02 -7.31929032E-02  1.31510875E-01  5.85506966E-02  1.78166938E-03
  6.46439964E-03  1.57286780E-01  2.41183304E-02  1.86255353E-03 -1.40498563E-03
  1.14976846E-01 -1.07177736E-03  4.59702925E-03  7.45404257E-03 -1.36230431E-02
 -8.85484176E-03  1.63104645E-03  3.90410597E-03 -6.46013599E-03 -5.92955837E-03
 -1.38470196E-04  1.30942514E-03 -1.52390165E-03 -1.03546372E-03 -4.60726499E-04
 -5.66441776E-04  1.09794365E-03  1.32115423E-03 -1.78822622E-04  4.10871857E-04
 -1.00042347E-02 -1.06219303E-02  1.06702618E-02  7.78253319E-03  3.16469654E-03
  3.16432014E-03 -3.43612539E-03  3.38519023E-03 -2.51712509E-02  1.32700945E-02
  5.55249248E-03  6.75115685E-03 -1.14770938E-02  5.39525429E-03  3.12152843E-03
  1.03517151E-02 -6.35481671E-04 -7.06894372E-04  9.03833162E-04  4.09456509E-04
 -8.52323050E-04  8.13539266E-04  1.83614770E-03 -1.62794294E-04  5.73396680E-04
  1.24768595E-02  1.05941396E-02  9.00246119E-03  6.23024666E-03  6.90696353E-03
 -1.49016573E-02  2.99101334E-02  4.26298047E-03 -3.56114182E-03 -1.73089681E-02
  1.66106930E-02  1.73400081E-03 -2.36979445E-03 -6.95572224E-03  5.06114110E-03
  7.27381265E-04 -1.01958287E-02 -9.15856660E-03  1.76736158E-02 -9.27914258E-03
 -1.08218809E-02 -5.84172481E-03  8.96587607E-03 -3.97174721E-03 -9.63798755E-04
 -1.88018836E-03  2.58381480E-03 -7.05772914E-05  8.41259365E-04  6.03298041E-04
 -9.66308049E-04 -9.94031825E-04  1.12416969E-04  2.91133988E-04  9.31362995E-03
  1.03631528E-02 -4.23385440E-03 -2.39491830E-03 -2.79489201E-03  6.26770898E-04
  3.57203051E-03 -1.15573948E-02  1.03242914E-02 -2.10945895E-02  3.96689940E-03
 -1.15850571E-02  5.05433109E-03 -9.95013985E-03  5.84559262E-04 -6.05512053E-03
 -7.06894372E-04 -2.67122246E-03 -5.52018126E-04  1.56178736E-03 -3.71688111E-04
 -1.14825318E-03 -3.36533862E-04  1.89261010E-04 -3.71778734E-05 -9.20248549E-04
  4.59635517E-03 -1.03367041E-02 -7.20672491E-03  2.73921778E-04 -3.33245770E-03
  5.15098607E-03  3.59484036E-02  5.51392313E-04 -1.88191634E-03  1.92465739E-03
  1.98848208E-02  6.11673367E-04 -2.82695462E-03 -3.67407820E-04  7.54060358E-03
 -1.61722998E-03 -3.33097232E-03 -2.54863213E-03 -1.41624690E-02  8.56365592E-03
  1.06224997E-03 -7.86411639E-04 -8.98460320E-03  6.39501139E-03 -6.11836693E-04
  9.31764555E-04 -8.68733983E-04  1.24732682E-03 -7.26385266E-04 -8.33365106E-05
  3.90539478E-04  1.93970431E-04 -5.22667198E-05 -2.07184404E-04 -6.16142076E-03
 -4.09117848E-03 -6.03958447E-04  3.37932830E-04 -7.10163227E-03 -4.08740914E-03
 -9.76143960E-04 -3.22664711E-03 -5.55757095E-03  6.44264709E-03 -9.24247991E-03
 -4.05447855E-03 -1.42448441E-03  2.02844045E-03 -4.76043001E-03 -3.43751928E-03
 -9.03833162E-04  5.52018126E-04 -3.19251970E-03 -5.69526995E-04  6.92395326E-05
  4.38636400E-04  3.08616888E-04  7.86213384E-04 -1.25987075E-03 -1.30025355E-03
 -1.38141111E-03 -5.54612526E-03 -4.84334911E-03  9.65130936E-03 -2.06000178E-02
 -9.83859963E-03 -9.58381832E-03  4.25731162E-02 -2.07342104E-02 -5.20791014E-03
 -4.96712434E-03  2.31624628E-02 -1.56430540E-02 -1.13817282E-03  1.61194044E-03
  1.03321354E-02  7.28213499E-04 -1.79786087E-03 -1.06296656E-03  2.46987169E-03
 -2.87748198E-03 -3.86616773E-03 -9.30508233E-04  1.95837639E-03 -2.13971678E-03
 -1.72524403E-03 -2.94244973E-04  8.98603231E-04 -4.56026697E-04  1.97665844E-04
  1.80176459E-04 -1.88652473E-04  2.37396722E-05 -7.78772305E-05 -8.30959258E-05
  9.30615019E-04  1.04056971E-03 -3.61628617E-04 -6.80080216E-04  2.67682985E-04
  1.63440050E-03 -2.49033807E-03  3.56845551E-03 -5.54804522E-03 -8.51535856E-03
  1.58085879E-04  4.41801717E-03 -2.92935826E-03 -4.37234111E-03 -3.67538511E-04
  3.59358034E-03 -4.09456509E-04 -1.56178736E-03 -5.69526995E-04  1.02080598E-03
 -4.46687348E-04 -5.84627043E-04  5.59805919E-04 -3.32252588E-05  2.01041057E-05
  8.42477078E-03  7.35450788E-03 -2.24365449E-03 -3.44540619E-03 -1.43517485E-02
 -2.30315903E-03  9.97115934E-03  1.79701997E-02 -2.09806365E-03 -9.57011107E-04
  5.55024001E-03  8.78186433E-03 -1.78801215E-03  9.50579893E-04  1.40926455E-03
  1.80781332E-03 -1.02604769E-03  1.52485665E-03 -9.09311475E-04  1.43498968E-03
  8.64934723E-04 -3.03279567E-03  2.36611442E-03  1.26561494E-03  1.80830679E-04
 -1.45014334E-03  8.60079632E-04 -4.38819786E-04 -1.66152654E-04 -2.99694279E-04
 -1.03503862E-04 -1.66317966E-04 -1.32194301E-04  2.38973399E-04 -3.94435562E-06
  1.05086143E-04 -5.39495623E-05 -1.17040122E-03 -1.26729344E-03  3.64871980E-04
  5.03520284E-04 -4.30632826E-04 -9.99031094E-04 -1.16148305E-03  1.54001291E-03
  4.22332988E-03  6.52152817E-03  4.72444809E-04  2.23945962E-03  2.67274951E-03
  3.06625324E-03  3.04857284E-04  1.78787155E-03  8.52323050E-04  3.71688111E-04
  6.92395326E-05 -4.46687348E-04 -1.28191970E-05  3.59870337E-04 -1.64219383E-04
  1.84480844E-05  8.90421350E-05 -4.03324257E-03 -3.46389555E-03  3.24569237E-03
  2.28244936E-03 -1.38148213E-02 -3.09589293E-03 -1.05870860E-03 -3.88554886E-04
  1.47122520E-04 -2.87218532E-03 -3.91992598E-04 -2.53753571E-04  3.69938019E-05
 -2.84241980E-03  2.49982385E-04 -2.00568869E-04  1.34447518E-04 -6.30010179E-05
  4.57484982E-04 -6.95447232E-04  1.06794539E-03  7.70349834E-04 -1.69306458E-03
  1.36923949E-03  3.33994106E-03  1.10079654E-03 -1.85570146E-03  1.70179102E-03
  2.54912414E-03  8.14976662E-04 -9.73689563E-04  7.01281537E-04 -1.14866578E-04
 -1.67747995E-04  1.39957694E-04  1.96072341E-04 -1.08205123E-04  1.43939164E-04
 -1.16101871E-03 -1.52047674E-03  6.92707362E-04  8.17751396E-04  2.69531026E-04
 -2.84672550E-04  2.22718166E-03 -4.89905485E-03 -4.64491523E-03  6.95870270E-03
  6.68706066E-04 -6.18328209E-03 -2.43077725E-03  3.43535545E-03  7.62854954E-04
 -4.63244434E-03 -8.13539266E-04  1.14825318E-03  4.38636400E-04 -5.84627043E-04
  3.59870337E-04  4.85153396E-04 -2.11625154E-06  1.15765468E-04 -1.38125155E-04
 -2.38261741E-03 -2.10742887E-03  1.13851841E-03  2.33436911E-03 -1.42841068E-02
 -2.29507124E-03 -3.08793245E-03 -1.82640766E-02  7.91983799E-03 -1.06501936E-03
 -2.17732054E-03 -8.93692652E-03  4.74180184E-03 -9.64728586E-04 -8.34809679E-04
 -1.45207621E-03  2.07277181E-03 -9.83382910E-04  2.41365034E-05  1.45199344E-03
  4.05110675E-04 -7.20987654E-04 -1.66815741E-04  1.95881909E-03 -1.83228470E-03
 -1.07399149E-03 -1.90886511E-04  6.35143980E-04 -5.36400460E-04  5.90973620E-04
  3.00930226E-04 -1.99037906E-04  2.05039454E-04  2.06895056E-04 -9.35611213E-05
 -9.96446142E-05  1.98211984E-04 -1.71169929E-04  2.09275593E-04  8.73348485E-05
 -5.04996123E-04  1.93625696E-04  3.09858536E-04  9.74428951E-04  1.87596746E-03
  4.79701803E-03 -9.07039861E-03 -9.25973705E-03  3.65919867E-03 -8.11702657E-05
 -1.01721318E-02 -5.21746631E-03  2.14078087E-03 -2.34994529E-04 -3.55746031E-03
 -1.83614770E-03  3.36533862E-04  3.08616888E-04  5.59805919E-04 -1.64219383E-04
 -2.11625154E-06  3.97092416E-04  1.11451465E-05 -6.18145822E-05  1.78816503E-03
  4.66480602E-03 -2.35348492E-03 -4.39319585E-04 -1.43816849E-03  2.77170141E-03
  2.06012469E-02  1.74427850E-03  8.96508053E-04  4.32695656E-03  1.00719539E-02
  1.64530074E-03  3.59101214E-04  5.61520889E-03  1.34323788E-03  1.00014008E-03
 -6.04135554E-04  6.21123172E-04 -1.88314099E-04 -2.28418064E-04  1.42252177E-03
 -6.15230255E-04  1.24861426E-03  5.33426184E-06 -2.84288157E-03  3.36403990E-03
  9.95213980E-04 -9.10986142E-05 -1.23421264E-03  1.74538303E-03 -1.11187920E-03
 -1.52853491E-05  9.41334216E-05  1.79826110E-04 -8.37683421E-05  4.55672475E-05
 -6.41669094E-05 -2.78564233E-06  7.18735949E-07 -1.50419847E-04 -5.32271938E-04
 -5.09669171E-04 -6.92701695E-04 -9.48660748E-04 -5.19199654E-04 -4.28391324E-04
  1.79465604E-04 -1.87443510E-04  5.47318066E-05  4.28780581E-04 -6.29780110E-03
 -8.47780954E-04 -7.69501084E-05  2.12312900E-04 -3.22844905E-03 -8.26530845E-05
 -1.62794294E-04  1.89261010E-04 -7.86213384E-04  3.32252588E-05 -1.84480844E-05
 -1.15765468E-04 -1.11451465E-05 -1.13625936E-05 -2.96355476E-04 -2.10506860E-04
  5.07899063E-05 -3.34994559E-03 -2.42869468E-03 -6.73297596E-05  1.67247568E-05
  5.72492052E-04  1.00421865E-03 -4.18223039E-04  3.28737687E-04  4.54544697E-04
  5.26916253E-04 -1.02308041E-04  9.39498305E-04  6.04579026E-05  2.13959406E-04
  1.35930978E-04  6.00145548E-05  2.15410867E-06 -8.36165328E-05  1.82727156E-04
  2.23713692E-04  1.37760399E-03 -2.76083890E-03 -1.75938787E-03  4.62434619E-03
 -5.04326672E-03 -4.72244709E-03 -9.25913781E-04  2.95953637E-03 -3.39473131E-03
 -1.42986050E-03 -5.46209900E-04  6.64350189E-04 -9.01316093E-04  1.18873885E-04
 -3.55022279E-06  1.00095854E-04 -1.98252943E-04  4.04402334E-05  2.08334613E-04
  1.64814203E-03  1.84818036E-03  6.65101910E-04  1.55832948E-03 -5.36231384E-04
 -2.19464871E-04 -3.62486033E-04  3.83610895E-04  4.35845448E-04  2.52209377E-04
  8.45541074E-03  2.33755803E-03  5.18548002E-04  3.25400708E-04  4.14606890E-03
  3.39718967E-03  5.73396680E-04 -3.71778734E-05  1.25987075E-03 -2.01041057E-05
 -8.90421350E-05  1.38125155E-04  6.18145822E-05 -2.96355476E-04  9.27690228E-04
  6.12123410E-05  3.17306892E-05  5.79520478E-03  5.40164458E-03  1.41282575E-03
 -2.69788849E-03  9.72375164E-04  3.37648203E-03 -2.11534604E-02 -4.57438201E-03
  5.90622218E-04  2.56529694E-03 -1.02730289E-02 -3.66712145E-03  5.61153504E-04
  7.77702575E-04 -2.16410066E-03  2.82838260E-04  1.20792021E-04 -5.99213505E-04
 -1.64382292E-05 -9.62192392E-05  1.51096406E-03  4.87606695E-03 -8.63958284E-03
 -9.63327901E-03  7.13527483E-03 -1.20893079E-02 -2.49076502E-02 -9.67053227E-03
  4.97791343E-03 -9.71942302E-03 -1.28670704E-02 -2.00772538E-03  1.87924470E-03
 -2.97054133E-03  1.25359896E-03 -1.15481465E-04 -5.14632330E-04  1.70929177E-04
 -5.17322088E-04  3.37592650E-04  2.97604101E-03  1.57225596E-03  4.72457001E-04
  1.70035492E-05 -1.32851018E-03  9.36272506E-03  7.59663838E-03 -1.93154259E-02
 -3.34317132E-02  3.08918265E-03 -1.13006470E-03 -2.97113829E-02 -2.64611474E-02
  7.00471814E-03 -2.41393754E-03 -9.59876376E-03 -1.24768595E-02  9.20248549E-04
 -1.30025355E-03  8.42477078E-03 -4.03324257E-03 -2.38261741E-03  1.78816503E-03
  2.10506860E-04 -6.12123410E-05  2.54831735E-02  4.31507580E-02 -1.20287648E-02
 -1.63234440E-02 -5.18580088E-02  9.61381710E-02  2.22913906E-01  1.36406051E-01
 -1.86910632E-04  1.08977172E-01  1.13689270E-01  7.18606983E-02 -5.06031863E-03
  8.00161603E-02  1.40225730E-02  1.52566582E-02 -1.57067183E-02  1.18398948E-02
 -1.84447439E-03 -8.81278842E-03  1.38667000E-02  9.96234839E-04  6.41093912E-04
  2.08221018E-01  3.33815372E-03 -8.79619216E-03 -1.97667029E-04  1.48729119E-02
 -1.61205546E-02 -2.20344628E-02 -3.21299396E-03  9.05612576E-03 -1.06611856E-02
 -7.63190947E-03  1.47068389E-04  2.58719342E-03 -1.62069217E-03  1.76027953E-03
 -4.61616848E-05 -9.00902123E-04  1.40678799E-03 -1.09805390E-03  4.00194414E-04
  4.01308214E-04 -2.01745051E-03 -9.69022880E-04 -1.57013466E-03  7.82060738E-03
  1.76680178E-02  1.04660926E-02 -2.39793650E-02 -6.75831084E-02 -3.73268254E-03
  2.50281458E-03 -2.45446645E-02 -3.71298147E-02 -1.29252158E-03 -1.39805251E-03
  3.42303044E-03 -1.05941396E-02 -4.59635517E-03 -1.38141111E-03  7.35450788E-03
 -3.46389555E-03 -2.10742887E-03  4.66480602E-03 -5.07899063E-05 -3.17306892E-05
  4.31507580E-02  5.50347278E-02 -1.38520032E-02 -1.43972655E-02  1.06616361E-03
  9.26956980E-03  1.72757216E-01  1.07456562E-01 -1.77134212E-03  1.71482883E-02
  8.85349681E-02  5.66403202E-02 -5.14661202E-03  3.23147210E-02  1.53634028E-02
  1.45159661E-02 -8.24992111E-03  1.05160205E-02 -1.28020470E-03 -7.24243457E-03
  1.09062389E-02  1.13301593E-03  1.43014591E-03  1.42797813E-01  1.16125089E-01
 -8.15091523E-03  1.61920327E-02  6.94755900E-03 -2.09135545E-02  2.61253769E-02
  4.10345784E-02  5.53571979E-03 -1.92402305E-02  2.36727821E-02  1.55068611E-02
  6.38069371E-03 -7.69234157E-03  6.16890062E-03 -8.54693492E-04 -9.27530276E-04
  3.91149850E-04  1.77926853E-03 -7.57065556E-04 -5.38129432E-05 -8.91704376E-03
 -1.50291039E-02 -1.07707323E-04 -2.71454119E-03  3.38401094E-03  3.14293161E-04
  8.48917274E-03 -1.78842883E-02 -1.54292847E-02  2.29127679E-02 -1.63440939E-02
 -4.16992573E-02 -1.34228829E-02  1.51937997E-02 -7.43338507E-03 -4.66744451E-02
 -9.00246119E-03  1.03367041E-02 -5.54612526E-03 -2.24365449E-03  3.24569237E-03
  1.13851841E-03 -2.35348492E-03  3.34994559E-03 -5.79520478E-03 -1.20287648E-02
 -1.38520032E-02 -1.43084630E-02 -1.45225736E-02 -5.20970962E-02  9.70774624E-02
 -1.30513467E-02 -1.44117034E-01  2.18566737E-01  1.09491456E-01 -9.54105506E-03
 -7.59629633E-02  1.11435079E-01  5.03138494E-02 -1.02385697E-02 -1.44172044E-02
  2.14592149E-02 -8.74038910E-03 -8.39589176E-04  1.10150197E-02  2.92240972E-04
 -3.32029796E-04 -1.45154540E-02 -2.15577681E-02 -4.24902530E-02  2.08699283E-01
 -1.01683471E-02  2.08915056E-02  1.72310143E-02 -3.48962019E-02  3.77374407E-02
  4.27404668E-02  1.17553733E-02 -2.60511628E-02  2.80280352E-02  1.78379255E-02
  7.09355488E-03 -8.70248813E-03  7.56588572E-03 -1.31232311E-03 -1.23025108E-03
  6.29514096E-04  2.33788661E-03 -7.05546876E-04 -5.16883748E-04 -1.75173678E-02
 -2.10209133E-02 -1.05887413E-03 -3.94603183E-03  5.67152491E-03  6.41063247E-04
  1.08801305E-02 -2.19479553E-02 -2.26964615E-02  4.69546805E-02 -3.24494698E-02
 -3.71607445E-02 -1.24713301E-02  2.20870686E-02 -1.39216534E-02 -3.59559578E-02
 -6.23024666E-03  7.20672491E-03 -4.84334911E-03 -3.44540619E-03  2.28244936E-03
  2.33436911E-03 -4.39319585E-04  2.42869468E-03 -5.40164458E-03 -1.63234440E-02
 -1.43972655E-02 -1.45225736E-02 -1.12256768E-02 -6.11506933E-04  1.21551653E-02
 -1.44631333E-02 -1.15399621E-01  1.68976413E-01  2.11259173E-02 -1.04097603E-02
 -6.15493083E-02  8.66886795E-02  1.21524476E-02 -6.33793693E-03 -1.19133197E-02
  2.29319530E-02 -7.39843351E-03 -3.61019164E-04  9.83889776E-03 -9.25877045E-04
 -7.11457619E-05 -1.14565322E-02 -4.41072443E-02 -4.23688151E-02  1.44113561E-01
  1.16525887E-01 -1.50657513E-03  3.26048326E-03  1.48428350E-03 -5.27169913E-03
 -7.27973671E-04  3.04937550E-03 -1.13886155E-03 -2.07783088E-03 -8.81610777E-04
 -2.09462173E-03 -1.16768934E-03 -9.36105467E-05 -1.00704985E-03 -1.05202006E-04
  1.85625280E-05  2.33153844E-05  2.48164356E-04  1.26216601E-04 -1.86464210E-04
 -1.64362678E-03 -2.88496267E-03  1.70411754E-03 -3.61862383E-04  8.36201130E-04
  1.18390133E-03 -2.86429001E-03  5.00705361E-03  2.60733925E-03 -9.86446827E-03
 -7.09908992E-03  8.79516127E-03  2.01953312E-03 -7.20577984E-03 -6.00944747E-03
  3.65159857E-03  1.07177736E-03 -7.27381265E-04 -1.61722998E-03  7.28213499E-04
 -9.09311475E-04 -6.95447232E-04  4.05110675E-04  6.15230255E-04 -1.37760399E-03
  4.87606695E-03  3.33815372E-03 -8.15091523E-03 -1.01683471E-02  1.04718075E-02
 -1.93023267E-02  2.77527518E-03  3.82597948E-02  5.16923446E-02  5.49926922E-03
  3.11072512E-03  7.17669002E-03  1.21075533E-02  5.46113538E-02 -4.61115702E-04
 -7.66394161E-03 -1.10464981E-02  2.25766739E-03 -1.11585793E-03 -2.77483114E-03
  3.33902477E-04  1.16623624E-04 -4.79269488E-03  8.35490201E-03  9.54258243E-03
  8.06220877E-03  9.32186500E-03  2.05294759E+00  3.26048326E-03 -5.90444069E-03
 -1.68666280E-03  1.26909434E-02  3.39927757E-03 -9.71963237E-03  1.94687407E-03
  6.98722025E-03  1.94064209E-03 -2.30901064E-02  6.93274391E-04  5.23902436E-03
 -3.47541479E-03  2.67178223E-04 -1.36185499E-04 -3.22303411E-05 -4.07624116E-04
 -3.57792524E-04  3.72045884E-04  3.74727416E-03  5.43061375E-03 -5.53328603E-03
  8.81446099E-04 -5.69796079E-05 -6.66111082E-04  4.72779388E-03 -1.12873031E-02
 -7.79370008E-03  2.07975541E-02  1.43041477E-02 -1.22023396E-02 -5.28713962E-03
  1.28875344E-02  9.02349803E-03 -5.82771779E-04 -4.59702925E-03  1.01958287E-02
 -3.33097232E-03 -1.79786087E-03  1.43498968E-03  1.06794539E-03 -7.20987654E-04
 -1.24861426E-03  2.76083890E-03 -8.63958284E-03 -8.79619216E-03  1.61920327E-02
  2.08915056E-02 -1.99910747E-02  3.28370175E-02 -5.63968593E-03 -7.61698998E-02
 -1.04195112E-01  5.41734462E-03 -3.97169351E-03 -2.18521020E-02 -3.40539322E-02
 -4.90770538E-02 -6.73020974E-03  1.31646445E-02  1.14669201E-02 -5.07758582E-03
  1.15935624E-03  4.14715843E-03 -5.83734486E-04 -3.32332120E-04  8.96402758E-03
 -1.87775742E-02 -2.28215148E-02 -1.90424823E-02 -2.16954350E-02 -5.74299745E-02
  2.82148483E-01 -1.48428350E-03  1.68666280E-03 -4.66838050E-04 -3.44357576E-03
 -3.79406507E-03  1.11993578E-02  2.03587249E-03 -6.10012659E-03 -4.31445781E-03
  2.16124798E-02  5.83523565E-04 -6.00579264E-03  6.32904837E-04 -2.87741912E-04
  1.73905060E-05 -1.47295015E-04 -1.11033810E-04  1.25201667E-04 -5.81863210E-04
  2.35308381E-04  2.99527949E-03  6.33704061E-04 -4.80264493E-03 -8.86927870E-04
 -3.57820679E-03 -8.05928057E-03  1.74667676E-02  3.79079600E-03 -2.30477758E-02
 -2.96521553E-03  4.29300329E-02  7.61343151E-03 -2.10199705E-02  5.50579895E-03
  1.81972727E-02  7.45404257E-03 -9.15856660E-03  2.54863213E-03  1.06296656E-03
 -8.64934723E-04 -7.70349834E-04  1.66815741E-04  5.33426184E-06 -1.75938787E-03
  9.63327901E-03  1.97667029E-04 -6.94755900E-03 -1.72310143E-02  6.76820080E-04
 -4.72563633E-04  4.04015500E-03 -1.34634882E-03 -1.08916273E-03 -2.80130304E-03
 -4.38304370E-03 -4.51413691E-03 -6.48566270E-03 -1.60482101E-02 -3.81960046E-03
 -1.16033985E-02 -2.96311426E-03 -2.53770200E-04  1.98971135E-04  5.40388865E-04
 -8.62696637E-03 -6.74924764E-03 -5.32659154E-04 -1.75593274E-02 -3.70827679E-02
  4.63617568E-04  7.64974565E-03 -1.31345870E-04  9.14227538E-04  3.99351124E-01
  5.27169913E-03 -1.26909434E-02 -3.44357576E-03  1.82175559E-02  4.50487994E-03
 -9.88270449E-03  1.00362947E-02  4.70894268E-03  6.25351021E-03  1.46083484E-02
  5.92498468E-03 -4.08450334E-03  3.11893047E-03  2.87580131E-05 -1.98341510E-05
 -5.22376698E-04 -8.00331220E-04 -1.18086837E-03  7.71233891E-04  5.38804694E-03
  1.10665409E-02 -7.23125912E-03  3.35888260E-04 -1.21459119E-03 -6.14300173E-03
  8.52444512E-03 -1.77823061E-02 -2.63079515E-02  2.31553689E-02  1.61803494E-02
 -4.53887105E-02 -3.17150940E-02  2.09555952E-02  1.57962736E-02 -5.88771502E-02
 -1.36230431E-02  1.76736158E-02  1.41624690E-02 -2.46987169E-03  3.03279567E-03
  1.69306458E-03 -1.95881909E-03 -2.84288157E-03  4.62434619E-03 -7.13527483E-03
 -1.48729119E-02  2.09135545E-02  3.48962019E-02 -3.98916674E-02  7.92356486E-02
 -5.57676439E-03 -1.14325963E-01 -1.53737626E-01  8.99232005E-02 -9.20203148E-03
 -5.51590232E-02 -7.08366363E-02  8.25082558E-02 -1.26620332E-02 -2.01667240E-02
 -1.81615017E-02 -6.71964375E-03 -7.00883262E-03  8.89613612E-03 -3.70539070E-05
 -7.78766064E-04  2.72097051E-03 -2.36542008E-02 -4.83546284E-02 -6.77337259E-04
  3.93828288E-03  1.45686270E-03  1.08790592E-03 -6.28786033E-04  3.91752207E-01
 -7.27973671E-04  3.39927757E-03  3.79406507E-03 -4.50487994E-03 -2.08790221E-02
 -9.33569247E-03 -8.72829148E-04  7.33722030E-03 -1.88242919E-02 -1.87249265E-02
 -3.06140116E-03 -1.00504454E-04 -9.85922764E-03 -3.24409040E-04 -1.03279555E-03
  2.16865292E-03  7.20704009E-04  3.00360670E-04  1.25093859E-03 -6.58510120E-03
 -1.25904435E-02  1.25905001E-02  1.35937407E-02  1.24436881E-03 -2.01356828E-03
  3.45280072E-03 -1.17788865E-02 -9.74811155E-03  2.60960511E-02  1.38483318E-02
  9.11416393E-03 -9.47899025E-04  1.81462708E-02  4.49814499E-03  5.04632154E-02
  8.85484176E-03  9.27914258E-03  8.56365592E-03 -2.87748198E-03  2.36611442E-03
  1.36923949E-03 -1.83228470E-03 -3.36403990E-03  5.04326672E-03 -1.20893079E-02
 -1.61205546E-02  2.61253769E-02  3.77374407E-02 -4.84308077E-02  9.89566711E-02
 -1.67936543E-03 -1.50426756E-01 -1.93296027E-01  8.61115993E-02  1.61512380E-03
 -7.08255892E-02 -1.00529653E-01  4.11513632E-02  5.09254043E-03 -2.41923164E-02
 -4.35967493E-02 -4.97794792E-03  3.86708328E-03 -4.37764141E-03 -4.06560344E-04
 -1.11145260E-04  9.86741874E-03 -1.57403555E-02 -2.71139404E-02 -3.36465383E-02
 -6.43750714E-02  1.83268143E-03  2.08561776E-03 -1.36702369E-03 -1.04790772E-02
  3.89702115E-01  3.04937550E-03 -9.71963237E-03 -1.11993578E-02  9.88270449E-03
 -9.33569247E-03 -1.25231722E-02 -2.72782706E-03  4.24762725E-03 -4.74897595E-03
 -1.87310377E-02 -4.37482322E-04  3.67894793E-03 -4.16877076E-03 -4.54966874E-04
 -7.03653257E-04  1.45388269E-03 -1.05169464E-03  8.41495927E-05  1.45849096E-03
  4.37434648E-03  6.25745970E-03  4.41059146E-03  1.23479674E-02 -8.80080961E-03
 -9.01297748E-03  9.06672248E-03 -1.44936595E-02  2.90098126E-03  4.52428005E-02
  4.36540181E-02 -1.16693521E-02  3.03041871E-03  2.43367457E-02  2.41991653E-02
  5.06811427E-04 -1.63104645E-03  1.08218809E-02  1.06224997E-03 -3.86616773E-03
  1.26561494E-03  3.33994106E-03 -1.07399149E-03 -9.95213980E-04  4.72244709E-03
 -2.49076502E-02 -2.20344628E-02  4.10345784E-02  4.27404668E-02  9.64035892E-03
  4.02978913E-04 -1.57684321E-02 -7.60590431E-02 -1.07326018E-01 -3.21359844E-02
 -9.43243390E-03 -2.07447668E-02 -3.40355373E-02 -7.59184597E-02 -5.70738894E-03
  1.45471902E-02  1.51245395E-02 -5.94601036E-03  1.94451252E-03  4.69930976E-03
 -1.59273888E-03 -7.15962037E-04  1.03315472E-02 -3.72522503E-02 -3.11433537E-02
 -3.26899128E-02 -2.52269652E-02 -1.89900048E-01  2.87572146E-01 -3.99749705E-03
 -8.25837405E-03 -1.18069617E-02  3.10443417E-01  1.13886155E-03 -1.94687407E-03
  2.03587249E-03  1.00362947E-02  8.72829148E-04  2.72782706E-03  2.13283233E-03
  3.36669917E-03 -8.56512118E-04  1.02439542E-02  3.02490837E-04 -1.63808704E-03
  4.15639392E-04  4.77534841E-04  2.74496868E-04 -8.05895699E-04 -1.27780500E-04
 -9.34046584E-05 -6.68657027E-04  3.71734564E-03  5.02305210E-03 -6.78593015E-03
 -7.99471580E-03  3.57875218E-03  2.06962153E-03 -6.91609374E-03  1.21241385E-02
  2.13260338E-03 -2.25833583E-02  7.09223789E-04  2.58531357E-02  3.93827257E-03
 -1.61323083E-02  3.40085844E-03  1.08753996E-02  3.90410597E-03 -5.84172481E-03
  7.86411639E-04  9.30508233E-04 -1.80830679E-04 -1.10079654E-03  1.90886511E-04
 -9.10986142E-05 -9.25913781E-04  9.67053227E-03  3.21299396E-03 -5.53571979E-03
 -1.17553733E-02  2.35558339E-04  7.58101750E-05 -7.93935128E-03  6.27780687E-04
 -1.53997168E-03 -8.25271984E-04 -7.46950448E-03 -1.93817561E-03 -4.32042611E-03
 -7.56764105E-03 -2.80024255E-03 -5.77726886E-03 -2.01772338E-03 -5.40140648E-05
  5.80328925E-06  9.35847905E-05 -4.90730503E-03 -3.55238013E-03 -1.91028495E-04
 -1.36151725E-02 -2.18449572E-02 -9.07450765E-04  2.39007612E-03  1.13835205E-03
 -1.35211613E-03  2.06875958E-01 -1.70152043E-03  1.51755779E-03 -4.47129691E-03
  1.07966195E-01  2.07783088E-03 -6.98722025E-03 -6.10012659E-03  4.70894268E-03
 -7.33722030E-03 -4.24762725E-03  3.36669917E-03 -7.91918510E-04 -1.30774098E-03
  1.06300547E-02  3.12513267E-03 -3.28420587E-03  1.40485463E-03 -4.28145192E-04
 -2.92640896E-04  5.43737151E-04 -3.45349860E-04 -5.41575264E-04  1.08727360E-03
  1.35491101E-03  3.88236168E-03  4.31869398E-03  7.45135241E-03 -4.39010306E-03
 -6.28624176E-03  7.25314778E-03 -1.23113684E-02 -1.94843107E-02  2.03321615E-02
  1.98225473E-02 -2.47055609E-02 -1.77569302E-02  1.42451953E-02  1.40653548E-02
 -2.97390166E-02 -6.46013599E-03  8.96587607E-03  8.98460320E-03 -1.95837639E-03
  1.45014334E-03  1.85570146E-03 -6.35143980E-04 -1.23421264E-03  2.95953637E-03
 -4.97791343E-03 -9.05612576E-03  1.92402305E-02  2.60511628E-02 -7.65745710E-03
  2.24971253E-02 -5.67196940E-03 -6.55685956E-02 -7.18252163E-02  2.64605370E-02
 -6.12172170E-03 -3.17012306E-02 -3.22294191E-02  3.02741182E-02 -5.62165163E-03
 -1.04776898E-02 -6.74675080E-03 -3.88104405E-03 -3.41207120E-03  5.24781813E-03
 -3.36641017E-04 -5.57066556E-04  1.41743602E-03 -2.24441974E-02 -2.87968267E-02
 -5.89638832E-04  5.59368784E-03 -1.52607987E-03  6.52747480E-04 -3.42143280E-03
  1.96446198E-01 -1.41753769E-02 -2.55439675E-04 -2.78173639E-03  1.00616248E-01
 -8.81610777E-04  1.94064209E-03  4.31445781E-03 -6.25351021E-03 -1.88242919E-02
 -4.74897595E-03  8.56512118E-04  1.30774098E-03 -1.41990272E-02 -6.70027232E-03
 -1.48214035E-03 -1.08994410E-03 -5.36821421E-03 -4.49273695E-04 -8.79091517E-04
  1.84143353E-03  6.35065233E-04  3.23552328E-04  1.13208380E-03 -6.99341602E-03
 -9.58752972E-03  1.29664382E-02  1.29305765E-02  7.33362919E-04 -1.68115468E-03
  1.95790483E-03 -6.44410588E-03 -4.49927101E-03  2.34866724E-02  1.87274413E-02
  7.17627720E-03  1.43085594E-03  1.32971424E-02  8.51175506E-03  2.89012181E-02
  5.92955837E-03  3.97174721E-03  6.39501139E-03 -2.13971678E-03  8.60079632E-04
  1.70179102E-03 -5.36400460E-04 -1.74538303E-03  3.39473131E-03 -9.71942302E-03
 -1.06611856E-02  2.36727821E-02  2.80280352E-02 -8.93812224E-03  2.85908600E-02
 -1.04133690E-03 -7.05823909E-02 -1.01455764E-01  1.96913938E-02  1.00046818E-03
 -3.31850390E-02 -5.26879332E-02  7.18823180E-03  4.17287380E-03 -1.17047736E-02
 -2.11449539E-02 -2.36873763E-03  2.32568035E-03 -2.40221624E-03 -5.34600262E-04
 -2.18872136E-04  5.71595708E-03 -1.41747157E-02 -1.40498125E-02 -2.88948017E-02
 -3.72431509E-02 -5.41087747E-04 -2.17530690E-04 -7.05940390E-04 -1.26988176E-02
  1.90724794E-01 -2.94884961E-03  4.79639877E-04 -9.16476420E-03  9.56993838E-02
 -2.09462173E-03 -2.30901064E-02 -2.16124798E-02 -1.46083484E-02 -1.87249265E-02
 -1.87310377E-02 -1.02439542E-02 -1.06300547E-02 -6.70027232E-03 -3.92783773E-03
 -9.67226697E-04  1.35893361E-04 -9.40499766E-04 -1.46817814E-03 -3.44283201E-04
  2.04837423E-03 -7.96157722E-04  3.73535503E-04  1.59238776E-03 -6.23038757E-03
 -1.83200604E-04  1.20083964E-02  1.72382185E-02 -2.49005731E-02 -1.49762034E-02
 -9.62886006E-04 -1.99733359E-02 -3.84711075E-03  1.98691095E-02  2.77922230E-02
 -1.43093756E-02  3.49654824E-03  8.22396666E-03  1.29470626E-02 -2.17509441E-03
  1.38470196E-04  9.63798755E-04 -6.11836693E-04 -1.72524403E-03 -4.38819786E-04
  2.54912414E-03  5.90973620E-04  1.11187920E-03  1.42986050E-03 -1.28670704E-02
 -7.63190947E-03  1.55068611E-02  1.78379255E-02  3.66857006E-02 -7.27676526E-02
 -1.78702251E-02  4.39034404E-04  2.71593400E-02 -8.27315805E-02 -9.42891938E-03
  5.45855161E-03  2.14381819E-02 -6.68790874E-02 -2.42298981E-04  1.22283166E-02
  2.09770910E-02 -1.27393092E-03  1.06459408E-03  2.85788503E-03 -8.68255062E-04
  8.46219767E-05  1.39892480E-03 -3.43256129E-02 -9.74748070E-03 -9.76696213E-03
  8.54949636E-03 -6.36369194E-02  8.62605289E-02 -3.20290869E-02 -5.05740742E-02
 -9.01976641E-02  1.06290647E-01 -1.81339637E-02 -1.74701366E-02 -3.86254919E-02
  7.77149264E-02  1.16768934E-03 -6.93274391E-04  5.83523565E-04  5.92498468E-03
  3.06140116E-03  4.37482322E-04  3.02490837E-04  3.12513267E-03  1.48214035E-03
  9.67226697E-04 -2.85331873E-04  6.75711181E-04  3.06921875E-04  3.04432356E-04
  3.34533178E-04 -6.44426487E-04 -2.65181124E-04  2.71468829E-05 -4.20158896E-04
  3.09401866E-03  3.57863683E-03 -4.91757183E-03 -4.91850350E-03  1.61115366E-03
  1.02923325E-03 -2.54277725E-03  5.32512565E-03  7.48008304E-03 -1.44868254E-02
 -4.71347544E-03  7.37807334E-03  4.19597516E-03 -8.03126029E-03 -2.15580043E-03
  1.94399884E-03  1.30942514E-03 -1.88018836E-03 -9.31764555E-04  2.94244973E-04
  1.66152654E-04 -8.14976662E-04 -3.00930226E-04 -1.52853491E-05 -5.46209900E-04
  2.00772538E-03 -1.47068389E-04 -6.38069371E-03 -7.09355488E-03 -1.98849481E-04
  1.74487220E-03 -1.61325254E-02  3.10809301E-03  1.39902285E-03  1.75139487E-03
 -8.70719095E-03  8.35240082E-04 -1.75685416E-05 -1.39431093E-03 -1.86826776E-03
 -6.19864201E-04  4.62579948E-05 -1.65874615E-04 -3.62030214E-05 -6.94606930E-05
 -1.51816399E-03 -5.46526670E-04 -2.29142622E-04 -8.79346246E-03 -8.71022344E-03
  6.39167977E-04  7.65591325E-04  1.08700233E-03 -7.61004034E-04  3.50453353E-02
 -2.86811999E-03 -9.02781312E-04 -1.81849168E-03  1.88635226E-02 -2.09747717E-03
 -8.80623473E-04 -3.23494681E-03  4.05720638E-03  9.36105467E-05 -5.23902436E-03
 -6.00579264E-03 -4.08450334E-03  1.00504454E-04 -3.67894793E-03 -1.63808704E-03
 -3.28420587E-03  1.08994410E-03 -1.35893361E-04  6.75711181E-04 -6.63913078E-04
  1.60832653E-04 -4.75370016E-04 -1.99119878E-04  5.76696131E-04 -1.21805094E-04
 -1.48055319E-04  3.28768356E-04 -1.56124292E-03 -4.62271211E-04  1.40887327E-03
  3.59691917E-03 -6.49975241E-03 -4.43245451E-03  9.37326416E-04 -4.99274988E-03
 -9.96629432E-03  1.27777662E-02  7.64776564E-03 -6.28180858E-03 -5.20522525E-03
  6.69950592E-03  4.26411052E-03 -4.53520921E-03 -1.52390165E-03  2.58381480E-03
  8.68733983E-04 -8.98603231E-04  2.99694279E-04  9.73689563E-04  1.99037906E-04
  9.41334216E-05  6.64350189E-04 -1.87924470E-03 -2.58719342E-03  7.69234157E-03
  8.70248813E-03  5.15407182E-03 -1.06765698E-02 -3.02200199E-03 -2.03805886E-02
 -1.93054925E-03 -1.16592329E-02 -2.13882587E-03 -9.13731963E-03  1.30758838E-03
 -7.22323228E-03 -8.69470772E-04 -4.67192473E-04  3.56452462E-03 -1.26752741E-03
 -3.15715704E-04  1.90094782E-03 -1.68058659E-04 -2.87072151E-05  1.51656022E-04
 -1.27523666E-02 -8.39074421E-03  3.96367773E-03  7.25487882E-03 -1.08128196E-02
  1.60990109E-02 -9.68958981E-03  2.36911892E-02 -1.75124519E-02  1.95521235E-02
 -5.53091854E-03  1.39651745E-02 -8.06676227E-03  1.18370058E-02 -1.34794782E-03
  5.06455472E-03 -1.00704985E-03 -3.47541479E-03 -6.32904837E-04 -3.11893047E-03
 -9.85922764E-03 -4.16877076E-03 -4.15639392E-04 -1.40485463E-03 -5.36821421E-03
 -9.40499766E-04 -3.06921875E-04 -1.60832653E-04 -1.07192516E-03 -2.43013640E-04
 -2.09320101E-04  6.53426683E-04  1.24549566E-04  1.44861370E-04  5.80510678E-04
 -3.18657026E-03 -2.22937113E-03  5.80289096E-03  6.09497533E-03 -2.40958166E-03
 -1.50136809E-03 -2.20456559E-04 -5.43600475E-03 -1.51352307E-03  5.39229616E-03
  8.80649361E-03 -1.69493956E-03  9.15161444E-04  2.40446446E-03  4.20863663E-03
  4.54531002E-03  1.03546372E-03  7.05772914E-05  1.24732682E-03 -4.56026697E-04
 -1.03503862E-04  7.01281537E-04  2.05039454E-04 -1.79826110E-04  9.01316093E-04
 -2.97054133E-03 -1.62069217E-03  6.16890062E-03  7.56588572E-03  6.19948400E-03
 -1.22672470E-02 -1.35510486E-03 -5.11807147E-03 -1.52966542E-02 -1.60075302E-02
 -4.01286031E-04 -1.12035788E-03 -6.53481124E-03 -1.33320446E-02  1.08788775E-03
  1.21646247E-03  2.71878763E-04 -2.28930258E-04  5.53739173E-04 -1.65274117E-04
 -1.35892652E-04 -1.90531444E-05  1.50457142E-03 -6.46978317E-03 -1.46245094E-03
 -1.20790168E-02 -8.06484706E-03 -1.19649149E-02  1.74239296E-02 -5.63781041E-03
 -1.26331784E-02  1.09436034E-02  2.10390928E-02 -3.10983117E-03 -5.27855647E-03
  7.12256893E-03  9.49599157E-03 -7.77660151E-04  8.04676709E-04  3.22798068E-03
 -1.05202006E-04  2.67178223E-04  2.87741912E-04 -2.87580131E-05 -3.24409040E-04
 -4.54966874E-04 -4.77534841E-04  4.28145192E-04 -4.49273695E-04 -1.46817814E-03
 -3.04432356E-04  4.75370016E-04 -2.43013640E-04  5.63728050E-05  1.42890772E-05
 -9.48167782E-06  5.93329675E-05  2.78250480E-05 -3.89367978E-05 -1.17666556E-04
 -4.55977416E-04  4.68832948E-06 -1.56580491E-04  3.68403182E-04  7.88252958E-04
 -4.00512822E-04  4.95387702E-04 -2.59682845E-04 -1.05981454E-03 -4.89754709E-04
  1.68972139E-03  7.18402508E-04 -8.46833325E-04 -7.87842491E-04  3.31642774E-03
  4.60726499E-04 -8.41259365E-04 -7.26385266E-04  1.97665844E-04 -1.66317966E-04
 -1.14866578E-04  2.06895056E-04  8.37683421E-05 -1.18873885E-04  1.25359896E-03
  1.76027953E-03 -8.54693492E-04 -1.31232311E-03  2.11710237E-03 -4.82146410E-03
  1.72142011E-03  6.66824510E-03  4.29342126E-03 -5.61255271E-03  1.33000568E-03
  3.50022504E-03  2.03246510E-03 -4.52930187E-03  9.55224612E-04  1.47107353E-03
  6.99258862E-04  4.78314625E-04  3.49532660E-04 -5.77981603E-04  2.45902170E-04
  1.75924063E-04  1.10408563E-04  2.47307772E-03  4.24280543E-03 -2.60176061E-03
 -2.32838910E-03 -1.63743827E-02  9.05497164E-04 -7.82760666E-03 -1.96112009E-02
  1.57745404E-03  2.52170319E-03 -3.97574887E-03 -9.79662021E-03  1.27182419E-03
  3.57784804E-03 -6.01254783E-04 -9.87529503E-04  9.92724248E-04  1.30872308E-03
  1.85625280E-05 -1.36185499E-04 -1.73905060E-05  1.98341510E-05 -1.03279555E-03
 -7.03653257E-04 -2.74496868E-04  2.92640896E-04 -8.79091517E-04 -3.44283201E-04
 -3.34533178E-04  1.99119878E-04 -2.09320101E-04  1.42890772E-05  6.34731087E-05
 -3.50566864E-05 -8.48502311E-05  8.34762396E-05 -3.27015423E-05  2.00961741E-04
  4.90504172E-04  2.46718192E-04 -4.66525437E-05 -1.27840513E-04 -1.37269519E-04
 -1.05620293E-03  1.66025453E-03  3.60576952E-03 -3.14531626E-03 -8.12552723E-04
  2.40766988E-03  1.94910756E-03 -1.65459697E-03 -4.29150941E-04  1.57051578E-03
  5.66441776E-04 -6.03298041E-04 -8.33365106E-05  1.80176459E-04 -1.32194301E-04
 -1.67747995E-04 -9.35611213E-05 -4.55672475E-05  3.55022279E-06 -1.15481465E-04
 -4.61616848E-05 -9.27530276E-04 -1.23025108E-03 -8.16798228E-04  8.20168048E-04
 -2.29294682E-04  6.86539980E-03 -3.14264823E-03  4.70992023E-04  1.48558015E-05
  3.39955011E-03 -1.82074925E-03 -6.01325042E-04  1.44522758E-04  5.02712256E-04
 -6.44423012E-04  3.40172728E-04  7.84683241E-05 -4.69718401E-04 -9.96811735E-05
 -4.92832680E-05  2.37499237E-04  2.30370460E-03  1.51011838E-03 -4.09356663E-03
 -3.56741057E-03 -1.54343218E-02 -9.56732501E-04  5.02356131E-03 -4.08928784E-03
  1.63986832E-03 -1.33646287E-04  2.65855948E-03 -2.37777537E-03  9.19109499E-04
 -7.71898523E-04  5.28645326E-04 -7.99939135E-04  1.30801199E-04  2.72560548E-04
  3.82164465E-04  2.33153844E-05 -3.22303411E-05  1.47295015E-04  5.22376698E-04
  2.16865292E-03  1.45388269E-03  8.05895699E-04 -5.43737151E-04  1.84143353E-03
  2.04837423E-03  6.44426487E-04 -5.76696131E-04  6.53426683E-04 -9.48167782E-06
 -3.50566864E-05 -5.94431486E-05  3.05260307E-05 -1.09934926E-04 -9.76271376E-06
  1.21544659E-04  1.86254410E-04 -9.92447088E-04 -6.36262758E-04  2.22148548E-04
 -1.13352206E-04  5.46066118E-04 -1.37601349E-03 -2.34869914E-03  2.33332669E-03
  3.31366624E-04 -3.67991315E-03 -2.20176577E-03  1.51169624E-03  6.62719939E-04
 -5.33124245E-03 -1.09794365E-03  9.66308049E-04  3.90539478E-04 -1.88652473E-04
  2.38973399E-04  1.39957694E-04 -9.96446142E-05  6.41669094E-05 -1.00095854E-04
 -5.14632330E-04 -9.00902123E-04  3.91149850E-04  6.29514096E-04 -2.91376001E-03
  4.17367272E-03 -6.25726115E-04 -8.94055313E-03  5.30497242E-03  5.41309051E-03
 -8.86798035E-04 -4.64303207E-03  3.03835104E-03  4.28092391E-03 -1.02580839E-03
 -1.24164108E-03  8.99803769E-04 -5.85575309E-04 -4.06300295E-04  9.87257946E-04
 -6.61116682E-05 -1.08760897E-04 -6.36018415E-04 -2.50924159E-03 -3.93847672E-03
  8.71386934E-03  7.36561447E-03 -1.49190800E-02 -2.05778553E-03  3.10306297E-03
  1.84249069E-02 -9.27076082E-03 -1.64065855E-03  1.46886377E-03  9.49141913E-03
 -5.26515781E-03 -1.03291601E-03  1.57602414E-04  1.60584164E-03 -1.26836041E-03
 -9.85804312E-04 -2.43374181E-04  1.53470748E-03  2.48164356E-04 -4.07624116E-04
  1.11033810E-04  8.00331220E-04  7.20704009E-04 -1.05169464E-03  1.27780500E-04
  3.45349860E-04  6.35065233E-04 -7.96157722E-04  2.65181124E-04  1.21805094E-04
  1.24549566E-04  5.93329675E-05 -8.48502311E-05  3.05260307E-05  9.55146566E-05
 -1.05215960E-04  7.99811877E-05 -1.66196232E-04 -4.99992611E-04 -3.50296910E-04
  3.21029617E-04  3.82301400E-04  7.58094053E-04  1.52302338E-03 -3.26300851E-03
 -4.81892494E-03  5.46009353E-03  1.80811108E-03 -5.47057117E-03 -3.15029720E-03
  3.37693525E-03  6.36361259E-04 -2.85989722E-03 -1.32115423E-03  9.94031825E-04
  1.93970431E-04  2.37396722E-05 -3.94435562E-06  1.96072341E-04  1.98211984E-04
  2.78564233E-06  1.98252943E-04  1.70929177E-04  1.40678799E-03  1.77926853E-03
  2.33788661E-03 -9.27304243E-05 -8.16709877E-05  8.35708718E-03 -1.63116234E-04
  3.20782875E-04  6.77855300E-04  4.38270084E-03  3.36529282E-04  5.84569454E-04
  2.91851950E-03  6.71543784E-04  7.74266355E-04  1.92509992E-04  1.72927845E-04
 -1.68501795E-04  1.00789583E-04  9.90871936E-04  3.97629120E-04 -3.41106381E-06
  5.69637948E-03  5.62323892E-03  3.04817792E-04  1.21385253E-04  2.83588456E-05
 -1.25960307E-04 -2.47285432E-02  5.63080743E-03 -4.32806942E-03  8.35621941E-05
 -1.30583041E-02  3.09653733E-03 -2.19511035E-03  1.95388158E-03 -2.58182137E-03
  1.11014462E-03  3.44681948E-05  2.25097683E-04 -4.07854513E-04  1.72862679E-04
  1.85866072E-03 -1.26216601E-04  3.57792524E-04  1.25201667E-04 -1.18086837E-03
 -3.00360670E-04 -8.41495927E-05 -9.34046584E-05 -5.41575264E-04 -3.23552328E-04
 -3.73535503E-04  2.71468829E-05 -1.48055319E-04 -1.44861370E-04 -2.78250480E-05
 -8.34762396E-05  1.09934926E-04  1.05215960E-04 -2.58662298E-05  4.92126672E-05
 -7.20314099E-04 -9.98082142E-04  7.08570426E-04  6.19387683E-04 -1.07732613E-05
  2.30309016E-04  6.35862078E-04 -1.27818560E-03 -2.96245840E-03  3.08952913E-03
  3.43755749E-04 -8.58225163E-04 -1.31422760E-03  1.47714510E-03  1.01542891E-04
  9.95513873E-04 -1.78822622E-04  1.12416969E-04  5.22667198E-05  7.78772305E-05
 -1.05086143E-04  1.08205123E-04  1.71169929E-04  7.18735949E-07  4.04402334E-05
  5.17322088E-04  1.09805390E-03  7.57065556E-04  7.05546876E-04 -2.19239065E-05
 -2.14416209E-04  6.94772621E-03  4.68109901E-04 -2.78975233E-04 -2.51813821E-04
  3.59586982E-03  3.92635586E-04 -2.69702049E-04  3.10172559E-04  7.78281966E-04
  1.19404454E-04 -3.79304556E-04  2.23351939E-04  1.00266174E-04 -2.10733781E-04
  3.77479227E-04  3.49020326E-05  9.75091354E-05  4.17789911E-03  3.51443331E-03
 -8.51140029E-04 -1.10461533E-03  9.91178759E-05 -2.03567984E-04 -1.15082366E-03
 -4.43216165E-03  3.44712815E-03 -3.18659164E-04 -7.56565208E-04 -2.31934839E-03
  1.81146775E-03 -4.29439347E-04 -3.87102463E-04 -4.32745402E-04  2.44567462E-04
  2.82489988E-04  4.65096114E-05 -3.13168816E-04  1.25916377E-04  2.07248799E-04
  1.86464210E-04 -3.72045884E-04 -5.81863210E-04  7.71233891E-04 -1.25093859E-03
 -1.45849096E-03 -6.68657027E-04  1.08727360E-03 -1.13208380E-03 -1.59238776E-03
 -4.20158896E-04  3.28768356E-04 -5.80510678E-04  3.89367978E-05  3.27015423E-05
  9.76271376E-06 -7.99811877E-05  4.92126672E-05  2.07194258E-05  4.91879122E-04
  2.90161118E-04  1.28505246E-04  2.08025646E-04 -2.59072192E-04 -1.49815461E-04
 -2.61867650E-04  3.51842607E-04  1.92934370E-03 -1.79162279E-03 -7.77165240E-06
  8.09086765E-04  8.31413062E-04 -3.38347715E-04 -3.34339970E-04  2.22543996E-03
  4.10871857E-04  2.91133988E-04  2.07184404E-04  8.30959258E-05  5.39495623E-05
 -1.43939164E-04 -2.09275593E-04 -1.50419847E-04  2.08334613E-04 -3.37592650E-04
 -4.00194414E-04  5.38129432E-05  5.16883748E-04 -4.39806065E-03  8.21096369E-03
  6.09904931E-04 -1.83533932E-03 -9.02572280E-03  8.10118589E-03  5.83412107E-04
 -8.07120924E-04 -4.93162351E-03  4.57176201E-03  2.41218310E-04 -6.92376381E-04
 -2.63823113E-03  5.14339270E-05  1.29003416E-04 -5.31388965E-04  1.80394772E-04
  9.11983850E-05  4.36097880E-04  2.93788014E-03  1.14655029E-03 -2.27269873E-03
 -4.58530641E-03  1.34411951E-03 -2.67962460E-03 -4.36967517E-03 -1.23431294E-03
  1.88251243E-02 -3.92986308E-03 -2.09818599E-03 -1.39676917E-03  8.96594166E-03
 -5.83504930E-03 -3.47965267E-04 -1.33479453E-03  2.35928268E-04  1.95368740E-04
  1.33951912E-04 -5.62742730E-04  5.39334567E-05  2.00976689E-04  1.09684736E-03
 -1.64362678E-03  3.74727416E-03 -2.35308381E-04 -5.38804694E-03 -6.58510120E-03
  4.37434648E-03 -3.71734564E-03 -1.35491101E-03 -6.99341602E-03 -6.23038757E-03
 -3.09401866E-03  1.56124292E-03 -3.18657026E-03 -1.17666556E-04  2.00961741E-04
  1.21544659E-04 -1.66196232E-04  7.20314099E-04 -4.91879122E-04 -1.48407044E-04
  1.27150280E-05  2.99541633E-03 -1.33264844E-03 -1.13672578E-03 -8.24034108E-04
 -8.63047371E-03  1.71989538E-02  2.23978369E-02 -2.47862893E-02 -5.88135577E-03
  4.28586256E-02  2.19576272E-02 -1.97566464E-02 -2.63948476E-03  3.93187306E-02
  1.00042347E-02 -9.31362995E-03 -6.16142076E-03  9.30615019E-04 -1.17040122E-03
 -1.16101871E-03  8.73348485E-05  5.32271938E-04 -1.64814203E-03  2.97604101E-03
  4.01308214E-04 -8.91704376E-03 -1.75173678E-02  7.85450345E-03 -1.72472103E-02
 -1.39148151E-02  2.57804252E-02  1.29167887E-02 -3.45335494E-02 -7.07033219E-03
  1.58764993E-02  7.10996029E-03 -6.20426822E-02  6.78843094E-04  7.58566077E-03
  7.73436952E-03  9.56082298E-04  3.84008773E-03 -3.02359683E-03 -5.13742423E-03
 -2.94702604E-03  2.63506946E-03 -1.05206433E-02 -9.76914475E-03 -1.52606094E-02
 -1.49776911E-02 -5.23828304E-02  9.83116007E-02  1.91216280E-01 -1.75312266E-01
  2.63057569E-02  1.03431924E-01  9.95818754E-02 -9.01242837E-02  1.59116198E-02
  3.29333643E-02  1.84712538E-02 -1.09532209E-02  9.90762093E-03  5.68938614E-03
  4.50253139E-03 -8.05910322E-03 -1.50024955E-02  1.27075319E-03 -1.30355566E-03
  2.06902633E-01 -2.88496267E-03  5.43061375E-03 -2.99527949E-03 -1.10665409E-02
 -1.25904435E-02  6.25745970E-03 -5.02305210E-03 -3.88236168E-03 -9.58752972E-03
 -1.83200604E-04 -3.57863683E-03  4.62271211E-04 -2.22937113E-03 -4.55977416E-04
  4.90504172E-04  1.86254410E-04 -4.99992611E-04  9.98082142E-04 -2.90161118E-04
  1.27150280E-05  8.07174940E-04  8.68436181E-03  1.78845534E-03 -3.94077236E-03
 -4.19204017E-03 -9.11622679E-03  2.08848067E-02  3.33368322E-02 -3.72308575E-02
 -1.31370993E-02  4.11401311E-02  2.53014038E-02 -2.46235655E-02 -6.61225061E-03
  3.18261713E-02  1.06219303E-02 -1.03631528E-02 -4.09117848E-03  1.04056971E-03
 -1.26729344E-03 -1.52047674E-03 -5.04996123E-04  5.09669171E-04 -1.84818036E-03
  1.57225596E-03 -2.01745051E-03 -1.50291039E-02 -2.10209133E-02  9.09150409E-03
 -1.80487879E-02 -3.02660671E-02  4.43066325E-02  1.91275003E-02 -2.66752804E-02
 -1.44664301E-02  2.06793433E-02  6.38345066E-03 -3.95012991E-02  5.26744684E-04
  3.31091642E-03  2.27566868E-03  1.72206994E-03  2.66510595E-03 -3.69132903E-03
 -4.88455787E-03 -2.12274539E-03  6.69086411E-04 -1.25116686E-02 -9.68542301E-03
 -1.63990967E-02 -1.36448952E-02 -2.68638329E-03  1.70590827E-02  1.47264053E-01
 -1.30573902E-01  2.37737990E-02  1.83662656E-02  7.74371324E-02 -6.74678837E-02
  1.43472840E-02  5.82197224E-03  1.52646259E-02 -1.22230732E-02  4.19406423E-03
  3.77198139E-03  3.75344088E-03 -6.22819639E-03 -1.20381982E-02  6.55157849E-04
 -1.38642357E-04  1.38206959E-01  1.04743161E-01  8.36201130E-04 -5.69796079E-05
  8.86927870E-04  1.21459119E-03  1.24436881E-03 -8.80080961E-03 -3.57875218E-03
  4.39010306E-03  7.33362919E-04 -2.49005731E-02 -1.61115366E-03  6.49975241E-03
 -2.40958166E-03  3.68403182E-04 -1.27840513E-04  2.22148548E-04  3.82301400E-04
  1.07732613E-05  2.59072192E-04 -1.13672578E-03 -3.94077236E-03 -6.97362405E-05
  3.00421859E-03  1.46707892E-03  5.47942467E-03  4.77223098E-03 -1.07322619E-02
 -6.32099954E-03  1.64826277E-02  3.26421152E-03 -1.74156350E-02 -1.50424965E-03
  1.13607032E-02 -4.06823754E-03  6.92157127E-03 -3.16469654E-03  2.79489201E-03
 -7.10163227E-03  2.67682985E-04 -4.30632826E-04  2.69531026E-04  9.74428951E-04
  5.19199654E-04  5.36231384E-04 -1.32851018E-03  7.82060738E-03  3.38401094E-03
  5.67152491E-03  6.95085861E-03 -1.75847498E-02  1.94358233E-02  2.38720702E-02
  1.58758367E-02 -2.84729218E-02  1.50450800E-02  1.95751370E-02  1.57087077E-02
 -3.36241780E-02  5.63292485E-03  1.96661603E-02  1.21058262E-02  1.70203060E-03
  2.25406022E-03 -2.09887226E-03  5.95047847E-03  4.02818608E-03  2.60990225E-03
  2.66565662E-02  4.17399204E-02 -1.14079167E-02 -1.58502177E-02 -5.20183966E-02
  9.68860330E-02 -2.28405313E-01 -1.23934275E-01 -1.17402008E-02  1.06581235E-01
 -1.19061982E-01 -6.02606815E-02 -3.59743281E-03  6.75875337E-02 -2.02919899E-02
  3.97169072E-03  1.30235583E-02  1.14075482E-02 -1.59906678E-03 -7.99690218E-03
  1.30037141E-02  2.25645756E-03  1.28889883E-03 -2.08196829E-02 -3.92236767E-02
  2.06591238E-01  1.18390133E-03 -6.66111082E-04  3.57820679E-03  6.14300173E-03
 -2.01356828E-03 -9.01297748E-03 -2.06962153E-03  6.28624176E-03 -1.68115468E-03
 -1.49762034E-02 -1.02923325E-03  4.43245451E-03 -1.50136809E-03  7.88252958E-04
 -1.37269519E-04 -1.13352206E-04  7.58094053E-04 -2.30309016E-04  1.49815461E-04
 -8.24034108E-04 -4.19204017E-03 -1.29090634E-03  4.63322590E-04  5.47942467E-03
  9.52133532E-03  4.25376226E-03 -1.01192348E-02 -1.84252419E-02  9.40218439E-03
  4.61005496E-03 -1.38426693E-02 -8.05066737E-03  6.51929931E-03 -2.77817152E-03
  7.58418707E-03 -3.16432014E-03 -6.26770898E-04 -4.08740914E-03  1.63440050E-03
 -9.99031094E-04 -2.84672550E-04  1.87596746E-03  4.28391324E-04  2.19464871E-04
  9.36272506E-03  1.76680178E-02  3.14293161E-04  6.41063247E-04  9.18023724E-03
 -2.00382360E-02  4.34975031E-02  4.36454373E-02  2.37933037E-02 -2.15317342E-02
  2.61230535E-02  2.47852767E-02  1.30539905E-02 -9.55676275E-03  8.27178935E-03
  1.33230597E-02  3.79478558E-03  3.82511933E-03  1.29535988E-03 -3.57015426E-03
  6.21082453E-03  3.13649087E-03  8.76027147E-04  4.37795580E-02  5.27960249E-02
 -1.49907959E-02 -1.70717675E-02 -5.31944243E-04  1.22688058E-02 -1.74513474E-01
 -9.65975516E-02 -2.68147599E-03  1.55428205E-02 -9.07584078E-02 -4.77958482E-02
  7.07799768E-04  2.85247174E-02 -1.62516935E-02 -1.77519542E-03  6.29952939E-03
  8.65438156E-03 -9.59224092E-04 -6.48432460E-03  1.04685209E-02  2.33655913E-03
  2.10423826E-03 -3.73624040E-02 -3.44113598E-02  1.38291639E-01  1.07478538E-01
  1.70411754E-03 -5.53328603E-03 -6.33704061E-04  7.23125912E-03  1.25905001E-02
  4.41059146E-03  6.78593015E-03 -4.31869398E-03  1.29664382E-02  1.20083964E-02
  4.91757183E-03 -1.40887327E-03  5.80289096E-03  4.68832948E-06  2.46718192E-04
 -9.92447088E-04 -3.50296910E-04 -7.08570426E-04 -1.28505246E-04  2.99541633E-03
  8.68436181E-03 -7.59888753E-03 -4.77138897E-03 -6.97362405E-05 -1.29090634E-03
  3.36192325E-03 -4.30647715E-03 -9.92693029E-03  5.43128398E-03  4.12963320E-03
 -2.38416831E-02 -1.29979700E-02  2.84242677E-03  7.63725712E-03 -4.84853478E-02
 -1.06702618E-02  4.23385440E-03 -6.03958447E-04 -3.61628617E-04  3.64871980E-04
  6.92707362E-04  1.93625696E-04  6.92701695E-04 -6.65101910E-04  4.72457001E-04
 -9.69022880E-04 -1.07707323E-04 -1.05887413E-03  6.58276501E-03 -1.75449442E-02
 -5.38458730E-03  7.99944246E-04  3.51474066E-02 -1.71950154E-02 -7.31497198E-03
  3.75820872E-03  2.80566404E-02 -1.65309845E-02 -9.97498212E-03  8.53930236E-03
  2.42931290E-02 -2.30021942E-03 -3.92996900E-03  8.09198595E-03 -1.00213338E-03
 -1.01298397E-03 -2.41289365E-03 -1.51524030E-02 -1.87778896E-02  2.67940552E-02
  4.21428344E-02 -5.23623762E-02  9.74439089E-02  3.72815672E-02  1.35026608E-01
 -2.20315956E-01  1.05901997E-01  1.67557769E-02  7.32226848E-02 -1.10907392E-01
  6.29095491E-02  2.34879512E-03  2.33827309E-02 -4.76857814E-03 -7.67078745E-03
 -2.32362256E-03  1.16639755E-02  1.93948396E-03 -3.62452956E-03 -1.25198311E-02
 -2.08856629E-02 -3.80563691E-02 -2.15065238E-02 -4.35640349E-02  2.06686365E-01
 -3.61862383E-04  8.81446099E-04  4.80264493E-03 -3.35888260E-04  1.35937407E-02
  1.23479674E-02  7.99471580E-03 -7.45135241E-03  1.29305765E-02  1.72382185E-02
  4.91850350E-03 -3.59691917E-03  6.09497533E-03 -1.56580491E-04 -4.66525437E-05
 -6.36262758E-04  3.21029617E-04 -6.19387683E-04 -2.08025646E-04 -1.33264844E-03
  1.78845534E-03 -4.77138897E-03 -4.29235138E-03  3.00421859E-03  4.63322590E-04
  1.90254915E-03 -4.00557171E-03 -1.13029476E-02  8.47649423E-03 -1.62533466E-03
 -1.98565808E-02 -1.14726264E-02  3.51146480E-03  3.58234700E-03 -4.06289762E-02
 -7.78253319E-03  2.39491830E-03  3.37932830E-04 -6.80080216E-04  5.03520284E-04
  8.17751396E-04  3.09858536E-04  9.48660748E-04 -1.55832948E-03  1.70035492E-05
 -1.57013466E-03 -2.71454119E-03 -3.94603183E-03  8.37540187E-03 -1.87133161E-02
 -8.40998655E-03 -9.45002543E-03  6.44986348E-02 -1.19334958E-02 -8.06911257E-03
 -6.16029197E-03  3.66494657E-02 -4.99420279E-04 -7.22878890E-03  5.10191120E-04
  1.80198234E-02 -2.19276934E-03 -3.23034895E-03  6.91122629E-03 -1.13043917E-03
 -8.59434383E-04 -4.97382406E-03 -1.94233821E-02 -2.00355987E-02  4.36045530E-02
  5.21846083E-02 -8.71381655E-04  1.34216621E-02  3.39798279E-02  1.09219976E-01
 -1.66283462E-01  1.66014867E-02  1.59868091E-02  5.94965588E-02 -8.40993711E-02
  2.80067761E-02  2.49007690E-03  1.55198297E-02 -8.18617584E-03 -6.93131117E-03
 -2.30817835E-03  1.02482845E-02  1.13515746E-03 -2.91912698E-03 -9.26193714E-03
 -3.83871346E-02 -3.40704249E-02 -4.41645584E-02 -4.22177091E-02  1.39485969E-01
  1.08697322E-01
Grdnt Energy                               R     -1.584177635040631E+02
Grdnt NVar                                 I               64
Grdnt IGetFC                               I                4
Internal Forces                            R   N=          64
  5.51458996E-08 -9.66592159E-08 -1.89919009E-07 -1.53953435E-08  5.55068930E-08
 -1.16565335E-07  6.10874380E-07  5.55068790E-08 -1.16565339E-07 -1.53953618E-08
  5.51458916E-08 -1.89919005E-07 -9.66592198E-08 -7.92236623E-08  8.59870803E-08
 -3.56626729E-07 -1.41923704E-08  4.19835105E-07 -5.66081647E-08 -2.34951298E-07
 -1.94487209E-07  5.57630293E-07  8.16684338E-08 -7.76653878E-08 -1.58466084E-07
 -7.76653810E-08 -1.58466082E-07  5.57630287E-07  8.16684315E-08 -2.34951294E-07
 -1.94487212E-07 -3.56626740E-07 -5.66081615E-08  4.19835109E-07  8.59870801E-08
 -7.92236570E-08 -1.41923716E-08 -3.18307627E-08  1.12448898E-07  8.00786697E-08
  2.83307721E-08  1.72610433E-07  1.40240204E-07 -1.94990369E-07 -5.07107079E-08
 -8.30809363E-08 -8.35393765E-09 -4.11119161E-08 -3.03246231E-08  1.36167428E-08
 -1.91412356E-08 -8.35394263E-09 -1.91412377E-08 -5.18992161E-08 -4.11119232E-08
  8.00786775E-08 -8.30809337E-08  1.40240210E-07 -3.18307617E-08 -1.94990373E-07
  2.83307711E-08  1.12448902E-07 -5.07107097E-08  1.72610434E-07
Internal Force Constants                   R   N=        2080
  3.52373718E-01  3.41524545E-03  3.53320375E-01  3.23270066E-03  3.24120345E-03
  3.48140557E-01  4.91811819E-03  4.96448272E-03  6.33088434E-03  2.96717596E-01
  5.65685852E-04  6.52576031E-04 -9.11905980E-04  6.09195380E-03  3.41087099E-01
  7.57166190E-04 -9.16765283E-04  5.76018671E-04  5.74073275E-03  4.00825720E-03
  3.43982744E-01 -5.37763265E-04 -1.67564666E-03  1.14886607E-03  1.03038838E-02
  6.39718896E-03  5.47386964E-03  2.96378775E-01 -1.11015052E-04 -2.61907053E-05
  3.87245356E-04  1.01461358E-03 -8.50296921E-04  6.71545581E-04  6.39718896E-03
  3.41087099E-01  2.87829709E-04  3.37310042E-05 -1.67400294E-04 -5.80293299E-04
  6.71545581E-04  7.72505135E-04  5.47386964E-03  4.00825720E-03  3.43982744E-01
 -5.04139647E-04  1.25475692E-04  3.54826972E-04  1.50439307E-03  1.01461358E-03
 -5.80293299E-04  1.03038838E-02  6.09195380E-03  5.74073275E-03  2.96717596E-01
  9.37461585E-05 -1.04733455E-04  8.46958193E-05 -5.04139647E-04 -1.11015052E-04
  2.87829709E-04 -5.37763265E-04  5.65685852E-04  7.57166190E-04  4.91811819E-03
  3.52373718E-01  8.46958193E-05 -1.07080165E-04 -1.51527328E-04  3.54826972E-04
  3.87245356E-04 -1.67400294E-04  1.14886607E-03 -9.11905980E-04  5.76018671E-04
  6.33088434E-03  3.23270066E-03  3.48140557E-01 -1.04733455E-04  1.34779998E-03
 -1.07080165E-04  1.25475692E-04 -2.61907053E-05  3.37310042E-05 -1.67564666E-03
  6.52576031E-04 -9.16765283E-04  4.96448272E-03  3.41524545E-03  3.24120345E-03
  3.53320375E-01  5.67343570E-03  6.13196737E-03  2.79504810E-04 -1.59549009E-02
  1.08222075E-04 -1.06627890E-03 -1.95647626E-03  4.92709135E-05 -3.31856970E-04
 -1.08382123E-03  1.79689283E-04 -1.61197003E-04 -1.36496664E-04  5.36887355E-02
  5.48715135E-03  2.05045045E-04  5.07690263E-03 -1.56794463E-02 -1.32262258E-03
  1.77177219E-04 -1.78649887E-04 -7.96099152E-04 -1.66700764E-04  1.58085883E-04
 -1.26221435E-05  8.44171985E-05 -2.22777493E-04  9.36942129E-03  5.25647653E-02
  4.40721370E-04 -5.39756152E-03 -5.86167634E-03  1.51156055E-02 -4.07733416E-04
 -9.22675750E-04  3.39398765E-03 -5.21325752E-05  1.44161894E-03 -7.56394855E-04
 -1.25883045E-05 -3.42433201E-06  7.92981220E-04 -4.12947149E-02 -4.02809188E-02
  1.03633536E-01  3.22006728E-04  5.66187202E-03  5.46343403E-03 -1.57921054E-02
 -1.05661074E-03 -1.20182462E-03  6.91558937E-04 -5.34589592E-04  3.22408337E-04
 -5.71531358E-04  6.98714238E-05 -2.10612318E-04  3.52868629E-05  9.36395092E-03
  9.60396897E-03  1.37698304E-02  5.34621200E-02 -5.70067900E-03 -3.15617523E-04
 -5.76550964E-03  1.45140173E-02 -1.11097764E-03  3.63259586E-03  1.09134686E-03
 -2.52093717E-04 -5.64566365E-04  2.39564519E-03 -2.60541508E-04  4.84605348E-04
 -4.09330827E-04 -4.11697162E-02  1.39106805E-02 -2.00655704E-02 -4.06253156E-02
  1.04596024E-01 -5.57412944E-03 -5.66230225E-03  1.43102998E-03  1.51726787E-02
  3.66110153E-03 -7.36101963E-04 -3.11453854E-03  1.51199756E-03 -7.08064618E-04
 -2.24167413E-04  4.88776005E-05 -2.09327942E-04 -7.65732135E-05  1.38928901E-02
 -4.10709419E-02 -1.94179060E-02 -4.15430341E-02 -2.03348917E-02  1.04503803E-01
 -1.41252235E-03  9.38958437E-04  2.86589187E-03  6.33495336E-03  2.02634740E-03
 -1.04395195E-03 -1.32023437E-02 -3.44527717E-04 -1.34306962E-03  3.08470990E-04
  3.38967338E-04 -3.86771349E-04  9.80137709E-04  4.01163707E-03 -1.69695806E-03
 -7.28473358E-03 -3.21421557E-03 -3.97026792E-03  1.20868364E-02  5.02332999E-02
 -1.69813611E-03  4.06421449E-03 -1.43300952E-04  7.01253434E-03 -1.02779289E-03
  1.76649389E-03 -1.40072796E-02  5.80158295E-04 -1.21492941E-03 -1.77635059E-03
 -3.14484438E-04 -1.08867309E-04  1.19197011E-03 -7.58123149E-04  3.04179441E-03
 -7.26477947E-03 -3.34277909E-03  1.04761316E-02 -2.21688957E-03  1.18204990E-03
  5.11127121E-02  4.85510379E-03 -6.08389746E-03 -2.08792907E-03  1.16137063E-02
 -4.03532530E-03 -3.65981047E-03  1.93018179E-02 -2.35010609E-03  4.59889275E-03
  1.18779899E-03 -6.56538457E-04  2.25422398E-04 -3.91208113E-03 -6.31775193E-03
 -3.32805511E-03  1.78464865E-02  5.34271713E-03 -4.25463549E-03 -9.49915129E-03
 -4.65585379E-02 -4.77461482E-02  1.49032409E-01  7.35825466E-04 -1.20114689E-03
 -6.99876371E-04 -2.55809766E-03  2.28841465E-03  2.45538146E-03 -1.04246039E-03
 -6.98697773E-04  6.89783414E-04  1.52147399E-04 -1.00144191E-04 -2.35792725E-04
 -5.87785649E-04 -8.78557979E-04 -4.14965977E-04  3.70997323E-03  1.46328641E-03
 -1.48839646E-03 -2.37603033E-03 -1.34143202E-02 -1.36345761E-02  3.40281588E-02
  1.90094180E-02 -1.48198818E-03  1.51520675E-03 -5.11658454E-04 -1.14166901E-02
  2.25580559E-03 -1.08530024E-03  4.39717357E-03  2.71341634E-03 -1.50301694E-03
 -1.85843978E-03 -2.04302205E-04  6.78369413E-04  8.83088562E-04  6.62845335E-04
  2.63096704E-03 -4.05149353E-03 -3.00643681E-04  4.25168482E-03 -3.03041318E-03
 -1.58532893E-02  2.60689766E-02 -4.70003072E-02 -1.32580253E-02  5.03312073E-02
 -1.22719985E-03  1.03652874E-03  6.38967040E-04 -1.19201500E-02 -1.13755120E-03
  1.96226817E-03  3.45076984E-03  1.88965633E-04 -1.44641656E-03  1.93834471E-03
  9.71316349E-04 -2.00977003E-04  1.63404104E-03  3.58351273E-03 -6.19640773E-05
 -3.71456574E-03 -1.41759665E-04 -4.87828515E-03  5.39194190E-03  2.60835125E-02
 -1.52557454E-02 -4.80448716E-02 -1.34011710E-02  1.58242210E-03  5.10435278E-02
 -2.04302205E-04  8.83088562E-04  6.78369413E-04 -1.85843978E-03  2.71341634E-03
 -1.50301694E-03  4.39717357E-03  2.25580559E-03 -1.08530024E-03 -1.14166901E-02
 -1.48198818E-03 -5.11658454E-04  1.51520675E-03  6.31882721E-04 -2.12320155E-04
  1.59929514E-04 -3.66684260E-05 -9.99517603E-04  4.76347143E-04 -1.80706167E-03
  5.60008433E-03 -8.50191244E-03 -1.54658194E-03  8.78307929E-03 -2.14992644E-03
  5.03312073E-02  9.71316349E-04  1.63404104E-03 -2.00977003E-04  1.93834471E-03
  1.88965633E-04 -1.44641656E-03  3.45076984E-03 -1.13755120E-03  1.96226817E-03
 -1.19201500E-02 -1.22719985E-03  6.38967040E-04  1.03652874E-03 -1.98344794E-04
 -9.56676508E-04  3.71512064E-03  7.16256755E-04 -2.53153928E-03 -7.65436233E-04
 -2.15213556E-03  1.05392122E-03  5.94739660E-03  1.62912198E-03 -2.14992644E-03
 -4.57358540E-03  1.58242210E-03  5.10435278E-02 -6.56538457E-04 -3.91208113E-03
  2.25422398E-04  1.18779899E-03 -2.35010609E-03  4.59889275E-03  1.93018179E-02
 -4.03532530E-03 -3.65981047E-03  1.16137063E-02  4.85510379E-03 -2.08792907E-03
 -6.08389746E-03 -1.69542495E-03  1.01618731E-03 -3.89681839E-03 -1.08136848E-03
  5.59112332E-03 -3.22270602E-05  1.45688687E-03 -1.14934209E-02  1.12102796E-02
  8.19322004E-04 -8.50191244E-03  5.94739660E-03 -4.70003072E-02 -4.80448716E-02
  1.49032409E-01 -1.00144191E-04 -5.87785649E-04 -2.35792725E-04  1.52147399E-04
 -6.98697773E-04  6.89783414E-04 -1.04246039E-03  2.28841465E-03  2.45538146E-03
 -2.55809766E-03  7.35825466E-04 -6.99876371E-04 -1.20114689E-03 -2.05737704E-04
  4.07891585E-04 -9.30879914E-04 -1.48614004E-04  9.81812050E-04 -1.01246232E-04
  7.65392647E-04 -1.71241837E-03  8.19322004E-04  4.08227160E-06 -1.54658194E-03
  1.62912198E-03 -1.32580253E-02 -1.34011710E-02  3.40281588E-02  1.90094180E-02
  3.38967338E-04  9.80137709E-04 -3.86771349E-04  3.08470990E-04 -3.44527717E-04
 -1.34306962E-03 -1.32023437E-02  2.02634740E-03 -1.04395195E-03  6.33495336E-03
 -1.41252235E-03  2.86589187E-03  9.38958437E-04  3.76553437E-04 -2.59090942E-04
  1.37766291E-03  5.51375607E-04 -1.72805278E-03 -2.80343407E-04  7.45078167E-05
  1.61945313E-03  1.45688687E-03  7.65392647E-04 -1.80706167E-03 -2.15213556E-03
 -1.58532893E-02  2.60835125E-02 -4.65585379E-02 -1.34143202E-02  5.02332999E-02
 -3.14484438E-04  1.19197011E-03 -1.08867309E-04 -1.77635059E-03  5.80158295E-04
 -1.21492941E-03 -1.40072796E-02 -1.02779289E-03  1.76649389E-03  7.01253434E-03
 -1.69813611E-03 -1.43300952E-04  4.06421449E-03  1.17161314E-03 -3.07490509E-05
 -2.50040688E-04  5.24844555E-05 -1.57441326E-03  6.94858289E-04  1.61945313E-03
  5.47367501E-03 -1.14934209E-02 -1.71241837E-03  5.60008433E-03  1.05392122E-03
  2.60689766E-02 -1.52557454E-02 -4.77461482E-02 -1.36345761E-02  1.18204990E-03
  5.11127121E-02 -1.25883045E-05  7.92981220E-04 -3.42433201E-06 -7.56394855E-04
 -5.21325752E-05  1.44161894E-03  3.39398765E-03 -4.07733416E-04 -9.22675750E-04
  1.51156055E-02  4.40721370E-04 -5.86167634E-03 -5.39756152E-03 -1.64837217E-05
 -1.41843249E-04  4.41000564E-04 -5.87917252E-05 -3.83733367E-04  1.48528403E-04
  1.37766291E-03 -2.50040688E-04 -3.89681839E-03 -9.30879914E-04  1.59929514E-04
  3.71512064E-03 -4.05149353E-03 -3.71456574E-03  1.78464865E-02  3.70997323E-03
 -7.28473358E-03 -7.26477947E-03  1.03633536E-01  4.88776005E-05 -7.65732135E-05
 -2.09327942E-04 -2.24167413E-04  1.51199756E-03 -7.08064618E-04 -3.11453854E-03
  3.66110153E-03 -7.36101963E-04  1.51726787E-02 -5.57412944E-03  1.43102998E-03
 -5.66230225E-03  1.65739081E-05  2.18744718E-04  1.48528403E-04  1.77942686E-04
 -1.23079603E-05 -5.25771121E-04 -2.80343407E-04  6.94858289E-04 -3.22270601E-05
 -1.01246232E-04  4.76347143E-04 -7.65436233E-04 -3.03041318E-03  5.39194190E-03
 -9.49915129E-03 -2.37603033E-03  1.20868364E-02 -2.21688957E-03 -1.94179060E-02
  1.04503803E-01 -2.60541508E-04 -4.09330827E-04  4.84605348E-04  2.39564519E-03
 -2.52093717E-04 -5.64566365E-04  1.09134686E-03 -1.11097764E-03  3.63259586E-03
  1.45140173E-02 -5.70067900E-03 -5.76550964E-03 -3.15617523E-04 -1.21758357E-03
 -1.80733073E-04 -3.83733367E-04 -3.50963947E-04  2.04889896E-03 -1.23079604E-05
 -1.72805278E-03 -1.57441326E-03  5.59112332E-03  9.81812050E-04 -9.99517603E-04
 -2.53153928E-03  4.25168482E-03 -4.87828515E-03 -4.25463549E-03 -1.48839646E-03
 -3.97026792E-03  1.04761316E-02 -2.00655704E-02 -2.03348917E-02  1.04596024E-01
 -1.26221435E-05 -2.22777493E-04  8.44171985E-05  1.58085883E-04 -7.96099152E-04
 -1.66700764E-04 -1.78649887E-04 -1.32262258E-03  1.77177219E-04 -1.56794463E-02
  5.48715135E-03  5.07690263E-03  2.05045045E-04  1.20587276E-04 -7.43899338E-05
 -1.41843249E-04  6.29644827E-05 -1.80733073E-04  2.18744718E-04 -2.59090942E-04
 -3.07490509E-05  1.01618731E-03  4.07891585E-04 -2.12320155E-04 -9.56676508E-04
  2.63096704E-03 -6.19640774E-05 -3.32805511E-03 -4.14965977E-04 -1.69695806E-03
  3.04179441E-03 -4.02809188E-02 -4.10709419E-02  1.39106805E-02  5.25647653E-02
  1.79689283E-04 -1.36496664E-04 -1.61197003E-04 -1.08382123E-03  4.92709135E-05
 -3.31856970E-04 -1.95647626E-03  1.08222075E-04 -1.06627890E-03 -1.59549009E-02
  5.67343570E-03  2.79504810E-04  6.13196737E-03  9.03381794E-04  1.20587276E-04
 -1.64837217E-05  2.63488056E-04 -1.21758357E-03  1.65739081E-05  3.76553437E-04
  1.17161314E-03 -1.69542495E-03 -2.05737704E-04  6.31882721E-04 -1.98344794E-04
  6.62845335E-04  3.58351273E-03 -6.31775193E-03 -8.78557979E-04  4.01163707E-03
 -7.58123149E-04 -4.12947149E-02  1.38928901E-02 -4.11697162E-02  9.36942129E-03
  5.36887355E-02  6.98714238E-05  3.52868629E-05 -2.10612318E-04 -5.71531358E-04
 -5.34589592E-04  3.22408337E-04  6.91558937E-04 -1.05661074E-03 -1.20182462E-03
 -1.57921054E-02  3.22006728E-04  5.46343403E-03  5.66187202E-03  2.63488056E-04
  6.29644827E-05 -5.87917251E-05 -8.10913378E-05 -3.50963947E-04  1.77942686E-04
  5.51375607E-04  5.24844555E-05 -1.08136848E-03 -1.48614004E-04 -3.66684260E-05
  7.16256755E-04 -3.00643681E-04 -1.41759665E-04  5.34271713E-03  1.46328641E-03
 -3.21421557E-03 -3.34277909E-03  1.37698304E-02 -4.15430341E-02 -4.06253156E-02
  9.60396897E-03  9.36395092E-03  5.34621200E-02 -3.36331692E-04  4.43497104E-03
 -3.52607389E-03  1.73565278E-03  1.30140568E-04  3.15427257E-03 -7.92742280E-03
 -7.74487944E-04 -3.52244773E-04  4.38521096E-04  1.19800657E-04 -3.80111255E-04
  1.93658205E-04  6.58047505E-03 -6.03110318E-03 -1.90031039E-03 -8.47670357E-04
  5.32752774E-03 -3.21979663E-03  8.13785474E-03  4.63188471E-03 -5.92104948E-03
  3.84793494E-03 -9.74013933E-03 -3.90331066E-04 -1.38870660E-03  1.29649284E-04
  1.15210722E-04  2.09662502E-04  7.75205671E-04  1.64262929E-04  1.59743464E-04
 -8.32412869E-05 -3.44963533E-04  4.01784062E-05  1.53338468E-04  9.09320562E-05
  1.48122050E-02  5.36763879E-04  3.04635093E-03 -4.21643935E-03 -2.72904958E-03
 -3.17478574E-03 -2.07465478E-04  8.68571288E-03 -7.05305532E-05  2.63296990E-04
  1.08878532E-03  2.27571718E-04  1.82204162E-04 -3.27215329E-04  5.80858477E-03
 -6.30185772E-03  1.85849795E-03  1.09713648E-03  3.41206147E-03 -5.90897771E-03
 -4.67866102E-03 -8.62173265E-03  6.46074688E-03 -3.70603628E-03  3.24391351E-04
  9.67309162E-03 -1.68832533E-03 -1.21304753E-03  4.82396162E-03  7.44492381E-04
 -1.10320160E-03 -1.79179346E-03  6.44228614E-04 -1.97695373E-04  3.40154944E-04
 -2.86412520E-04 -4.75232122E-04 -7.04808526E-05  2.99094763E-03  1.49568265E-02
  6.30223943E-05  2.88529451E-03 -3.52497782E-03 -3.42117647E-04  1.74236811E-03
 -1.52989981E-03  1.36672236E-03  8.52108118E-04 -1.05604644E-04 -9.12978984E-04
 -3.47514521E-04  3.66327033E-04 -6.44788561E-04  6.02118151E-03 -6.17474959E-03
 -1.65281932E-04  9.08844162E-05  4.97001749E-03 -4.81738043E-03 -7.57856565E-03
  6.21432512E-03  2.04909008E-03  3.72465598E-04  1.11546779E-02 -1.23410608E-02
  2.75345578E-03 -1.21252468E-04 -2.05554235E-03 -6.59043949E-04 -4.96063184E-04
  6.52394918E-04 -1.30922477E-03  3.03270940E-04  9.52168064E-04  2.76678991E-04
  7.58336142E-05 -2.97364805E-04  4.13846985E-03  4.43280244E-03  1.43782359E-02
 -3.99464520E-03  5.36355613E-04  3.99366376E-03  1.91986468E-03  1.01910054E-03
  2.68662548E-03 -8.48873220E-03 -6.31619074E-04 -5.31190644E-04  7.13875474E-04
  7.59177434E-05 -4.99854384E-04  1.03372393E-04 -5.72076634E-03  1.02609965E-04
 -6.46156663E-03  5.28499016E-03  7.25701725E-04  6.06432078E-03  1.06782164E-02
  3.47437982E-03 -7.17500659E-03  3.44249063E-03 -1.06913423E-02  8.76703099E-04
 -1.62577713E-03 -4.39501758E-04  1.14924770E-03  4.42247933E-04  5.24900993E-04
 -9.14378784E-05  1.39327260E-04 -1.97029514E-04  8.03985003E-05  1.05449840E-04
 -1.61331335E-04  3.30704033E-05  4.16083207E-03 -7.94659111E-03 -6.74235291E-03
  1.53291135E-02 -3.12154963E-03 -8.52264499E-04  3.30329830E-03 -2.54483768E-03
 -2.28582577E-03 -6.75112567E-04  8.12440348E-03  7.23383163E-05  8.43511186E-05
  1.36413970E-03  1.83688804E-04  6.24610320E-05 -4.17501141E-04 -6.49265662E-03
 -1.68144570E-04 -2.70275829E-03  7.22979700E-03 -1.18976454E-03  3.37513970E-03
 -2.13829939E-03 -9.77923754E-03  5.20678977E-03 -4.11148059E-03 -6.26811610E-04
  1.09401258E-02 -1.92539587E-03 -1.78219857E-03  5.85799860E-03  9.77077813E-04
 -1.35350628E-03 -2.04749427E-03  6.23812410E-04 -3.11483600E-04  7.65516978E-04
 -2.21141087E-04 -7.89901925E-04 -1.28342505E-04 -7.66042526E-03  4.01928778E-03
 -6.44802033E-03  3.22169030E-03  1.49014033E-02 -3.59529111E-03 -1.01332091E-03
  3.99475982E-03 -1.57905749E-04  2.63132808E-03 -1.99754690E-03  8.05412963E-04
  9.94976988E-04 -2.84550515E-04 -6.37624606E-04 -3.91397435E-04  2.46583903E-04
 -7.35074373E-04 -6.28005988E-03 -4.10364448E-05 -4.72653818E-03  6.22354494E-03
  3.68191479E-04  4.46673698E-03 -5.03820402E-03  5.05682023E-03  7.95132974E-04
 -3.29787091E-05  1.02034749E-02 -1.10740266E-02  2.51638525E-03 -6.90403511E-04
 -1.02150537E-03 -4.26458518E-04 -7.46367862E-04  3.96694110E-04 -1.32964097E-03
  1.89482713E-04  1.37753010E-03  3.41950424E-04 -2.38836189E-04 -3.55226458E-04
 -6.51290304E-03 -6.50473630E-03  3.49741314E-03  4.42592850E-03  4.43409524E-03
  1.44362447E-02  3.16597188E-03 -2.58429143E-03 -4.64491234E-05  1.96492134E-03
  6.18247085E-04  2.28597398E-03 -7.98285045E-03 -8.10585417E-04 -8.39643529E-05
 -6.77698092E-06  1.27958806E-04 -4.14500194E-04  3.83131288E-04  4.49195174E-04
  6.48086093E-03  2.62098247E-03 -7.18067957E-03 -3.77701913E-03  1.44491770E-03
  9.20951261E-03  2.22671758E-03 -4.67263545E-03  4.19034518E-03 -1.10918009E-02
  6.56138382E-04 -1.23610934E-03  8.58184591E-04 -1.18428712E-03  4.49394265E-05
  1.16786166E-03  4.20433559E-04  3.68733836E-04 -5.81663925E-05 -8.31717897E-04
 -1.85878783E-06  3.04961893E-04  2.48960687E-04  3.86407421E-03 -7.60832425E-03
 -6.90729514E-03  4.05696156E-03 -7.41543690E-03 -6.71440779E-03  1.46779650E-02
  4.03906745E-03 -3.97291154E-03 -7.36814583E-04 -2.49978102E-03 -2.68667922E-03
 -1.07576407E-03  8.63028523E-03 -1.06628026E-04  5.31577410E-04  6.43487248E-04
  2.35729866E-04  1.47815222E-04 -1.37742246E-04 -3.22695114E-04  6.21010640E-03
  6.37979081E-03 -5.23587273E-03 -5.69248540E-03 -1.24426338E-03 -3.60700315E-03
 -1.10268998E-02  7.70916092E-03 -3.36362605E-03 -1.02727026E-03  1.07195611E-02
 -1.53572808E-03 -4.84512223E-04  3.52446378E-03  5.79769306E-04 -7.10545612E-04
 -1.53562283E-03  8.53218986E-04 -1.72620479E-04 -1.46599420E-04 -3.28449715E-04
 -3.23608697E-04  8.75477786E-05 -7.95718312E-03  4.35755464E-03 -6.61296255E-03
 -8.05046162E-03  4.26427614E-03 -6.70624105E-03  3.20556652E-03  1.55203043E-02
  3.56532596E-03 -4.13396796E-03 -4.53530593E-05 -1.12849086E-04  2.23047463E-03
 -2.39819840E-03  1.31129471E-03  8.16010645E-04  1.62675776E-04 -1.35827706E-03
 -3.39356372E-04  3.31938093E-04 -4.55315478E-04 -1.10098366E-04  6.33721452E-03
  4.35601093E-03 -6.24212479E-03 -4.13452938E-03 -1.52666108E-04 -6.50690778E-03
  3.80915799E-03  3.29750412E-03  7.14875834E-04  9.80301629E-03 -1.12945914E-02
  2.90605304E-03  6.07282838E-04 -3.35504019E-03 -8.23767025E-04 -1.03407193E-04
  9.08565548E-04 -1.10023439E-03  3.28345834E-04  4.65413700E-04  2.34641797E-04
  2.27457039E-04 -1.39336174E-04 -6.80966090E-03 -6.16646944E-03  3.33247092E-03
 -6.84622342E-03 -6.20303196E-03  3.29590839E-03  3.90659563E-03  4.54978709E-03
  1.40487274E-02 -2.13999617E-04  9.34430822E-04 -1.10416179E-03  6.41587299E-05
 -2.35908160E-03  2.33028726E-03 -2.21403604E-03 -7.95615446E-04 -2.62014211E-03
  7.95112004E-03  3.64512756E-04  6.29144022E-04 -1.39957583E-04 -1.43452224E-03
  1.50152105E-03 -3.77523772E-04 -9.81066160E-05  4.51733710E-03 -4.10705053E-03
 -1.01513664E-02  1.06120562E-02 -6.63763941E-04 -1.95044495E-04  5.13497867E-03
 -4.68778134E-03 -8.86638692E-03 -2.52689782E-03  3.59367893E-03 -4.30454249E-03
  1.12940387E-02  2.44478600E-04  2.56413774E-04  2.76854499E-03 -1.25375846E-03
 -1.23713896E-03  1.05621475E-04 -7.45796237E-04  1.01563653E-03  9.46727526E-04
 -2.56506351E-04  4.81040876E-05 -2.08049147E-05 -1.22403879E-03 -5.69599617E-05
 -1.25868964E-04 -1.32910284E-03  1.41016274E-02  9.03456896E-05  1.62071167E-03
 -1.12338850E-03  2.93855890E-04 -1.59655135E-03  1.52844291E-03  8.64173137E-04
  2.54526723E-03  7.94177140E-04 -7.95285734E-03 -2.49888752E-04 -1.34009304E-04
 -1.67394674E-04 -1.44200833E-03  1.34323408E-03  6.50675186E-04  9.98160577E-05
  3.74160088E-03 -4.38839370E-03 -1.14196409E-02  1.22297643E-02 -1.07748038E-03
 -1.41152136E-04  6.93178309E-03 -6.45092025E-03  3.86150026E-03  1.05328524E-02
 -8.17812653E-03  3.68005637E-03  9.79733369E-04 -1.01048288E-02  4.03471702E-04
  1.24536088E-03 -3.38393930E-03 -3.20076590E-04  1.40000111E-03  7.55606635E-04
  5.73910892E-04  2.37060309E-04  4.04111632E-04 -5.60685545E-04 -8.97536128E-04
 -7.30484805E-04 -2.09167924E-04 -5.46018507E-04 -3.78967183E-04  2.70084727E-03
  1.50244409E-02 -5.22437552E-05  1.70067693E-03 -1.25634606E-03  2.13971567E-04
 -2.29333768E-03  2.01456222E-03 -1.63166789E-03 -2.29333768E-03  2.01456222E-03
  2.13971567E-04 -5.22437551E-05 -1.25634606E-03  1.70067693E-03 -1.22246711E-03
  1.29579419E-03  3.95424961E-04 -4.18130477E-05  3.65119247E-03 -4.07254336E-03
 -9.92200875E-03  1.22878662E-02 -3.98212117E-03 -6.08958463E-04  6.84855721E-03
 -4.41149412E-03  6.84855721E-03 -4.41149412E-03 -3.98212117E-03 -6.08958463E-04
 -9.92200875E-03  1.22878662E-02  3.95424961E-04 -4.07254336E-03  3.65119247E-03
  1.29579419E-03 -1.22246711E-03 -4.18130477E-05  9.54637029E-04  3.04225841E-04
 -2.26325564E-04 -2.24029501E-04 -8.74440689E-04 -1.40499209E-03  1.53132790E-04
 -4.97278398E-04 -1.02782980E-03  3.60176556E-03  4.20521958E-03  1.40767467E-02
  2.02756895E-04 -9.06203691E-04  7.81328295E-04  7.80130721E-03 -8.61359368E-04
 -2.30441707E-03 -2.79640419E-03 -8.61359368E-04 -2.30441707E-03  7.80130721E-03
  2.02756895E-04  7.81328295E-04 -9.06203691E-04 -1.06433658E-04 -1.03141210E-03
 -5.16534959E-04 -8.02089806E-04 -3.87613839E-04  2.73403782E-03  1.10646810E-02
 -1.43133142E-03  6.91203617E-03 -3.89062852E-03 -1.05799655E-02 -2.80318503E-03
 -1.05799655E-02 -2.80318503E-03  6.91203617E-03 -3.89062852E-03  1.10646810E-02
 -1.43133142E-03 -5.16534959E-04  2.73403782E-03 -3.87613839E-04 -1.03141210E-03
 -1.06433658E-04 -8.02089806E-04  3.20672550E-04 -4.20202447E-04 -4.53304451E-04
  1.06848374E-03  3.27608739E-04  2.94506736E-04  4.91255648E-04 -2.49619350E-04
 -2.82721353E-04  4.34612286E-03 -7.65541705E-03 -6.87321559E-03  1.55654613E-02
  5.07102201E-04 -2.19922842E-04  7.62101580E-04  8.03100437E-03 -9.88291128E-05
 -3.10626142E-03  2.81804987E-04  2.47952331E-03  1.10990218E-03 -8.10267017E-03
 -4.11644614E-04  1.81749689E-05 -9.33640782E-04 -1.13919747E-04 -1.18969907E-03
  5.11663999E-04 -6.04167132E-04 -1.16335005E-03  2.45269465E-03  9.79640651E-03
  1.86376653E-04  6.49831972E-03 -3.83673616E-03 -8.78316104E-03 -4.56632394E-03
  2.14792172E-03  1.02565652E-02 -4.85976930E-03  4.09397034E-03  7.50375737E-04
 -1.17806388E-02 -3.69477031E-04  1.21085371E-03 -2.51779468E-03 -1.14349730E-04
  1.18794597E-03  6.99313067E-04 -1.21053086E-04 -1.12986966E-03  2.07313533E-04
  4.59694104E-04 -5.49122474E-04  7.88060723E-04  3.39047686E-04 -6.69768893E-04
  6.67414305E-04 -7.05465722E-03  4.66817658E-03 -6.26976157E-03  3.56392141E-03
  1.52867552E-02  3.64512756E-04 -1.39957583E-04  6.29144022E-04  7.95112004E-03
 -7.95615446E-04 -2.62014211E-03 -2.21403604E-03 -2.35908160E-03  2.33028726E-03
  6.41587300E-05 -2.13999617E-04 -1.10416179E-03  9.34430822E-04  1.05621475E-04
 -1.23713896E-03  2.56413774E-04 -7.45796237E-04 -1.25375846E-03  2.76854499E-03
  1.12940387E-02  2.44478600E-04  3.59367893E-03 -4.30454249E-03 -8.86638692E-03
 -2.52689782E-03  5.13497867E-03 -4.68778134E-03 -6.63763941E-04 -1.95044495E-04
 -1.01513664E-02  1.06120562E-02 -3.77523772E-04 -4.10705053E-03  4.51733710E-03
  1.50152105E-03 -1.43452224E-03 -9.81066160E-05  2.59673051E-04 -1.06270413E-03
 -4.23123663E-04  7.96350148E-04 -5.26027035E-04  1.13553434E-04  7.01348399E-04
 -6.21028784E-04  1.85516854E-05 -6.15373894E-03 -6.15104474E-03  3.60176556E-03
  4.34612286E-03  4.34881706E-03  1.41016274E-02 -4.11644614E-04 -9.33640782E-04
  1.81749689E-05 -8.10267017E-03  2.47952331E-03  1.10990218E-03  2.81804987E-04
 -9.88291127E-05 -3.10626142E-03  8.03100437E-03  5.07102201E-04  7.62101580E-04
 -2.19922842E-04  1.18794597E-03 -1.14349730E-04 -3.69477031E-04  6.99313067E-04
 -2.51779468E-03  1.21085371E-03  7.50375737E-04 -1.17806388E-02 -4.85976930E-03
  4.09397034E-03  2.14792172E-03  1.02565652E-02 -8.78316104E-03 -4.56632394E-03
  6.49831972E-03 -3.83673616E-03  9.79640651E-03  1.86376653E-04  5.11663999E-04
  2.45269465E-03 -1.16335005E-03 -1.18969907E-03 -1.13919747E-04 -6.04167132E-04
 -6.59868011E-04  6.77288046E-04 -6.88948160E-04 -2.19087845E-04  1.11806821E-03
 -2.48167995E-04 -2.46377034E-04  1.09077902E-03 -2.75457183E-04  4.34881706E-03
 -7.57391362E-03 -6.26976157E-03  3.56392141E-03 -8.35880927E-03 -7.05465722E-03
  1.52867552E-02 -1.07299307E-04 -2.47359933E-04 -1.05174650E-06 -7.87297301E-03
  3.24205356E-03  3.08057827E-04  3.36001417E-03  3.24205356E-03  3.08057827E-04
 -7.87297301E-03 -1.07299307E-04 -1.05174649E-06 -2.47359933E-04  1.18045988E-03
 -2.72636701E-04  6.58721927E-04  8.97235741E-04 -3.29353089E-03  9.29510541E-04
 -5.17898793E-04 -1.01629308E-02 -5.27348574E-03  4.14786270E-03  3.94472614E-03
  8.49342625E-03  3.94472614E-03  8.49342625E-03 -5.27348574E-03  4.14786270E-03
 -5.17898793E-04 -1.01629308E-02  6.58721927E-04  9.29510541E-04 -3.29353089E-03
 -2.72636701E-04  1.18045988E-03  8.97235741E-04 -1.10159365E-03 -3.23791714E-05
 -2.83301765E-05 -8.27877478E-04  2.41336998E-04  2.45385993E-04 -3.98584996E-04
  6.70629480E-04  6.74678475E-04 -7.05196303E-03  4.74968000E-03 -5.66630755E-03
 -8.43761850E-03  3.36402453E-03 -7.05196303E-03  3.36402453E-03  1.51656676E-02
 -2.49888752E-04 -1.67394674E-04 -1.34009304E-04 -7.95285734E-03  2.54526723E-03
  7.94177140E-04  8.64173137E-04 -1.59655135E-03  1.52844291E-03  2.93855890E-04
  9.03456896E-05 -1.12338850E-03  1.62071167E-03  1.40000111E-03 -3.20076590E-04
  4.03471702E-04  7.55606635E-04 -3.38393930E-03  1.24536088E-03  9.79733369E-04
 -1.01048288E-02 -8.17812653E-03  3.68005637E-03  3.86150026E-03  1.05328524E-02
  6.93178309E-03 -6.45092025E-03 -1.07748038E-03 -1.41152136E-04 -1.14196409E-02
  1.22297643E-02  6.50675186E-04 -4.38839370E-03  3.74160088E-03  1.34323408E-03
 -1.44200833E-03  9.98160577E-05 -7.20867511E-04  3.47863605E-05 -6.58767373E-04
 -4.91221434E-04  2.64432437E-04 -4.29121296E-04 -3.62842819E-05  7.19369589E-04
  2.58158559E-05 -6.15104474E-03 -6.06954132E-03  4.20521958E-03 -7.65541705E-03
 -7.57391362E-03  2.70084727E-03  4.66817658E-03  4.74968000E-03  1.50244409E-02
 -3.47514521E-04 -6.44788561E-04  3.66327033E-04 -9.12978984E-04  8.52108118E-04
 -1.05604644E-04  1.36672236E-03  1.74236811E-03 -1.52989981E-03 -3.42117647E-04
  6.30223944E-05 -3.52497782E-03  2.88529451E-03  7.58336142E-05  2.76678991E-04
 -1.30922477E-03 -2.97364805E-04  9.52168064E-04  3.03270940E-04 -4.96063184E-04
  6.52394918E-04 -2.05554235E-03 -6.59043949E-04  2.75345578E-03 -1.21252468E-04
  1.11546779E-02 -1.23410608E-02  2.04909008E-03  3.72465598E-04 -7.57856565E-03
  6.21432512E-03 -1.65281932E-04 -4.81738043E-03  4.97001749E-03 -6.17474959E-03
  6.02118151E-03  9.08844162E-05 -6.05589730E-04  9.50580456E-05  1.16453119E-03
 -4.53029388E-04  2.47618388E-04  1.31709153E-03 -9.16145230E-04 -2.15497454E-04
  8.53975685E-04 -4.23123663E-04 -6.58767373E-04 -2.26325564E-04 -4.53304451E-04
 -6.88948160E-04 -2.56506351E-04  2.07313533E-04 -2.83301765E-05  4.04111632E-04
  1.43782359E-02 -3.39356372E-04 -4.55315478E-04  3.31938093E-04 -1.35827706E-03
  8.16010645E-04  1.62675776E-04  1.31129471E-03  2.23047463E-03 -2.39819840E-03
 -1.12849086E-04  3.56532596E-03 -4.53530593E-05 -4.13396796E-03  2.27457039E-04
  2.34641797E-04 -1.10023439E-03 -1.39336174E-04  4.65413700E-04  3.28345834E-04
 -1.03407193E-04  9.08565548E-04 -3.35504019E-03 -8.23767025E-04  2.90605304E-03
  6.07282838E-04  9.80301629E-03 -1.12945914E-02  3.29750412E-03  7.14875834E-04
 -6.50690778E-03  3.80915799E-03  4.35601093E-03 -1.52666108E-04 -4.13452938E-03
  6.33721452E-03 -1.10098366E-04 -6.24212479E-03 -5.05339021E-04  2.71024430E-05
  8.53975685E-04 -3.59286578E-04  1.73154886E-04  1.00002813E-03 -7.15132811E-04
 -1.82691347E-04  6.44181895E-04  1.85516854E-05  2.58158559E-05 -1.02782980E-03
 -2.82721353E-04 -2.75457183E-04 -1.32910284E-03  6.67414305E-04  6.74678475E-04
 -3.78967183E-04  3.33247092E-03  1.40487274E-02 -3.91397435E-04 -7.35074373E-04
  2.46583903E-04 -6.37624606E-04  9.94976988E-04 -2.84550515E-04  8.05412963E-04
  2.63132808E-03 -1.99754690E-03 -1.57905749E-04 -3.59529111E-03  3.99475982E-03
 -1.01332091E-03 -2.38836189E-04  3.41950424E-04 -1.32964097E-03 -3.55226458E-04
  1.37753010E-03  1.89482713E-04 -7.46367862E-04  3.96694110E-04 -1.02150537E-03
 -4.26458518E-04  2.51638525E-03 -6.90403511E-04  1.02034749E-02 -1.10740266E-02
  7.95132974E-04 -3.29787090E-05 -5.03820402E-03  5.05682023E-03 -4.72653818E-03
  4.46673698E-03  3.68191480E-04 -4.10364448E-05 -6.28005988E-03  6.22354494E-03
 -6.76355440E-04  3.06915583E-05  1.31709153E-03 -3.97233496E-04  3.09813502E-04
  1.59621347E-03 -9.93418839E-04 -2.86371841E-04  1.00002813E-03  1.13553434E-04
 -4.29121296E-04 -1.40499209E-03  2.94506736E-04 -2.48167995E-04 -1.22403879E-03
  7.88060723E-04  2.45385993E-04 -7.30484805E-04  3.49741314E-03  3.29590839E-03
  1.44362447E-02  1.19800657E-04  1.93658205E-04 -3.80111255E-04  4.38521096E-04
 -7.74487944E-04 -3.52244773E-04 -7.92742280E-03  1.30140568E-04  3.15427257E-03
  1.73565278E-03 -3.36331692E-04 -3.52607389E-03  4.43497104E-03  1.53338468E-04
  4.01784062E-05  1.59743464E-04  9.09320562E-05 -3.44963533E-04 -8.32412869E-05
  7.75205671E-04  1.64262929E-04  1.15210722E-04  2.09662502E-04 -1.38870660E-03
  1.29649284E-04 -9.74013933E-03 -3.90331066E-04 -5.92104948E-03  3.84793494E-03
  8.13785474E-03  4.63188471E-03 -1.90031039E-03 -3.21979663E-03  5.32752774E-03
 -6.03110318E-03  6.58047505E-03 -8.47670357E-04  5.37396991E-04 -2.43397362E-04
 -6.05589730E-04  4.66631281E-04 -3.14163072E-04 -6.76355440E-04  6.37647700E-04
 -1.43146653E-04 -5.05339021E-04  2.59673051E-04 -7.20867511E-04  9.54637029E-04
  3.20672550E-04 -6.59868011E-04  1.01563653E-03 -1.21053086E-04 -1.10159365E-03
  5.73910892E-04  4.13846985E-03 -6.80966090E-03 -6.51290304E-03  1.48122050E-02
  1.27958806E-04  3.83131288E-04 -4.14500194E-04 -6.77698087E-06 -8.10585417E-04
 -8.39643529E-05 -7.98285045E-03  6.18247085E-04  2.28597398E-03  1.96492134E-03
  3.16597188E-03 -4.64491234E-05 -2.58429143E-03  3.04961893E-04 -1.85878782E-06
  3.68733836E-04  2.48960687E-04 -8.31717897E-04 -5.81663925E-05  1.16786166E-03
  4.20433559E-04 -1.18428712E-03  4.49394265E-05 -1.23610934E-03  8.58184591E-04
 -1.10918009E-02  6.56138382E-04 -4.67263545E-03  4.19034518E-03  9.20951261E-03
  2.22671758E-03  2.62098247E-03  1.44491770E-03 -3.77701913E-03  6.48086093E-03
  4.49195174E-04 -7.18067957E-03  6.37647700E-04 -3.11352965E-04 -9.16145230E-04
  5.60374092E-04 -3.88626574E-04 -9.93418839E-04  8.38660120E-04 -1.10340545E-04
 -7.15132811E-04  7.01348399E-04 -3.62842819E-05  1.53132790E-04  4.91255648E-04
 -2.46377034E-04 -5.69599617E-05  3.39047686E-04 -3.98584996E-04 -2.09167924E-04
 -6.90729514E-03  3.90659563E-03 -6.71440779E-03  3.86407421E-03  1.46779650E-02
  7.59177434E-05  1.03372393E-04 -4.99854384E-04  7.13875474E-04 -6.31619074E-04
 -5.31190644E-04 -8.48873220E-03  1.01910054E-03  2.68662548E-03  1.91986468E-03
 -3.99464520E-03  3.99366376E-03  5.36355613E-04 -1.61331335E-04  1.05449840E-04
  1.39327260E-04  3.30704033E-05  8.03985003E-05 -1.97029514E-04  5.24900993E-04
 -9.14378784E-05  1.14924770E-03  4.42247933E-04 -1.62577713E-03 -4.39501759E-04
 -1.06913423E-02  8.76703098E-04 -7.17500659E-03  3.44249063E-03  1.06782164E-02
  3.47437982E-03 -6.46156663E-03  6.06432078E-03  7.25701725E-04  1.02609965E-04
 -5.72076634E-03  5.28499016E-03  4.66631281E-04 -3.07763850E-04 -4.53029388E-04
  5.22427173E-04 -2.51967958E-04 -3.97233496E-04  5.60374092E-04 -2.14021039E-04
 -3.59286578E-04  7.96350148E-04 -4.91221434E-04 -2.24029501E-04  1.06848374E-03
 -2.19087845E-04  4.81040876E-05  4.59694104E-04 -8.27877478E-04 -5.60685545E-04
 -6.74235291E-03 -6.84622342E-03  4.42592850E-03  4.16083207E-03  4.05696156E-03
  1.53291135E-02  2.27571718E-04 -3.27215329E-04  1.82204162E-04  1.08878532E-03
 -7.05305532E-05  2.63296990E-04  8.68571288E-03 -3.17478574E-03 -2.07465478E-04
 -2.72904958E-03  5.36763879E-04 -4.21643935E-03  3.04635093E-03 -4.75232122E-04
 -2.86412520E-04  6.44228614E-04 -7.04808526E-05  3.40154944E-04 -1.97695373E-04
 -1.10320160E-03 -1.79179346E-03  4.82396162E-03  7.44492381E-04 -1.68832533E-03
 -1.21304753E-03  3.24391351E-04  9.67309162E-03  6.46074688E-03 -3.70603628E-03
 -4.67866102E-03 -8.62173265E-03  1.85849795E-03 -5.90897771E-03  3.41206147E-03
 -6.30185772E-03  5.80858477E-03  1.09713648E-03 -2.43397362E-04  4.98385352E-04
  9.50580456E-05 -3.07763850E-04  4.34018864E-04  3.06915583E-05 -3.11352965E-04
  4.30429749E-04  2.71024430E-05 -1.06270413E-03  3.47863605E-05  3.04225841E-04
 -4.20202447E-04  6.77288046E-04  9.46727526E-04 -1.12986966E-03 -3.23791713E-05
  2.37060309E-04  4.43280244E-03 -6.16646944E-03 -6.50473630E-03  2.99094763E-03
 -7.60832425E-03 -7.94659111E-03  1.49568265E-02  2.35729866E-04 -1.37742246E-04
  1.47815222E-04  6.43487248E-04 -1.06628026E-04  5.31577410E-04  8.63028523E-03
 -2.68667922E-03 -1.07576407E-03 -2.49978102E-03  4.03906745E-03 -7.36814583E-04
 -3.97291154E-03 -3.23608697E-04 -3.28449715E-04  8.53218986E-04  8.75477786E-05
 -1.46599420E-04 -1.72620479E-04 -7.10545612E-04 -1.53562283E-03  3.52446378E-03
  5.79769306E-04 -1.53572808E-03 -4.84512223E-04 -1.02727026E-03  1.07195611E-02
  7.70916092E-03 -3.36362605E-03 -3.60700315E-03 -1.10268998E-02  6.37979081E-03
 -1.24426338E-03 -5.69248540E-03  6.21010640E-03 -3.22695114E-04 -5.23587273E-03
 -1.43146653E-04  4.30429749E-04 -2.15497454E-04 -2.14021039E-04  3.59555363E-04
 -2.86371841E-04 -1.10340545E-04  4.63235857E-04 -1.82691347E-04 -6.21028784E-04
  7.19369589E-04 -4.97278398E-04 -2.49619350E-04  1.09077902E-03 -1.25868964E-04
 -6.69768893E-04  6.70629480E-04 -5.46018507E-04 -6.61296255E-03  4.54978709E-03
 -6.70624105E-03 -7.95718312E-03  3.20556652E-03 -8.05046162E-03  4.35755464E-03
  1.55203043E-02  1.83688804E-04 -4.17501141E-04  6.24610320E-05  1.36413970E-03
  7.23383163E-05  8.43511186E-05  8.12440348E-03 -2.28582577E-03 -6.75112567E-04
 -2.54483768E-03 -3.12154963E-03  3.30329830E-03 -8.52264499E-04 -7.89901925E-04
 -2.21141087E-04  6.23812410E-04 -1.28342505E-04  7.65516978E-04 -3.11483600E-04
 -1.35350628E-03 -2.04749427E-03  5.85799860E-03  9.77077813E-04 -1.92539587E-03
 -1.78219857E-03 -6.26811610E-04  1.09401258E-02  5.20678977E-03 -4.11148059E-03
 -2.13829939E-03 -9.77923754E-03 -2.70275829E-03  3.37513970E-03 -1.18976454E-03
 -1.68144570E-04 -6.49265662E-03  7.22979700E-03 -3.14163072E-04  4.34018864E-04
  2.47618388E-04 -2.51967958E-04  4.96213978E-04  3.09813502E-04 -3.88626574E-04
  3.59555363E-04  1.73154886E-04 -5.26027035E-04  2.64432437E-04 -8.74440689E-04
  3.27608739E-04  1.11806821E-03 -2.08049147E-05 -5.49122474E-04  2.41336998E-04
 -8.97536128E-04 -6.44802033E-03 -6.20303196E-03  4.43409524E-03 -7.66042526E-03
 -7.41543690E-03  3.22169030E-03  4.01928778E-03  4.26427614E-03  1.49014033E-02
Mulliken Charges                           R   N=          14
 -6.55571249E-01  2.10442891E-01  2.11731234E-01  2.13022573E-01 -4.01379183E-01
  2.12313239E-01  2.09440495E-01 -4.01379183E-01  2.12313239E-01  2.09440495E-01
 -6.55571249E-01  2.10442891E-01  2.13022573E-01  2.11731234E-01
Optimization MaxStp                        I                2
Optimization Job offset                    I                0
Optimization Num results per geometry      I                2
Optimization Num geometry variables        I               42
Opt point       1 Results for each geome   R   N=           2
 -1.58417764E+02  0.00000000E+00
Opt point       1 Geometries               R   N=          42
 -1.10896390E+00  2.71549490E+00 -1.07140635E+00 -2.60961302E+00  4.12243470E+00
 -9.08873489E-01 -1.40050734E+00  1.69429842E+00 -2.83997815E+00  6.91947769E-01
  3.72074936E+00 -1.20937726E+00 -1.10896390E+00  9.29645075E-01  1.20063292E+00
 -2.88437894E+00 -1.34179016E-01  1.24284769E+00 -1.04790631E+00  2.04532939E+00
  2.94002182E+00  1.10896390E+00 -9.29645075E-01  1.20063292E+00  2.88437894E+00
  1.34179016E-01  1.24284769E+00  1.04790631E+00 -2.04532939E+00  2.94002182E+00
  1.10896390E+00 -2.71549490E+00 -1.07140635E+00  2.60961302E+00 -4.12243470E+00
 -9.08873489E-01 -6.91947769E-01 -3.72074936E+00 -1.20937726E+00  1.40050734E+00
 -1.69429842E+00 -2.83997815E+00
Opt point       1 Gradient at each geome   R   N=          42
 -8.44753390E-07  8.66538228E-08  3.16117272E-07 -7.27660294E-07 -4.88287260E-07
 -1.63680365E-07 -1.55788973E-07 -5.42204282E-07  1.30849829E-08 -5.30740160E-07
  1.55219386E-07 -1.23944508E-07 -8.16639578E-08 -7.70488141E-07 -2.27799799E-07
  1.22483771E-07 -6.14005959E-07  7.72229309E-08 -3.42982094E-07 -1.62159417E-07
  1.08999473E-07  8.16639376E-08  7.70488132E-07 -2.27799782E-07 -1.22483763E-07
  6.14005965E-07  7.72229278E-08  3.42982091E-07  1.62159415E-07  1.08999482E-07
  8.44753389E-07 -8.66538445E-08  3.16117271E-07  7.27660303E-07  4.88287249E-07
 -1.63680370E-07  5.30740162E-07 -1.55219390E-07 -1.23944504E-07  1.55788974E-07
  5.42204276E-07  1.30849820E-08
Optimization Number of geometries          I   N=           1
           1
ONIOM Charges                              I   N=          16
           0           0           0           0           0           0
           0           0           0           0           0           0
           0           0           0           0
ONIOM Multiplicities                       I   N=          16
           1           0           0           0           0           0
           0           0           0           0           0           0
           0           0           0           0
Atom Layers                                I   N=          14
           1           1           1           1           1           1
           1           1           1           1           1           1
           1           1
Atom Modifiers                             I   N=          14
           0           0           0           0           0           0
           0           0           0           0           0           0
           0           0
Force Field                                I                0
Atom Modified Types                        C   N=          14
                                                            
                                                            
                                                
Int Atom Modified Types                    I   N=          14
           0           0           0           0           0           0
           0           0           0           0           0           0
           0           0
Link Atoms                                 I   N=          14
           0           0           0           0           0           0
           0           0           0           0           0           0
           0           0
Atom Modified MM Charges                   R   N=          14
  0.00000000E+00  0.00000000E+00  0.00000000E+00  0.00000000E+00  0.00000000E+00
  0.00000000E+00  0.00000000E+00  0.00000000E+00  0.00000000E+00  0.00000000E+00
  0.00000000E+00  0.00000000E+00  0.00000000E+00  0.00000000E+00
Link Distances                             R   N=          56
  0.00000000E+00  0.00000000E+00  0.00000000E+00  0.00000000E+00  0.00000000E+00
  0.00000000E+00  0.00000000E+00  0.00000000E+00  0.00000000E+00  0.00000000E+00
  0.00000000E+00  0.00000000E+00  0.00000000E+00  0.00000000E+00  0.00000000E+00
  0.00000000E+00  0.00000000E+00  0.00000000E+00  0.00000000E+00  0.00000000E+00
  0.00000000E+00  0.00000000E+00  0.00000000E+00  0.00000000E+00  0.00000000E+00
  0.00000000E+00  0.00000000E+00  0.00000000E+00  0.00000000E+00  0.00000000E+00
  0.00000000E+00  0.00000000E+00  0.00000000E+00  0.00000000E+00  0.00000000E+00
  0.00000000E+00  0.00000000E+00  0.00000000E+00  0.00000000E+00  0.00000000E+00
  0.00000000E+00  0.00000000E+00  0.00000000E+00  0.00000000E+00  0.00000000E+00
  0.00000000E+00  0.00000000E+00  0.00000000E+00  0.00000000E+00  0.00000000E+00
  0.00000000E+00  0.00000000E+00  0.00000000E+00  0.00000000E+00  0.00000000E+00
  0.00000000E+00
Cartesian Gradient                         R   N=          42
 -8.44753390E-07  8.66538228E-08  3.16117272E-07 -7.27660294E-07 -4.88287260E-07
 -1.63680365E-07 -1.55788973E-07 -5.42204282E-07  1.30849829E-08 -5.30740160E-07
  1.55219386E-07 -1.23944508E-07 -8.16639578E-08 -7.70488141E-07 -2.27799799E-07
  1.22483771E-07 -6.14005959E-07  7.72229309E-08 -3.42982094E-07 -1.62159417E-07
  1.08999473E-07  8.16639376E-08  7.70488132E-07 -2.27799782E-07 -1.22483763E-07
  6.14005965E-07  7.72229278E-08  3.42982091E-07  1.62159415E-07  1.08999482E-07
  8.44753389E-07 -8.66538445E-08  3.16117271E-07  7.27660303E-07  4.88287249E-07
 -1.63680370E-07  5.30740162E-07 -1.55219390E-07 -1.23944504E-07  1.55788974E-07
  5.42204276E-07  1.30849820E-08
Cartesian Force Constants                  R   N=         903
  5.93062379E-01 -5.16952778E-03  5.52789078E-01  1.24920340E-03  4.92490852E-02
  5.34233967E-01 -1.96946590E-01  1.36190638E-01  1.77604710E-02  2.10417184E-01
  1.35833397E-01 -1.76046435E-01 -1.71448227E-02 -1.50021791E-01  1.89061460E-01
  1.85037767E-02 -1.78183496E-02 -5.08771263E-02 -2.00518470E-02  1.65675167E-02
  5.44495723E-02 -5.62868422E-02 -2.00661614E-02 -3.36108860E-02  4.48411058E-03
  1.23859567E-02  2.25389197E-02  5.55210467E-02 -2.06323325E-02 -1.19719628E-01
 -1.19203716E-01 -4.54899906E-03 -1.19460406E-02 -1.89084719E-02  2.14016643E-02
  1.29476071E-01 -3.36573292E-02 -1.18305961E-01 -2.48487036E-01  4.63756061E-04
 -1.45691304E-03 -1.83410883E-03  3.59258930E-02  1.29013136E-01  2.71129483E-01
 -2.56356776E-01 -1.13562465E-01  1.33019189E-02 -2.08738920E-02 -1.20956877E-02
  6.66614961E-04 -3.45591566E-03 -1.06917297E-03 -4.43318974E-04  2.77231696E-01
 -1.13400674E-01 -1.12413378E-01  5.79807224E-03  2.05052770E-02  1.31172051E-02
 -1.09900086E-03 -1.51764496E-02 -8.74213912E-03  1.45128715E-03  1.26002145E-01
  1.19869132E-01  1.30803008E-02  5.76890677E-03 -5.07063591E-02  3.10995122E-03
  1.64977981E-03 -1.31180605E-03 -2.66528321E-02 -1.29299179E-02  2.84774822E-03
 -1.45330082E-02 -1.04365255E-02  5.29245469E-02 -8.15409031E-02 -9.96309318E-04
  2.76648494E-03  1.04392661E-03  1.50112202E-02 -2.24709652E-02 -5.66468338E-04
  3.15588019E-03 -3.71062111E-03  1.52225788E-04 -1.87288840E-02  2.50209089E-02
  5.52214310E-01 -3.41298811E-03 -1.27972689E-01  5.89123116E-02 -2.28190434E-03
 -1.33344344E-02  1.89799022E-02  3.63285937E-04  1.31709623E-02 -1.41798659E-02
  3.09934455E-04 -1.16381842E-02  1.44483596E-02  5.11592373E-02  5.35302468E-01
  2.52083112E-03  6.01791721E-02 -1.62785901E-01  3.16743149E-05 -3.36832844E-03
  2.69071022E-03  1.41998403E-03  1.95164548E-02 -2.27591562E-02  2.37891350E-04
  1.16142932E-03 -1.37993934E-03  1.33631675E-03  4.86056432E-02  5.57048251E-01
  1.23122886E-03  4.90549699E-04  5.61630649E-05  3.70832283E-04 -3.66850143E-04
  4.85012656E-04  1.34869862E-04 -8.11087462E-05  5.36449287E-04  1.32202576E-03
  3.92744931E-04 -2.45861391E-04 -2.41820280E-01 -1.16910791E-01  3.55070591E-03
  2.65018075E-01 -1.80494950E-02 -1.15627227E-02  6.13838611E-04  2.00139846E-04
 -1.47347954E-04 -5.94867217E-04  4.64633713E-04  1.17366589E-03 -8.66151623E-05
  8.91864031E-04 -1.87295691E-03  3.87203926E-03 -1.17247190E-01 -1.20365845E-01
  2.81985907E-04  1.26165619E-01  1.31605162E-01  2.46849264E-02  1.55780126E-02
 -1.45495692E-03 -4.52392756E-04 -5.42019509E-04  8.58480011E-04  3.55627748E-04
 -9.47544988E-04  1.01912895E-03  1.30305105E-04  4.15355181E-03 -4.28354595E-03
  2.67880124E-03 -2.74609911E-04 -5.07746792E-02 -2.56991772E-03 -4.06990311E-03
  5.34889685E-02 -2.45470672E-04  3.03838176E-04 -1.02928651E-04  1.31085953E-05
 -1.30562476E-04 -4.33302652E-04  8.95343615E-04  4.02213128E-04  1.60577469E-04
  4.24391736E-05  5.27992722E-04  2.83357485E-04 -5.17520191E-02 -7.90651603E-03
 -8.28994984E-03 -6.41572910E-04 -1.57834315E-02 -2.51071938E-02  5.33872295E-02
  1.59606225E-03  1.19117919E-02  2.08756817E-02  4.95515645E-05  1.15405561E-03
 -7.90217789E-04 -1.46934656E-04 -2.36288790E-03  4.44377279E-03 -8.85411401E-05
  7.27016096E-04 -9.18596094E-04 -7.11126153E-03 -1.28533530E-01 -1.22723909E-01
 -6.96788635E-04 -1.01186413E-02 -1.43858987E-02  3.91153899E-03  1.41639175E-01
 -2.13799451E-03 -1.37084222E-02 -2.37571757E-02 -5.93806164E-04 -6.08531575E-05
  9.47138788E-04  4.32835345E-04  4.42595419E-03 -3.32978024E-03  6.65350457E-04
 -1.60643108E-04  6.49748936E-04 -7.68692479E-03 -1.22350688E-01 -2.37005375E-01
 -1.17182176E-03  1.44772507E-04  8.06423697E-04  9.96789307E-03  1.30775993E-01
  2.58952129E-01  4.66712994E-04  1.53950386E-03 -3.60949403E-03  7.87242075E-04
 -1.78336919E-03  1.64231852E-03 -1.24046176E-04  4.66664702E-05  5.29410448E-04
  1.29776377E-03 -1.62139142E-03  1.00105646E-03 -1.55637686E-01  5.82135033E-02
 -9.47836841E-04 -2.49842481E-02  2.03726461E-02 -3.43896395E-04  4.63470439E-04
 -2.01025229E-03 -3.37556775E-04  5.52214310E-01  1.73433658E-02 -1.68384367E-02
  3.21906131E-03 -6.64936400E-05 -1.59242432E-03  2.99342960E-03 -5.64226839E-04
  8.83242564E-04 -8.41570321E-04  8.77824889E-04  6.60894056E-04 -9.23486308E-04
  5.82135033E-02 -1.27775744E-01 -1.02893451E-03 -1.34336464E-02  1.08281956E-02
 -1.71995557E-04  1.63094145E-02 -1.27944741E-02  8.94548911E-04  5.11592373E-02
  5.35302468E-01 -2.25716270E-02  1.89825041E-02  1.31204184E-03 -4.98377538E-04
  3.93319635E-03 -5.12518926E-03 -7.10508575E-04 -5.09272100E-04 -2.33872475E-05
 -1.72763414E-04 -7.64646201E-04  1.26310461E-03  9.47836841E-04  1.02893451E-03
 -8.27862120E-02 -6.47276060E-05 -7.56712752E-04 -3.29110361E-04  2.38776199E-02
 -1.82615546E-02  6.54841661E-04 -1.33631675E-03 -4.86056432E-02  5.57048251E-01
  1.03000890E-03 -1.28872846E-03  5.86219233E-04  5.05351488E-04  1.56025409E-04
  1.81401995E-04  2.26158865E-05  8.31087238E-05 -1.71598785E-05  3.47518839E-04
  1.02265659E-03 -8.88302007E-04 -2.49842481E-02 -1.34336464E-02  6.47276060E-05
 -3.24138764E-03  4.34340570E-03  1.95703025E-04  7.04960989E-04  1.23804107E-04
  5.18139831E-04 -2.41820280E-01 -1.16910791E-01 -3.55070591E-03  2.65018075E-01
  4.45673779E-04  1.82829246E-03 -6.82769241E-04 -1.75946268E-04  1.44149545E-04
 -2.52794392E-04  5.86204946E-07 -9.24676947E-05  7.53428479E-05 -7.23622387E-04
 -1.29017093E-04 -8.24636052E-05  2.03726461E-02  1.08281956E-02  7.56712752E-04
  4.34340570E-03 -2.20412943E-03  3.87316283E-04 -9.04882507E-04  9.13662394E-04
 -4.00943469E-05 -1.17247190E-01 -1.20365845E-01 -2.81985907E-04  1.26165619E-01
  1.31605162E-01 -9.38740864E-04 -7.93643141E-04 -1.65327979E-05  2.05295023E-04
  2.32963803E-05 -4.00040027E-05 -4.06118023E-05  6.07192321E-06  6.93799015E-06
  5.32408406E-05  2.56367045E-04  1.00850706E-04  3.43896395E-04  1.71995557E-04
 -3.29110361E-04 -1.95703025E-04 -3.87316283E-04  7.21552660E-04  2.92779697E-04
  2.34816857E-04 -1.03513141E-04 -2.67880124E-03  2.74609911E-04 -5.07746792E-02
  2.56991772E-03  4.06990311E-03  5.34889685E-02 -4.31115894E-03  2.78071941E-03
  1.58411173E-03  9.43885072E-05  1.13892325E-03 -1.24782397E-03  1.77669157E-05
 -2.42197516E-04  1.02425625E-05  2.29721245E-04  2.68282249E-04 -3.16242573E-06
  4.63470439E-04  1.63094145E-02 -2.38776199E-02  7.04960989E-04 -9.04882507E-04
 -2.92779697E-04  1.10179253E-03 -6.75332495E-04  3.05485128E-04 -5.17520191E-02
 -7.90651603E-03  8.28994984E-03 -6.41572910E-04 -1.57834315E-02  2.51071938E-02
  5.33872295E-02  4.59087797E-03 -2.25974169E-03 -1.52713753E-03  3.40226423E-04
 -7.82928951E-04  1.36044248E-03  1.25910359E-04  1.33201851E-04  1.50770678E-04
 -8.86040598E-06  4.64383421E-04 -5.11549245E-04 -2.01025229E-03 -1.27944741E-02
  1.82615546E-02  1.23804107E-04  9.13662394E-04 -2.34816857E-04 -6.75332495E-04
 -9.10826150E-05 -2.22437975E-04 -7.11126153E-03 -1.28533530E-01  1.22723909E-01
 -6.96788635E-04 -1.01186413E-02  1.43858987E-02  3.91153899E-03  1.41639175E-01
 -3.95034703E-04 -5.56859810E-06  1.33984484E-03  1.29484640E-04  4.32179113E-05
 -1.02509819E-04  1.94026935E-04 -2.35468078E-04  2.08221483E-04  3.31230186E-05
 -1.04051798E-04 -1.76082704E-05  3.37556775E-04 -8.94548911E-04  6.54841661E-04
 -5.18139831E-04  4.00943469E-05 -1.03513141E-04 -3.05485128E-04  2.22437975E-04
  7.57613764E-04  7.68692479E-03  1.22350688E-01 -2.37005375E-01  1.17182176E-03
 -1.44772507E-04  8.06423697E-04 -9.96789307E-03 -1.30775993E-01  2.58952129E-01
 -6.05124820E-04 -3.07269712E-04 -2.89397985E-04  1.58482843E-04  1.09024650E-04
  4.29881657E-04  2.01121134E-04  8.44187856E-04  3.77548203E-04  1.42933485E-04
  2.09697213E-04 -1.79720495E-04  4.66712994E-04  1.73433658E-02  2.25716270E-02
  1.03000890E-03  4.45673779E-04  9.38740864E-04 -4.31115894E-03  4.59087797E-03
  3.95034703E-04 -8.15409031E-02 -3.41298811E-03 -2.52083112E-03  1.23122886E-03
 -1.80494950E-02 -2.46849264E-02 -2.45470672E-04  1.59606225E-03  2.13799451E-03
  5.93062379E-01 -3.07269712E-04  3.67018309E-04 -5.33473722E-04 -1.54381037E-04
  4.33851850E-04 -2.54606982E-04  5.02041359E-04 -3.16985107E-04 -6.51518959E-05
 -2.62447067E-04 -2.00015708E-04 -2.10306903E-05  1.53950386E-03 -1.68384367E-02
 -1.89825041E-02 -1.28872846E-03  1.82829246E-03  7.93643141E-04  2.78071941E-03
 -2.25974169E-03  5.56859810E-06 -9.96309318E-04 -1.27972689E-01 -6.01791721E-02
  4.90549699E-04 -1.15627227E-02 -1.55780126E-02  3.03838176E-04  1.19117919E-02
  1.37084222E-02 -5.16952778E-03  5.52789078E-01  2.89397985E-04  5.33473722E-04
  1.95477267E-03 -1.78415619E-05  1.93000226E-04 -6.36140388E-04 -3.40670687E-04
 -6.59550681E-04 -3.07166149E-04  5.03781395E-05  4.26819511E-05  1.87769021E-04
  3.60949403E-03 -3.21906131E-03  1.31204184E-03 -5.86219233E-04  6.82769241E-04
 -1.65327979E-05 -1.58411173E-03  1.52713753E-03  1.33984484E-03 -2.76648494E-03
 -5.89123116E-02 -1.62785901E-01 -5.61630649E-05 -6.13838610E-04 -1.45495692E-03
  1.02928651E-04 -2.08756817E-02 -2.37571757E-02 -1.24920340E-03 -4.92490852E-02
  5.34233967E-01  1.58482843E-04 -1.54381037E-04  1.78415619E-05 -1.71448096E-05
  3.09120809E-05 -1.28394329E-05 -5.23249144E-05 -1.60937486E-04  6.69935759E-05
  1.53248435E-05  9.37076773E-05  3.22128410E-05  7.87242075E-04 -6.64936400E-05
  4.98377538E-04  5.05351488E-04 -1.75946268E-04 -2.05295023E-04  9.43885072E-05
  3.40226423E-04 -1.29484640E-04  1.04392661E-03 -2.28190434E-03 -3.16743150E-05
  3.70832283E-04  2.00139846E-04  4.52392756E-04  1.31085953E-05  4.95515645E-05
  5.93806164E-04 -1.96946590E-01  1.36190638E-01 -1.77604710E-02  2.10417184E-01
  1.09024650E-04  4.33851850E-04 -1.93000226E-04  3.09120809E-05 -8.95888383E-05
 -9.44532664E-05 -1.96701192E-04  2.28803167E-05 -1.08009794E-04 -7.04973626E-05
  5.59768386E-06  3.95345039E-05 -1.78336919E-03 -1.59242432E-03 -3.93319635E-03
  1.56025409E-04  1.44149545E-04 -2.32963803E-05  1.13892325E-03 -7.82928951E-04
 -4.32179113E-05  1.50112202E-02 -1.33344344E-02  3.36832844E-03 -3.66850143E-04
 -1.47347954E-04  5.42019509E-04 -1.30562476E-04  1.15405561E-03  6.08531575E-05
  1.35833397E-01 -1.76046435E-01  1.71448227E-02 -1.50021791E-01  1.89061460E-01
 -4.29881657E-04  2.54606982E-04 -6.36140388E-04  1.28394329E-05  9.44532664E-05
  3.55814391E-04  2.18673018E-04  1.37631761E-04  5.80880150E-04  1.24741646E-05
 -4.91023734E-05  4.42881462E-05 -1.64231852E-03 -2.99342960E-03 -5.12518926E-03
 -1.81401995E-04  2.52794392E-04 -4.00040027E-05  1.24782397E-03 -1.36044248E-03
 -1.02509819E-04  2.24709652E-02 -1.89799022E-02  2.69071022E-03 -4.85012656E-04
  5.94867217E-04  8.58480011E-04  4.33302652E-04  7.90217789E-04  9.47138788E-04
 -1.85037767E-02  1.78183496E-02 -5.08771263E-02  2.00518470E-02 -1.65675167E-02
  5.44495723E-02  1.42933485E-04 -2.62447067E-04 -5.03781395E-05  1.53248435E-05
 -7.04973626E-05 -1.24741646E-05 -1.12548006E-04 -2.56845535E-04 -4.75223876E-05
  1.74813365E-05  5.63713051E-05  4.97287335E-05  1.29776377E-03  8.77824889E-04
  1.72763414E-04  3.47518839E-04 -7.23622387E-04 -5.32408406E-05  2.29721245E-04
 -8.86040598E-06 -3.31230186E-05  1.52225788E-04  3.09934455E-04 -2.37891350E-04
  1.32202576E-03  8.91864031E-04 -1.30305105E-04  4.24391736E-05 -8.85411401E-05
 -6.65350457E-04 -2.56356776E-01 -1.13562465E-01 -1.33019189E-02 -2.08738920E-02
 -1.20956877E-02 -6.66614961E-04  2.77231696E-01  2.09697213E-04 -2.00015708E-04
 -4.26819511E-05  9.37076773E-05  5.59768386E-06  4.91023734E-05 -1.51476365E-04
 -1.93080734E-04  2.58861324E-04  5.63713051E-05  3.44544024E-04 -9.44227677E-06
 -1.62139142E-03  6.60894056E-04  7.64646201E-04  1.02265659E-03 -1.29017093E-04
 -2.56367045E-04  2.68282249E-04  4.64383421E-04  1.04051798E-04 -1.87288840E-02
 -1.16381842E-02 -1.16142932E-03  3.92744931E-04 -1.87295691E-03 -4.15355181E-03
  5.27992722E-04  7.27016096E-04  1.60643108E-04 -1.13400674E-01 -1.12413378E-01
 -5.79807224E-03  2.05052770E-02  1.31172051E-02  1.09900086E-03  1.26002145E-01
  1.19869132E-01  1.79720495E-04  2.10306903E-05  1.87769021E-04 -3.22128410E-05
 -3.95345039E-05  4.42881462E-05  7.46307047E-05 -5.43921772E-05 -1.14805186E-04
 -4.97287335E-05  9.44227677E-06 -2.03991808E-04 -1.00105646E-03  9.23486308E-04
  1.26310461E-03  8.88302007E-04  8.24636052E-05  1.00850706E-04  3.16242573E-06
  5.11549245E-04 -1.76082704E-05 -2.50209089E-02 -1.44483596E-02 -1.37993934E-03
  2.45861391E-04 -3.87203926E-03 -4.28354595E-03 -2.83357485E-04  9.18596094E-04
  6.49748936E-04 -1.30803008E-02 -5.76890677E-03 -5.07063591E-02 -3.10995122E-03
 -1.64977981E-03 -1.31180605E-03  1.45330082E-02  1.04365255E-02  5.29245469E-02
  2.01121134E-04  5.02041359E-04  3.40670687E-04 -5.23249144E-05 -1.96701192E-04
 -2.18673018E-04 -6.78730886E-04  1.05787249E-03 -1.94918870E-04 -1.12548006E-04
 -1.51476365E-04 -7.46307047E-05 -1.24046176E-04 -5.64226839E-04  7.10508575E-04
  2.26158865E-05  5.86204945E-07  4.06118023E-05  1.77669157E-05  1.25910359E-04
 -1.94026935E-04 -5.66468338E-04  3.63285937E-04 -1.41998403E-03  1.34869862E-04
  4.64633713E-04 -3.55627748E-04  8.95343615E-04 -1.46934656E-04 -4.32835345E-04
 -5.62868422E-02 -2.00661614E-02  3.36108860E-02  4.48411058E-03  1.23859567E-02
 -2.25389197E-02 -3.45591566E-03 -1.51764496E-02  2.66528321E-02  5.55210467E-02
  8.44187856E-04 -3.16985107E-04  6.59550681E-04 -1.60937486E-04  2.28803167E-05
 -1.37631761E-04  1.05787249E-03 -1.48679347E-03 -3.49084329E-04 -2.56845535E-04
 -1.93080734E-04  5.43921772E-05  4.66664702E-05  8.83242564E-04  5.09272100E-04
  8.31087238E-05 -9.24676947E-05 -6.07192321E-06 -2.42197516E-04  1.33201851E-04
  2.35468078E-04  3.15588019E-03  1.31709623E-02 -1.95164548E-02 -8.11087462E-05
  1.17366589E-03  9.47544988E-04  4.02213128E-04 -2.36288790E-03 -4.42595419E-03
 -2.06323325E-02 -1.19719628E-01  1.19203716E-01 -4.54899906E-03 -1.19460406E-02
  1.89084719E-02 -1.06917297E-03 -8.74213912E-03  1.29299179E-02  2.14016643E-02
  1.29476071E-01 -3.77548203E-04  6.51518959E-05 -3.07166149E-04 -6.69935759E-05
  1.08009794E-04  5.80880150E-04  1.94918870E-04  3.49084329E-04  1.06303937E-03
  4.75223876E-05 -2.58861324E-04 -1.14805186E-04 -5.29410448E-04  8.41570321E-04
 -2.33872475E-05  1.71598785E-05 -7.53428479E-05  6.93799015E-06 -1.02425625E-05
 -1.50770678E-04  2.08221483E-04  3.71062111E-03  1.41798659E-02 -2.27591562E-02
 -5.36449287E-04  8.66151623E-05  1.01912895E-03 -1.60577469E-04 -4.44377279E-03
 -3.32978024E-03  3.36573292E-02  1.18305961E-01 -2.48487036E-01 -4.63756061E-04
  1.45691304E-03 -1.83410883E-03  4.43318974E-04 -1.45128715E-03  2.84774822E-03
 -3.59258930E-02 -1.29013136E-01  2.71129483E-01
Nonadiabatic coupling                      R   N=          42
  0.00000000E+00  0.00000000E+00 -0.00000000E+00  0.00000000E+00  0.00000000E+00
 -0.00000000E+00  0.00000000E+00  0.00000000E+00 -0.00000000E+00  0.00000000E+00
  0.00000000E+00 -0.00000000E+00  0.00000000E+00  0.00000000E+00 -0.00000000E+00
  0.00000000E+00  0.00000000E+00 -0.00000000E+00  0.00000000E+00  0.00000000E+00
 -0.00000000E+00  0.00000000E+00  0.00000000E+00 -0.00000000E+00  0.00000000E+00
  0.00000000E+00 -0.00000000E+00  0.00000000E+00  0.00000000E+00 -0.00000000E+00
  0.00000000E+00  0.00000000E+00 -0.00000000E+00  0.00000000E+00  0.00000000E+00
 -0.00000000E+00  0.00000000E+00  0.00000000E+00 -0.00000000E+00  0.00000000E+00
  0.00000000E+00 -0.00000000E+00
Dipole Moment                              R   N=           3
  2.66280054E-15  1.77462212E-15  3.76298509E-02
Dipole Derivatives                         R   N=         126
  8.49102773E-02  4.18664509E-02 -1.05326973E-02  2.98739355E-02  3.98547980E-02
  5.94545517E-02  2.24500656E-03  5.68244248E-02  1.73607312E-02 -5.57325508E-02
  1.42150027E-01 -1.40433896E-03  1.23854562E-01 -7.02685382E-02  2.63905924E-02
  1.98086848E-02 -2.59244104E-03  5.49093708E-02  6.88364836E-02 -3.08609200E-02
 -1.29488205E-02 -3.36856243E-02  2.13781325E-03 -1.06381164E-01 -1.79810961E-02
 -5.77910472E-02 -1.13452930E-01 -1.17976432E-01 -1.26785212E-01  3.15617567E-02
 -7.30458291E-02  1.40457967E-02  2.93014061E-02 -1.15409153E-02  1.50463493E-02
  3.84721551E-02  1.15848215E-01  2.85843555E-02 -2.52893457E-03  3.18451726E-02
  1.18360042E-01 -1.00889373E-03  9.66068177E-03 -2.07047269E-02  1.15740772E-01
 -1.38939720E-01 -7.63367458E-02  1.75893881E-02 -1.14546460E-01 -4.66716057E-02
  4.05955110E-02 -1.30527906E-02  2.87752148E-02  3.56562479E-02  4.30537230E-02
  2.13820455E-02 -1.10666171E-02  3.57042465E-02 -5.74583085E-02 -1.08856779E-01
  7.50057921E-03 -8.96195953E-02 -1.48686350E-01  1.15848215E-01  2.85843620E-02
  2.52895090E-03  3.18451848E-02  1.18360048E-01  1.00890214E-03 -9.66068505E-03
  2.07047246E-02  1.15740801E-01 -1.38939720E-01 -7.63367455E-02 -1.75893879E-02
 -1.14546462E-01 -4.66716099E-02 -4.05955225E-02  1.30527939E-02 -2.87752060E-02
  3.56562487E-02  4.30537225E-02  2.13820467E-02  1.10666127E-02  3.57042411E-02
 -5.74583207E-02  1.08856774E-01 -7.50057751E-03  8.96195920E-02 -1.48686362E-01
  8.49102857E-02  4.18664583E-02  1.05327068E-02  2.98739280E-02  3.98547972E-02
 -5.94545784E-02 -2.24501045E-03 -5.68244319E-02  1.73607228E-02 -5.57325582E-02
  1.42150017E-01  1.40431742E-03  1.23854560E-01 -7.02685270E-02 -2.63905744E-02
 -1.98086847E-02  2.59243494E-03  5.49093580E-02 -1.17976436E-01 -1.26785215E-01
 -3.15617551E-02 -7.30458221E-02  1.40457989E-02 -2.93013989E-02  1.15409159E-02
 -1.50463437E-02  3.84721567E-02  6.88364845E-02 -3.08609236E-02  1.29488188E-02
 -3.36856267E-02  2.13781279E-03  1.06381173E-01  1.79810975E-02  5.77910515E-02
 -1.13452925E-01
Polarizability                             R   N=           6
  4.58183564E+01 -2.73766667E+00  4.94172932E+01 -1.73849930E-08 -1.04522751E-07
  4.59603539E+01
Quadrupole Moment                          R   N=           6
  1.56549243E-01 -4.48848892E-02 -1.11664354E-01  1.00101516E-01  4.16333634E-16
  8.88004947E-15
QEq coupling tensors                       R   N=          84
  1.51441574E-02 -3.29267180E-03 -5.53390567E-03  5.29790404E-03  3.13413629E-02
 -9.61025176E-03 -8.67870163E-02  2.22378148E-01 -5.78671067E-02  2.77428006E-02
 -2.28073141E-02  1.44654123E-01  1.42764951E-01 -3.11518390E-02  3.68041456E-02
 -5.40727331E-02 -1.89092881E-01 -1.79569096E-01 -1.88613677E-01 -1.87761827E-01
  4.37823745E-02  2.33970142E-02  1.67060942E-02  1.44831302E-01  3.62170083E-03
  2.40191156E-02  4.56975243E-04  5.31110688E-03  3.46251596E-02 -4.07867608E-03
 -1.74469738E-01 -1.90879188E-01  2.81385232E-02  6.35442138E-03  6.36292736E-03
  1.46331215E-01  1.47235086E-01 -5.24941198E-03  1.68163218E-02 -1.28033609E-02
 -1.97524653E-01 -1.64051408E-01  3.62170083E-03  2.40191156E-02  4.56975243E-04
 -5.31110688E-03 -3.46251596E-02 -4.07867608E-03 -1.74469738E-01 -1.90879188E-01
  2.81385232E-02 -6.35442138E-03 -6.36292736E-03  1.46331215E-01  1.47235086E-01
 -5.24941198E-03  1.68163218E-02  1.28033609E-02  1.97524653E-01 -1.64051408E-01
  1.51441574E-02 -3.29267180E-03 -5.53390567E-03 -5.29790404E-03 -3.13413629E-02
 -9.61025176E-03 -8.67870163E-02  2.22378148E-01 -5.78671067E-02 -2.77428006E-02
  2.28073141E-02  1.44654123E-01 -1.88613677E-01 -1.87761827E-01  4.37823745E-02
 -2.33970142E-02 -1.67060942E-02  1.44831302E-01  1.42764951E-01 -3.11518390E-02
  3.68041456E-02  5.40727331E-02  1.89092881E-01 -1.79569096E-01
Number of Normal Modes                     I               36
Vib-LE2Fix                                 I               14
Vib-NDFDPol                                I                0
Vib-NumROA                                 I                0
Vib-NDim                                   I               14
Vib-NDim0                                  I               14
Vib-LFlags                                 I                8
Vib-IFlags                                 I   N=         288
           0           0           1           0           0           0
           0           0           0           0           2           0
           0           0           0           0           0           0
           3           0           0           0           0           0
           0           0           4           0           0           0
           0           0           0           0           5           0
           0           0           0           0           0           0
           6           0           0           0           0           0
           0           0           7           0           0           0
           0           0           0           0           8           0
           0           0           0           0           0           0
           9           0           0           0           0           0
           0           0          10           0           0           0
           0           0           0           0          11           0
           0           0           0           0           0           0
          12           0           0           0           0           0
           0           0          13           0           0           0
           0           0           0           0          14           0
           0           0           0           0           0           0
          15           0           0           0           0           0
           0           0          16           0           0           0
           0           0           0           0          17           0
           0           0           0           0           0           0
          18           0           0           0           0           0
           0           0          19           0           0           0
           0           0           0           0          20           0
           0           0           0           0           0           0
          21           0           0           0           0           0
           0           0          22           0           0           0
           0           0           0           0          23           0
           0           0           0           0           0           0
          24           0           0           0           0           0
           0           0          25           0           0           0
           0           0           0           0          26           0
           0           0           0           0           0           0
          27           0           0           0           0           0
           0           0          28           0           0           0
           0           0           0           0          29           0
           0           0           0           0           0           0
          30           0           0           0           0           0
           0           0          31           0           0           0
           0           0           0           0          32           0
           0           0           0           0           0           0
          33           0           0           0           0           0
           0           0          34           0           0           0
           0           0           0           0          35           0
           0           0           0           0           0           0
          36           0           0           0           0           0
Vib-AtMass                                 R   N=          14
  1.20000000E+01  1.00782504E+00  1.00782504E+00  1.00782504E+00  1.20000000E+01
  1.00782504E+00  1.00782504E+00  1.20000000E+01  1.00782504E+00  1.00782504E+00
  1.20000000E+01  1.00782504E+00  1.00782504E+00  1.00782504E+00
Vib-E2                                     R   N=         504
  1.08277132E+02  2.04826690E+02  2.80157682E+02  3.19773871E+02  4.38022130E+02
  7.56969328E+02  8.12560145E+02  8.53943449E+02  9.81336838E+02  9.91524281E+02
  1.00979451E+03  1.11448744E+03  1.17149327E+03  1.21633168E+03  1.30693123E+03
  1.33131495E+03  1.39326941E+03  1.40582030E+03  1.44685757E+03  1.44991384E+03
  1.52209748E+03  1.52725037E+03  1.54049706E+03  1.54365573E+03  1.54602284E+03
  1.55468718E+03  3.08867762E+03  3.09005415E+03  3.10283615E+03  3.10438490E+03
  3.12350968E+03  3.12716075E+03  3.16581948E+03  3.16596106E+03  3.17303312E+03
  3.18068043E+03  1.53861282E+00  1.04518090E+00  1.39876342E+00  1.71311322E+00
  1.97799526E+00  1.15049622E+00  1.29013566E+00  1.91281359E+00  1.15678633E+00
  2.06841577E+00  1.34523520E+00  2.03638637E+00  1.84693342E+00  1.83952030E+00
  1.23160899E+00  1.15930608E+00  1.31098126E+00  1.55788055E+00  1.24715284E+00
  1.32404120E+00  1.06453179E+00  1.06694417E+00  1.04283816E+00  1.07370391E+00
  1.05600122E+00  1.05200321E+00  1.06808013E+00  1.05984005E+00  1.03728038E+00
  1.03880341E+00  1.09400240E+00  1.10344961E+00  1.10053346E+00  1.10117903E+00
  1.10261977E+00  1.10139135E+00  1.06280365E-02  2.58353744E-02  6.46843977E-02
  1.03210104E-01  2.23597815E-01  3.88411395E-01  5.01876217E-01  8.21828265E-01
  6.56356143E-01  1.19810464E+00  8.08191788E-01  1.49025553E+00  1.49341682E+00
  1.60346257E+00  1.23944862E+00  1.21062583E+00  1.49939788E+00  1.81402796E+00
  1.53823059E+00  1.63997071E+00  1.45309420E+00  1.46626469E+00  1.45810521E+00
  1.50742473E+00  1.48712143E+00  1.49814311E+00  6.00342654E+00  5.96242198E+00
  5.88388329E+00  5.89840641E+00  6.28860316E+00  6.35774526E+00  6.49868894E+00
  6.50308264E+00  6.54071444E+00  6.56495775E+00  4.03142342E-03  5.40123599E-02
  2.77871740E-02  1.93948066E-02  4.09561017E-01  4.04285600E+00  1.82469311E+00
  4.70106878E-06  3.63105413E+00  1.21862237E+00  1.04712187E-01  1.37344965E-01
  2.60517177E+00  6.37077635E-02  2.24988521E-01  4.83034005E-01  7.03318874E-01
  6.91938919E-02  7.41585120E+00  8.25796669E+00  6.00507691E-01  2.81708749E-02
  1.42477657E+01  6.50193879E+00  1.38093503E+01  1.06958999E+00  1.69794881E+01
  3.28566289E+01  2.47084149E+01  3.22930719E+01  3.02363540E+01  3.22492675E+01
  2.14713973E+00  9.20342841E+01  5.95072383E+01  3.63475337E+01  0.00000000E+00
  0.00000000E+00  0.00000000E+00  0.00000000E+00  0.00000000E+00  0.00000000E+00
  0.00000000E+00  0.00000000E+00  0.00000000E+00  0.00000000E+00  0.00000000E+00
  0.00000000E+00  0.00000000E+00  0.00000000E+00  0.00000000E+00  0.00000000E+00
  0.00000000E+00  0.00000000E+00  0.00000000E+00  0.00000000E+00  0.00000000E+00
  0.00000000E+00  0.00000000E+00  0.00000000E+00  0.00000000E+00  0.00000000E+00
  0.00000000E+00  0.00000000E+00  0.00000000E+00  0.00000000E+00  0.00000000E+00
  0.00000000E+00  0.00000000E+00  0.00000000E+00  0.00000000E+00  0.00000000E+00
  0.00000000E+00  0.00000000E+00  0.00000000E+00  0.00000000E+00  0.00000000E+00
  0.00000000E+00  0.00000000E+00  0.00000000E+00  0.00000000E+00  0.00000000E+00
  0.00000000E+00  0.00000000E+00  0.00000000E+00  0.00000000E+00  0.00000000E+00
  0.00000000E+00  0.00000000E+00  0.00000000E+00  0.00000000E+00  0.00000000E+00
  0.00000000E+00  0.00000000E+00  0.00000000E+00  0.00000000E+00  0.00000000E+00
  0.00000000E+00  0.00000000E+00  0.00000000E+00  0.00000000E+00  0.00000000E+00
  0.00000000E+00  0.00000000E+00  0.00000000E+00  0.00000000E+00  0.00000000E+00
  0.00000000E+00  0.00000000E+00  0.00000000E+00  0.00000000E+00  0.00000000E+00
  0.00000000E+00  0.00000000E+00  0.00000000E+00  0.00000000E+00  0.00000000E+00
  0.00000000E+00  0.00000000E+00  0.00000000E+00  0.00000000E+00  0.00000000E+00
  0.00000000E+00  0.00000000E+00  0.00000000E+00  0.00000000E+00  0.00000000E+00
  0.00000000E+00  0.00000000E+00  0.00000000E+00  0.00000000E+00  0.00000000E+00
  0.00000000E+00  0.00000000E+00  0.00000000E+00  0.00000000E+00  0.00000000E+00
  0.00000000E+00  0.00000000E+00  0.00000000E+00  0.00000000E+00  0.00000000E+00
  0.00000000E+00  0.00000000E+00  0.00000000E+00  0.00000000E+00  0.00000000E+00
  0.00000000E+00  0.00000000E+00  0.00000000E+00  0.00000000E+00  0.00000000E+00
  0.00000000E+00  0.00000000E+00  0.00000000E+00  0.00000000E+00  0.00000000E+00
  0.00000000E+00  0.00000000E+00  0.00000000E+00  0.00000000E+00  0.00000000E+00
  0.00000000E+00  0.00000000E+00  0.00000000E+00  0.00000000E+00  0.00000000E+00
  0.00000000E+00  0.00000000E+00  0.00000000E+00  0.00000000E+00  0.00000000E+00
  0.00000000E+00  0.00000000E+00  0.00000000E+00  0.00000000E+00  0.00000000E+00
  0.00000000E+00  0.00000000E+00  0.00000000E+00  0.00000000E+00  0.00000000E+00
  0.00000000E+00  0.00000000E+00  0.00000000E+00  0.00000000E+00  0.00000000E+00
  0.00000000E+00  0.00000000E+00  0.00000000E+00  0.00000000E+00  0.00000000E+00
  0.00000000E+00  0.00000000E+00  0.00000000E+00  0.00000000E+00  0.00000000E+00
  0.00000000E+00  0.00000000E+00  0.00000000E+00  0.00000000E+00  0.00000000E+00
  0.00000000E+00  0.00000000E+00  0.00000000E+00  0.00000000E+00  0.00000000E+00
  0.00000000E+00  0.00000000E+00  0.00000000E+00  0.00000000E+00  0.00000000E+00
  0.00000000E+00  0.00000000E+00  0.00000000E+00  0.00000000E+00  1.00000000E+02
  1.00000000E+02  1.00000000E+02  1.00000000E+02  1.00000000E+02  1.00000000E+02
  1.00000000E+02  1.00000000E+02  1.00000000E+02  1.00000000E+02  1.00000000E+02
  1.00000000E+02  1.00000000E+02  1.00000000E+02  1.00000000E+02  1.00000000E+02
  1.00000000E+02  1.00000000E+02  1.00000000E+02  1.00000000E+02  1.00000000E+02
  1.00000000E+02  1.00000000E+02  1.00000000E+02  1.00000000E+02  1.00000000E+02
  1.00000000E+02  1.00000000E+02  1.00000000E+02  1.00000000E+02  1.00000000E+02
  1.00000000E+02  1.00000000E+02  1.00000000E+02  1.00000000E+02  1.00000000E+02
  0.00000000E+00  0.00000000E+00  0.00000000E+00  0.00000000E+00  0.00000000E+00
  0.00000000E+00  0.00000000E+00  0.00000000E+00  0.00000000E+00  0.00000000E+00
  0.00000000E+00  0.00000000E+00  0.00000000E+00  0.00000000E+00  0.00000000E+00
  0.00000000E+00  0.00000000E+00  0.00000000E+00  0.00000000E+00  0.00000000E+00
  0.00000000E+00  0.00000000E+00  0.00000000E+00  0.00000000E+00  0.00000000E+00
  0.00000000E+00  0.00000000E+00  0.00000000E+00  0.00000000E+00  0.00000000E+00
  0.00000000E+00  0.00000000E+00  0.00000000E+00  0.00000000E+00  0.00000000E+00
  0.00000000E+00  0.00000000E+00  0.00000000E+00  0.00000000E+00  0.00000000E+00
  0.00000000E+00  0.00000000E+00  0.00000000E+00  0.00000000E+00  0.00000000E+00
  0.00000000E+00  0.00000000E+00  0.00000000E+00  0.00000000E+00  0.00000000E+00
  0.00000000E+00  0.00000000E+00  0.00000000E+00  0.00000000E+00  0.00000000E+00
  0.00000000E+00  0.00000000E+00  0.00000000E+00  0.00000000E+00  0.00000000E+00
  0.00000000E+00  0.00000000E+00  0.00000000E+00  0.00000000E+00  0.00000000E+00
  0.00000000E+00  0.00000000E+00  0.00000000E+00  0.00000000E+00  0.00000000E+00
  0.00000000E+00  0.00000000E+00  0.00000000E+00  0.00000000E+00  0.00000000E+00
  0.00000000E+00  0.00000000E+00  0.00000000E+00  0.00000000E+00  0.00000000E+00
  0.00000000E+00  0.00000000E+00  0.00000000E+00  0.00000000E+00  0.00000000E+00
  0.00000000E+00  0.00000000E+00  0.00000000E+00  0.00000000E+00  0.00000000E+00
  0.00000000E+00  0.00000000E+00  0.00000000E+00  0.00000000E+00  0.00000000E+00
  0.00000000E+00  0.00000000E+00  0.00000000E+00  0.00000000E+00  0.00000000E+00
  0.00000000E+00  0.00000000E+00  0.00000000E+00  0.00000000E+00  0.00000000E+00
  0.00000000E+00  0.00000000E+00  0.00000000E+00  0.00000000E+00  0.00000000E+00
  0.00000000E+00  0.00000000E+00  0.00000000E+00  0.00000000E+00  0.00000000E+00
  0.00000000E+00  0.00000000E+00  0.00000000E+00  0.00000000E+00  0.00000000E+00
  0.00000000E+00  0.00000000E+00  0.00000000E+00  0.00000000E+00  0.00000000E+00
  0.00000000E+00  0.00000000E+00  0.00000000E+00  0.00000000E+00  0.00000000E+00
  0.00000000E+00  0.00000000E+00  0.00000000E+00  0.00000000E+00  0.00000000E+00
  0.00000000E+00  0.00000000E+00  0.00000000E+00  0.00000000E+00  0.00000000E+00
  0.00000000E+00  0.00000000E+00  0.00000000E+00  0.00000000E+00
Vib-Modes                                  R   N=        1512
  1.79885135E-02  1.15457640E-01  5.87499929E-02 -1.40582645E-01 -4.68945640E-02
  2.46908583E-03  3.05645879E-01  2.14732585E-01 -4.59746246E-02 -6.94828266E-02
  3.06545603E-01  3.20700176E-01 -3.50078310E-02 -4.12227570E-02 -6.41359002E-02
  3.61118226E-03 -1.12325577E-01 -2.20414833E-01 -1.68033999E-01 -1.45242538E-01
  7.34927079E-03  3.50078310E-02  4.12227570E-02 -6.41359002E-02 -3.61118226E-03
  1.12325577E-01 -2.20414833E-01  1.68033999E-01  1.45242538E-01  7.34927080E-03
 -1.79885135E-02 -1.15457640E-01  5.87499929E-02  1.40582645E-01  4.68945640E-02
  2.46908583E-03  6.94828266E-02 -3.06545603E-01  3.20700176E-01 -3.05645879E-01
 -2.14732585E-01 -4.59746246E-02 -2.51751896E-02 -4.11891514E-03  4.24305102E-03
 -2.94911242E-01 -2.71129248E-01 -1.72074520E-01  3.53836266E-01 -7.07001263E-02
 -2.01940260E-02 -1.88581473E-01  3.13906444E-01  1.99042944E-01  3.01461030E-02
  6.97746635E-03  8.54230200E-03  4.60446250E-02 -1.97113127E-02  2.38680132E-02
  2.44240090E-02  1.35979628E-02  4.79106000E-03  3.01461030E-02  6.97746635E-03
 -8.54230200E-03  4.60446250E-02 -1.97113127E-02 -2.38680132E-02  2.44240090E-02
  1.35979628E-02 -4.79106000E-03 -2.51751896E-02 -4.11891514E-03 -4.24305101E-03
 -2.94911242E-01 -2.71129248E-01  1.72074520E-01 -1.88581473E-01  3.13906444E-01
 -1.99042944E-01  3.53836266E-01 -7.07001264E-02  2.01940260E-02  6.81673988E-02
 -9.96991671E-02 -3.45254834E-02 -1.37018185E-01 -2.87315672E-01 -3.09737042E-01
  4.32256436E-01 -2.19723337E-01 -2.15208259E-02 -4.21768100E-02  1.24076868E-01
  1.56328376E-01  6.59251618E-03  4.35222168E-03  4.40618445E-02  2.79279980E-04
  1.55008634E-02  5.68422893E-02  7.95884683E-04  6.52980821E-02  4.53938508E-03
 -6.59251618E-03 -4.35222168E-03  4.40618445E-02 -2.79279978E-04 -1.55008634E-02
  5.68422893E-02 -7.95884681E-04 -6.52980821E-02  4.53938507E-03 -6.81673988E-02
  9.96991671E-02 -3.45254834E-02  1.37018185E-01  2.87315672E-01 -3.09737042E-01
  4.21768100E-02 -1.24076868E-01  1.56328376E-01 -4.32256436E-01  2.19723337E-01
 -2.15208259E-02 -8.34333891E-02  8.35261044E-02 -1.73134234E-02 -2.62948978E-01
 -1.06800926E-01 -1.41112892E-02  2.82815538E-02  3.52056233E-02 -8.60870604E-03
 -2.13579838E-01  3.12212454E-01 -3.34284054E-02  7.91606414E-02  1.07384042E-01
  6.79269006E-03 -9.39817022E-03  2.62957003E-01  2.10396432E-01  3.21191771E-01
  1.52780061E-01 -2.89794618E-02 -7.91606414E-02 -1.07384042E-01  6.79269006E-03
  9.39817023E-03 -2.62957003E-01  2.10396432E-01 -3.21191771E-01 -1.52780061E-01
 -2.89794618E-02  8.34333891E-02 -8.35261044E-02 -1.73134234E-02  2.62948978E-01
  1.06800926E-01 -1.41112892E-02  2.13579838E-01 -3.12212454E-01 -3.34284054E-02
 -2.82815538E-02 -3.52056233E-02 -8.60870604E-03  6.41043081E-02 -6.47728940E-02
  5.67529625E-02  1.21130941E-01  2.74621913E-02 -2.33570208E-01  2.09648687E-01
 -2.26210831E-01  1.25334660E-01  1.36993038E-01 -1.82130387E-01  1.41738450E-01
 -1.02444943E-01  7.15646391E-02  1.30337203E-01 -1.72863510E-01  2.01012374E-01
  2.93253811E-01  1.61606216E-01  9.89985076E-02  1.04039201E-01 -1.02444943E-01
  7.15646391E-02 -1.30337203E-01 -1.72863510E-01  2.01012374E-01 -2.93253811E-01
  1.61606216E-01  9.89985076E-02 -1.04039201E-01  6.41043081E-02 -6.47728940E-02
 -5.67529625E-02  1.21130941E-01  2.74621913E-02  2.33570208E-01  1.36993038E-01
 -1.82130387E-01 -1.41738450E-01  2.09648687E-01 -2.26210831E-01 -1.25334660E-01
 -3.14912958E-03  3.24705451E-03 -3.52423854E-02  3.19628735E-02  2.26110983E-02
  1.35315892E-01  5.13904964E-02  2.84199800E-01 -2.04441500E-01  8.48106495E-03
  1.97806860E-02  2.06049324E-01 -2.03613867E-02 -5.67431849E-02 -3.99100117E-02
 -1.27454753E-01  1.44190977E-01  3.24030948E-01  3.15556006E-01  1.66186695E-01
 -1.90565658E-01 -2.03613867E-02 -5.67431849E-02  3.99100117E-02 -1.27454753E-01
  1.44190977E-01 -3.24030948E-01  3.15556006E-01  1.66186695E-01  1.90565658E-01
 -3.14912958E-03  3.24705451E-03  3.52423854E-02  3.19628735E-02  2.26110983E-02
 -1.35315892E-01  8.48106495E-03  1.97806860E-02 -2.06049324E-01  5.13904964E-02
  2.84199800E-01  2.04441500E-01 -9.20275827E-03 -6.01816308E-02  2.64673844E-02
  7.22300060E-02  8.85214135E-03  1.69307443E-01  8.12357677E-02  2.17725631E-01
 -1.46451138E-01  4.41988276E-02 -1.11127414E-01  3.18730442E-01  1.18516768E-02
 -6.12894936E-02 -6.73611901E-02 -6.00348497E-03 -8.78852833E-03  3.27262383E-01
  3.32368002E-01  1.05224432E-01 -1.81933595E-01 -1.18516768E-02  6.12894936E-02
 -6.73611901E-02  6.00348497E-03  8.78852833E-03  3.27262383E-01 -3.32368002E-01
 -1.05224432E-01 -1.81933595E-01  9.20275828E-03  6.01816308E-02  2.64673844E-02
 -7.22300060E-02 -8.85214135E-03  1.69307443E-01 -4.41988276E-02  1.11127414E-01
  3.18730442E-01 -8.12357677E-02 -2.17725631E-01 -1.46451138E-01  6.37808521E-02
 -7.66931158E-02  6.95922396E-02 -1.18958442E-01 -3.04971760E-01  3.53870250E-01
 -1.52771034E-01 -7.91911121E-02  1.06371843E-01 -9.76245844E-02  1.69849179E-01
 -1.94258628E-01  1.42302875E-01 -3.48420638E-02 -7.00581074E-02  1.03186831E-01
  1.67801384E-02 -2.68005838E-01  4.91443039E-02 -1.55506410E-01  7.56937993E-03
 -1.42302875E-01  3.48420638E-02 -7.00581074E-02 -1.03186831E-01 -1.67801384E-02
 -2.68005838E-01 -4.91443039E-02  1.55506410E-01  7.56937992E-03 -6.37808521E-02
  7.66931158E-02  6.95922396E-02  1.18958442E-01  3.04971760E-01  3.53870250E-01
  9.76245844E-02 -1.69849179E-01 -1.94258628E-01  1.52771034E-01  7.91911121E-02
  1.06371843E-01  6.80242986E-02 -1.46233346E-02  2.63736233E-02 -1.25911994E-01
 -2.39228934E-01  2.15658029E-01 -1.52008750E-01 -8.01793325E-02  9.86304603E-02
 -9.15908035E-02  2.20168734E-01 -2.61863413E-01 -2.59858647E-02 -4.40693092E-03
 -2.33320966E-02 -2.41193852E-01  3.50859778E-01 -1.21287217E-01  1.10160972E-01
 -2.50301355E-02 -1.35266991E-02 -2.59858647E-02 -4.40693092E-03  2.33320966E-02
 -2.41193852E-01  3.50859778E-01  1.21287217E-01  1.10160972E-01 -2.50301354E-02
  1.35266991E-02  6.80242986E-02 -1.46233346E-02 -2.63736233E-02 -1.25911994E-01
 -2.39228934E-01 -2.15658029E-01 -9.15908035E-02  2.20168734E-01  2.61863413E-01
 -1.52008750E-01 -8.01793324E-02 -9.86304603E-02  2.69739774E-03  1.30006177E-01
 -1.00937413E-01 -2.98545086E-02  1.22294547E-01 -3.24347734E-01  1.25118965E-02
 -7.98380170E-02  1.11540356E-02  1.01753448E-03  1.07754319E-01 -2.81679453E-01
 -1.28863278E-02 -1.17878642E-01  8.41683619E-02 -1.05019058E-01  3.49301714E-02
  9.83269241E-02  2.42661979E-01 -3.29541504E-01  2.09041043E-01 -1.28863278E-02
 -1.17878642E-01 -8.41683619E-02 -1.05019058E-01  3.49301714E-02 -9.83269241E-02
  2.42661979E-01 -3.29541504E-01 -2.09041043E-01  2.69739775E-03  1.30006177E-01
  1.00937413E-01 -2.98545086E-02  1.22294547E-01  3.24347734E-01  1.01753448E-03
  1.07754319E-01  2.81679453E-01  1.25118965E-02 -7.98380170E-02 -1.11540356E-02
  3.75620570E-02 -1.87929167E-02 -8.20374507E-02 -1.44413555E-02 -1.13973315E-01
  3.31842138E-01 -9.11094309E-02  3.15847522E-01 -2.50662005E-01 -7.28006504E-02
  1.90044548E-01 -1.00324860E-03 -7.53153255E-03 -5.29076555E-03  8.22727302E-02
  1.73869866E-03 -2.41510920E-02 -3.46164240E-03 -2.68490611E-01  2.64605920E-01
 -7.95166744E-02  7.53153255E-03  5.29076555E-03  8.22727302E-02 -1.73869867E-03
  2.41510920E-02 -3.46164240E-03  2.68490611E-01 -2.64605920E-01 -7.95166744E-02
 -3.75620570E-02  1.87929167E-02 -8.20374507E-02  1.44413555E-02  1.13973315E-01
  3.31842138E-01  7.28006504E-02 -1.90044548E-01 -1.00324860E-03  9.11094309E-02
 -3.15847522E-01 -2.50662005E-01 -1.69451597E-02 -7.30973929E-02  8.44031388E-02
  9.14349602E-04 -5.86263602E-02  1.27388142E-01 -1.96384524E-02 -4.70947383E-02
  7.35809278E-02 -2.47468689E-03 -9.34811466E-02  1.67779915E-01 -8.75486900E-02
  1.41664396E-01 -7.93614421E-02 -2.00639736E-01  3.21189360E-01 -2.41326642E-01
 -2.32826711E-01  3.12460035E-01 -1.87452962E-01  8.75486900E-02 -1.41664396E-01
 -7.93614421E-02  2.00639736E-01 -3.21189360E-01 -2.41326642E-01  2.32826711E-01
 -3.12460035E-01 -1.87452962E-01  1.69451597E-02  7.30973929E-02  8.44031388E-02
 -9.14349605E-04  5.86263602E-02  1.27388142E-01  2.47468689E-03  9.34811466E-02
  1.67779915E-01  1.96384524E-02  4.70947383E-02  7.35809278E-02  5.82769859E-02
 -4.86697563E-02 -9.32080582E-02  1.03394385E-02 -1.35263170E-01  3.02614829E-01
 -1.06798799E-01  3.15468071E-01 -2.72238727E-01 -8.15610763E-02  2.15022586E-01
  5.17267350E-03 -3.24000516E-02  3.09121805E-02  1.47344567E-01  8.26325658E-02
 -1.73620647E-01  1.08358248E-02 -2.12724351E-01 -1.01704284E-02  1.77353691E-01
 -3.24000516E-02  3.09121805E-02 -1.47344567E-01  8.26325658E-02 -1.73620647E-01
 -1.08358248E-02 -2.12724351E-01 -1.01704284E-02 -1.77353691E-01  5.82769859E-02
 -4.86697563E-02  9.32080582E-02  1.03394385E-02 -1.35263170E-01 -3.02614829E-01
 -8.15610763E-02  2.15022586E-01 -5.17267350E-03 -1.06798799E-01  3.15468071E-01
  2.72238727E-01 -9.20445270E-02 -3.75904695E-02 -2.07079071E-02  1.21020055E-01
  1.84714175E-01 -4.12466749E-02  1.62565621E-01  1.09461553E-01 -1.41283703E-01
  4.58992099E-02 -2.18560221E-01  3.25084586E-01  1.47140569E-01  7.36554701E-02
  2.10169214E-02  2.56982762E-01 -1.30654382E-01 -2.51301754E-01 -1.95677986E-01
 -4.67335434E-02  1.05068166E-01 -1.47140569E-01 -7.36554701E-02  2.10169214E-02
 -2.56982762E-01  1.30654382E-01 -2.51301754E-01  1.95677986E-01  4.67335434E-02
  1.05068166E-01  9.20445270E-02  3.75904695E-02 -2.07079071E-02 -1.21020055E-01
 -1.84714175E-01 -4.12466749E-02 -4.58992099E-02  2.18560221E-01  3.25084586E-01
 -1.62565621E-01 -1.09461553E-01 -1.41283703E-01 -6.23586963E-02 -4.23485150E-02
 -2.60242296E-02  8.74842257E-02  1.11955535E-01  1.27811048E-02  1.07099223E-01
  1.09064406E-01 -1.39811912E-01 -1.56534178E-03 -1.07857297E-01  2.00770325E-01
  5.41060268E-02  1.92800512E-02  2.28208756E-02 -1.65175373E-01  3.75362663E-01
 -3.55392400E-01  7.04203867E-02 -2.13853063E-01  1.71571821E-01  5.41060268E-02
  1.92800512E-02 -2.28208756E-02 -1.65175373E-01  3.75362663E-01  3.55392400E-01
  7.04203867E-02 -2.13853063E-01 -1.71571821E-01 -6.23586963E-02 -4.23485150E-02
  2.60242296E-02  8.74842257E-02  1.11955535E-01 -1.27811048E-02 -1.56534178E-03
 -1.07857297E-01 -2.00770325E-01  1.07099223E-01  1.09064406E-01  1.39811912E-01
  2.28992772E-03  4.47529039E-02  4.16952047E-02 -3.63830480E-02  1.53297609E-02
 -1.06020585E-01  2.58841657E-02 -1.31715287E-01  1.39244839E-01  3.50269609E-02
 -3.11441322E-02 -1.14502862E-01  4.53528657E-02 -2.60848980E-02 -2.01629091E-02
  1.89595514E-01 -2.54658834E-01  1.27968978E-01 -1.99060964E-01  4.23016955E-01
 -3.03071724E-01 -4.53528657E-02  2.60848980E-02 -2.01629091E-02 -1.89595514E-01
  2.54658834E-01  1.27968978E-01  1.99060964E-01 -4.23016955E-01 -3.03071724E-01
 -2.28992772E-03 -4.47529039E-02  4.16952047E-02  3.63830480E-02 -1.53297609E-02
 -1.06020585E-01 -3.50269609E-02  3.11441322E-02 -1.14502862E-01 -2.58841657E-02
  1.31715287E-01  1.39244839E-01 -1.08103013E-02 -5.71476845E-04  3.65604002E-02
  4.65378210E-02  1.00006566E-01 -2.17623216E-01  3.74698368E-02  1.26037871E-01
 -5.44862650E-02 -4.63544281E-02  5.23631417E-02 -1.74931854E-01  4.32310833E-02
 -7.26078635E-02  7.20760523E-02 -1.17209214E-01  1.81120995E-01 -1.01257783E-01
 -3.06472710E-01  4.11805291E-01 -2.25007269E-01  4.32310833E-02 -7.26078635E-02
 -7.20760523E-02 -1.17209214E-01  1.81120995E-01  1.01257783E-01 -3.06472710E-01
  4.11805291E-01  2.25007269E-01 -1.08103013E-02 -5.71476842E-04 -3.65604002E-02
  4.65378210E-02  1.00006566E-01  2.17623216E-01 -4.63544281E-02  5.23631417E-02
  1.74931854E-01  3.74698369E-02  1.26037871E-01  5.44862650E-02 -4.05530130E-02
  1.66251432E-02  9.83927685E-03  1.28496635E-02  8.85146806E-02 -1.32263653E-01
  1.17988370E-01  3.68626574E-02 -3.46811162E-02  1.78192326E-02 -9.32985491E-02
 -6.87146434E-02  6.33575303E-02 -1.31445989E-01  4.13563002E-02 -3.05038792E-01
  4.76428165E-01 -2.39728895E-01 -5.24709887E-02  1.44903763E-01 -1.34188654E-01
 -6.33575303E-02  1.31445989E-01  4.13563002E-02  3.05038792E-01 -4.76428165E-01
 -2.39728895E-01  5.24709887E-02 -1.44903763E-01 -1.34188654E-01  4.05530130E-02
 -1.66251432E-02  9.83927685E-03 -1.28496635E-02 -8.85146806E-02 -1.32263653E-01
 -1.78192326E-02  9.32985491E-02 -6.87146434E-02 -1.17988370E-01 -3.68626574E-02
 -3.46811162E-02 -4.07441795E-04 -6.67830675E-02  7.72303905E-02  1.57842613E-01
  1.65345996E-01 -3.19707523E-01  3.46299882E-02  3.40256303E-01 -1.75005480E-01
 -1.72290208E-01  2.10806947E-01 -3.19651443E-01 -9.28689777E-03  1.86255877E-02
 -5.33331050E-03  4.80353213E-02 -6.66815488E-02 -3.23238934E-02  5.16476597E-02
  1.38605500E-02 -9.37787195E-03  9.28689776E-03 -1.86255877E-02 -5.33331049E-03
 -4.80353213E-02  6.66815488E-02 -3.23238935E-02 -5.16476597E-02 -1.38605500E-02
 -9.37787196E-03  4.07441796E-04  6.67830674E-02  7.72303905E-02 -1.57842613E-01
 -1.65345996E-01 -3.19707523E-01  1.72290208E-01 -2.10806947E-01 -3.19651442E-01
 -3.46299882E-02 -3.40256303E-01 -1.75005479E-01  6.99844617E-03 -6.96356943E-02
  7.64770896E-02  1.24987453E-01  1.18942582E-01 -3.35023862E-01 -2.28674699E-02
  3.38142790E-01 -1.66054533E-01 -1.56267727E-01  1.91602765E-01 -2.67163834E-01
 -1.82310258E-02  3.64604967E-02 -4.44421256E-02  5.36376181E-02 -7.52811011E-02
  5.47111680E-02  1.34254527E-01 -1.78395644E-01  8.52875753E-02 -1.82310258E-02
  3.64604967E-02  4.44421256E-02  5.36376181E-02 -7.52811011E-02 -5.47111680E-02
  1.34254527E-01 -1.78395644E-01 -8.52875753E-02  6.99844617E-03 -6.96356943E-02
 -7.64770896E-02  1.24987453E-01  1.18942582E-01  3.35023862E-01 -1.56267727E-01
  1.91602765E-01  2.67163834E-01 -2.28674699E-02  3.38142790E-01  1.66054534E-01
 -1.48171659E-02 -8.64859163E-03 -6.73124123E-03  1.27586091E-01  1.15452476E-01
  1.66429531E-01  2.04613572E-01 -8.86034351E-02  9.48949813E-03 -6.18793474E-02
  8.02240525E-02 -1.04702748E-01  2.95612376E-02  5.20049459E-04 -3.69543101E-02
 -7.60803164E-02  1.67598329E-01  3.94043105E-01 -3.69795133E-01 -1.77886264E-01
  1.07424463E-01  2.95612376E-02  5.20049458E-04  3.69543101E-02 -7.60803164E-02
  1.67598329E-01 -3.94043105E-01 -3.69795133E-01 -1.77886264E-01 -1.07424463E-01
 -1.48171659E-02 -8.64859163E-03  6.73124123E-03  1.27586091E-01  1.15452476E-01
 -1.66429531E-01 -6.18793474E-02  8.02240525E-02  1.04702748E-01  2.04613572E-01
 -8.86034351E-02 -9.48949813E-03 -3.09362074E-03  9.93111857E-03  2.31220103E-02
 -1.52504146E-01 -1.58661245E-01  4.04344985E-03  1.43845224E-01  1.62148496E-01
 -9.99776270E-02  1.08141243E-01 -2.23873675E-01 -2.05638312E-01  2.28460407E-02
  1.54653028E-02 -3.58497451E-02 -4.85646308E-02  1.29540173E-01  3.44838021E-01
 -3.29108580E-01 -1.72318480E-01  1.08281426E-01 -2.28460407E-02 -1.54653028E-02
 -3.58497451E-02  4.85646308E-02 -1.29540173E-01  3.44838021E-01  3.29108580E-01
  1.72318480E-01  1.08281426E-01  3.09362074E-03 -9.93111857E-03  2.31220103E-02
  1.52504146E-01  1.58661245E-01  4.04344986E-03 -1.08141243E-01  2.23873675E-01
 -2.05638312E-01 -1.43845224E-01 -1.62148496E-01 -9.99776270E-02 -1.05718861E-02
 -2.38322500E-02 -1.90318794E-02  3.01328890E-01  2.98453413E-01  1.38994968E-01
  6.23028243E-02 -2.36212006E-01  1.07959746E-01 -1.97533397E-01  3.36774096E-01
  6.36263815E-02 -1.92833613E-02 -1.00131203E-02  8.86423456E-03  3.29514465E-02
 -9.86553005E-02 -1.38992683E-01  1.56431550E-01  1.02630821E-01 -7.90889481E-02
 -1.92833613E-02 -1.00131203E-02 -8.86423455E-03  3.29514465E-02 -9.86553005E-02
  1.38992683E-01  1.56431550E-01  1.02630821E-01  7.90889481E-02 -1.05718861E-02
 -2.38322500E-02  1.90318794E-02  3.01328890E-01  2.98453413E-01 -1.38994968E-01
 -1.97533397E-01  3.36774096E-01 -6.36263815E-02  6.23028243E-02 -2.36212006E-01
 -1.07959746E-01  8.07545339E-04 -2.43740092E-02 -1.58156331E-02  2.47488717E-01
  2.40876644E-01  2.83234697E-02 -5.88958943E-02 -1.87728963E-01  1.02503246E-01
 -1.69258156E-01  3.06680395E-01  1.34311366E-01  2.91315825E-02 -1.55075234E-02
 -3.25977733E-02 -6.25328627E-02  1.36795195E-01  2.76440893E-01 -2.79226655E-01
 -9.35094754E-02  3.48711578E-02 -2.91315825E-02  1.55075234E-02 -3.25977733E-02
  6.25328627E-02 -1.36795195E-01  2.76440893E-01  2.79226655E-01  9.35094754E-02
  3.48711578E-02 -8.07545338E-04  2.43740092E-02 -1.58156331E-02 -2.47488717E-01
 -2.40876644E-01  2.83234697E-02  1.69258156E-01 -3.06680395E-01  1.34311366E-01
  5.88958942E-02  1.87728963E-01  1.02503246E-01 -3.13468680E-02  1.02783897E-02
  1.51689861E-02 -2.24844207E-02 -2.53210943E-02  2.49899859E-01  4.52792958E-01
  4.21760408E-02 -8.73337018E-02  5.34326049E-02 -1.72118002E-01 -3.68811108E-01
 -2.49683454E-02  6.65108107E-03  1.43304139E-02  4.07199618E-02 -1.02956131E-01
 -1.16601685E-01  1.46074491E-01  5.66428787E-02 -2.97156967E-02 -2.49683454E-02
  6.65108107E-03 -1.43304139E-02  4.07199618E-02 -1.02956131E-01  1.16601685E-01
  1.46074491E-01  5.66428787E-02  2.97156967E-02 -3.13468680E-02  1.02783897E-02
 -1.51689861E-02 -2.24844207E-02 -2.53210943E-02 -2.49899859E-01  5.34326050E-02
 -1.72118002E-01  3.68811108E-01  4.52792958E-01  4.21760408E-02  8.73337018E-02
 -3.58020500E-02 -2.54330471E-04 -6.75881145E-03  1.41443199E-01  1.29342617E-01
  3.61729530E-01  4.73873428E-01 -1.42596683E-01 -1.88956819E-03 -4.54271808E-02
  9.06519972E-03 -2.71060602E-01 -2.52788826E-02  6.06417616E-03  2.48979173E-03
  9.89115995E-03 -5.30524448E-02 -3.25857893E-02  7.60227781E-02  1.05359018E-02
 -5.36308525E-03  2.52788826E-02 -6.06417616E-03  2.48979173E-03 -9.89115995E-03
  5.30524448E-02 -3.25857893E-02 -7.60227781E-02 -1.05359018E-02 -5.36308524E-03
  3.58020500E-02  2.54330470E-04 -6.75881145E-03 -1.41443199E-01 -1.29342617E-01
  3.61729530E-01  4.54271808E-02 -9.06519971E-03 -2.71060602E-01 -4.73873428E-01
  1.42596683E-01 -1.88956819E-03  6.95973087E-03  1.00279586E-03 -4.44960183E-04
 -2.91632268E-02  2.53954421E-02  7.23803946E-03  5.05500007E-04 -7.10850093E-03
 -9.55374195E-03 -5.53027706E-02 -3.32282946E-02  5.05884807E-03 -4.60035526E-02
 -1.74529857E-02  1.64390567E-02  5.66638670E-01  3.43965538E-01 -6.37508688E-03
 -1.61743640E-02 -1.29577818E-01 -1.86807025E-01  4.60035528E-02  1.74529857E-02
  1.64390568E-02 -5.66638672E-01 -3.43965539E-01 -6.37508688E-03  1.61743641E-02
  1.29577819E-01 -1.86807026E-01 -6.95973089E-03 -1.00279586E-03 -4.44960194E-04
  2.91632268E-02 -2.53954422E-02  7.23803947E-03  5.53027709E-02  3.32282947E-02
  5.05884808E-03 -5.05500032E-04  7.10850087E-03 -9.55374185E-03  5.98742007E-03
 -3.25256990E-04 -3.65966282E-03 -1.99884793E-02  1.83268623E-02  3.89237832E-03
  8.33587312E-03  2.05583256E-02  3.58639733E-02 -5.89478995E-02 -3.29172857E-02
  2.19827563E-03 -3.34841846E-02  1.15061500E-04  3.45752770E-02  4.26769092E-01
  2.63392384E-01  1.59252411E-03 -2.87693240E-02 -2.66857524E-01 -4.08645678E-01
 -3.34841844E-02  1.15061548E-04 -3.45752769E-02  4.26769091E-01  2.63392383E-01
 -1.59252413E-03 -2.87693240E-02 -2.66857524E-01  4.08645678E-01  5.98742005E-03
 -3.25256992E-04  3.65966282E-03 -1.99884792E-02  1.83268622E-02 -3.89237830E-03
 -5.89478994E-02 -3.29172857E-02 -2.19827561E-03  8.33587312E-03  2.05583257E-02
 -3.58639733E-02 -9.46872696E-03 -2.50393311E-02  2.41463131E-02 -2.64392475E-01
  2.39133597E-01  3.64392538E-02 -5.21080012E-02 -1.81057135E-01 -2.93428686E-01
  4.31528013E-01  2.35545537E-01 -2.47696202E-02  5.99690602E-05  4.34233820E-03
  4.61557709E-03 -9.86431767E-04 -2.14707620E-03  2.31417478E-03 -2.01263735E-03
 -4.50393760E-02 -6.55100949E-02  5.99690578E-05  4.34233820E-03 -4.61557709E-03
 -9.86431740E-04 -2.14707618E-03 -2.31417478E-03 -2.01263735E-03 -4.50393760E-02
  6.55100949E-02 -9.46872696E-03 -2.50393311E-02 -2.41463131E-02 -2.64392474E-01
  2.39133597E-01 -3.64392538E-02  4.31528013E-01  2.35545537E-01  2.47696202E-02
 -5.21080012E-02 -1.81057135E-01  2.93428686E-01 -1.17249198E-02 -2.73831195E-02
  2.16428774E-02 -2.63495188E-01  2.37294835E-01  3.47524283E-02 -4.57497770E-02
 -1.62401382E-01 -2.62234818E-01  4.52394572E-01  2.46761731E-01 -2.67135865E-02
  4.87536590E-04  4.48463333E-03  5.74781511E-03 -5.11176825E-03 -1.04920840E-03
  2.89411559E-03 -4.84354253E-03 -4.98515863E-02 -7.48344216E-02 -4.87536587E-04
 -4.48463333E-03  5.74781512E-03  5.11176822E-03  1.04920838E-03  2.89411559E-03
  4.84354253E-03  4.98515863E-02 -7.48344216E-02  1.17249198E-02  2.73831195E-02
  2.16428775E-02  2.63495188E-01 -2.37294835E-01  3.47524283E-02 -4.52394573E-01
 -2.46761731E-01 -2.67135865E-02  4.57497771E-02  1.62401382E-01 -2.62234818E-01
  2.58923339E-03  4.38670775E-03  1.15929803E-02 -1.68867936E-02  1.93648072E-02
  2.83187501E-03 -2.18717719E-02 -8.39014085E-02 -1.36838441E-01  6.64701959E-03
  4.83635574E-03  1.32210625E-03 -1.60677305E-02 -3.78896211E-02 -4.54510880E-02
  1.80162318E-01  1.04555144E-01 -1.17859027E-02  1.97707377E-02  3.53977259E-01
  5.47613048E-01  1.60677304E-02  3.78896211E-02 -4.54510880E-02 -1.80162318E-01
 -1.04555144E-01 -1.17859027E-02 -1.97707377E-02 -3.53977259E-01  5.47613048E-01
 -2.58923338E-03 -4.38670775E-03  1.15929803E-02  1.68867935E-02 -1.93648072E-02
  2.83187500E-03 -6.64701964E-03 -4.83635576E-03  1.32210624E-03  2.18717719E-02
  8.39014084E-02 -1.36838441E-01  1.26477232E-02  9.20872726E-03  1.31652821E-02
 -3.68492849E-02  4.14632200E-02  8.83772223E-03 -2.61045882E-02 -1.05156752E-01
 -1.74374610E-01 -8.77607855E-02 -4.45546442E-02  5.54491243E-03 -3.44857580E-02
 -4.13666902E-02 -3.21108243E-02  3.99130876E-01  2.34463630E-01 -1.17405460E-02
  1.16055208E-02  2.56683899E-01  4.00241981E-01 -3.44857580E-02 -4.13666902E-02
  3.21108243E-02  3.99130876E-01  2.34463630E-01  1.17405460E-02  1.16055208E-02
  2.56683900E-01 -4.00241981E-01  1.26477232E-02  9.20872726E-03 -1.31652821E-02
 -3.68492849E-02  4.14632200E-02 -8.83772223E-03 -8.77607855E-02 -4.45546442E-02
 -5.54491243E-03 -2.61045882E-02 -1.05156752E-01  1.74374610E-01 -6.38461191E-02
  2.45018794E-03 -7.32309827E-03  3.57286899E-01 -3.44426630E-01 -4.68346266E-02
  1.18409969E-02  9.70015821E-02  1.59335515E-01  3.91522402E-01  2.23000173E-01
 -2.73844883E-02 -7.16102542E-03 -5.15416518E-03 -1.79317977E-03  7.32495226E-02
  4.85110945E-02 -2.21399634E-03  6.33142615E-04  1.47667131E-02  2.56435563E-02
  7.16102531E-03  5.15416507E-03 -1.79317971E-03 -7.32495214E-02 -4.85110938E-02
 -2.21399630E-03 -6.33142591E-04 -1.47667126E-02  2.56435556E-02  6.38461186E-02
 -2.45018801E-03 -7.32309816E-03 -3.57286897E-01  3.44426627E-01 -4.68346263E-02
 -3.91522399E-01 -2.23000171E-01 -2.73844881E-02 -1.18409967E-02 -9.70015810E-02
  1.59335513E-01 -6.02488327E-02 -8.82562773E-03 -1.42004072E-02  2.74340073E-01
 -2.68363312E-01 -3.86505024E-02  2.57625656E-02  1.38865280E-01  2.36262129E-01
  4.19756460E-01  2.37935851E-01 -3.12581839E-02 -1.23469671E-02 -1.19362200E-02
 -6.48059590E-03  1.41602469E-01  8.41297765E-02 -5.02495081E-03  2.92417992E-03
  5.46401671E-02  8.53046436E-02 -1.23469672E-02 -1.19362200E-02  6.48059591E-03
  1.41602469E-01  8.41297770E-02  5.02495083E-03  2.92417992E-03  5.46401673E-02
 -8.53046438E-02 -6.02488332E-02 -8.82562771E-03  1.42004073E-02  2.74340076E-01
 -2.68363315E-01  3.86505028E-02  4.19756463E-01  2.37935853E-01  3.12581841E-02
  2.57625657E-02  1.38865281E-01 -2.36262130E-01  1.91140336E-02 -4.81856733E-02
 -3.84058554E-02 -3.44921199E-01  3.12921485E-01  3.36613928E-02  7.72270537E-02
  2.53354754E-01  4.33984070E-01  3.90762025E-02  9.74682981E-03 -1.06699722E-02
 -4.05965186E-03 -7.83539541E-03 -8.47524222E-03  4.51228308E-02  2.68457248E-02
 -1.79152652E-03  4.24516880E-03  6.41644718E-02  1.02658697E-01 -4.05965186E-03
 -7.83539540E-03  8.47524222E-03  4.51228308E-02  2.68457248E-02  1.79152652E-03
  4.24516880E-03  6.41644718E-02 -1.02658697E-01  1.91140336E-02 -4.81856733E-02
  3.84058554E-02 -3.44921200E-01  3.12921485E-01 -3.36613929E-02  3.90762024E-02
  9.74682975E-03  1.06699722E-02  7.72270537E-02  2.53354754E-01 -4.33984070E-01
  4.67502720E-03 -4.80661078E-02 -4.22976168E-02 -2.59467334E-01  2.30973278E-01
  2.39062205E-02  8.41890108E-02  2.93017365E-01  4.99701889E-01  1.16321129E-01
  5.26780079E-02 -1.64732006E-02 -2.95582765E-03 -7.38050046E-03 -8.45801422E-03
  3.36751959E-02  2.16408894E-02 -1.99472258E-03  4.21767595E-03  6.17265851E-02
  9.91984133E-02  2.95582765E-03  7.38050046E-03 -8.45801422E-03 -3.36751958E-02
 -2.16408894E-02 -1.99472258E-03 -4.21767595E-03 -6.17265851E-02  9.91984133E-02
 -4.67502720E-03  4.80661078E-02 -4.22976168E-02  2.59467334E-01 -2.30973278E-01
  2.39062205E-02 -1.16321129E-01 -5.26780079E-02 -1.64732006E-02 -8.41890108E-02
 -2.93017365E-01  4.99701889E-01
ClPar MaxAn                                I              200
ClPar NIntPar                              I                4
ClPar NRealPar                             I               16
ClPar NBits                                I               30
ClPar LenBitVec                            I                1
ClPar Read BitMap                          I   N=         200
           0           0           0           0           0           0
           0           0           0           0           0           0
           0           0           0           0           0           0
           0           0           0           0           0           0
           0           0           0           0           0           0
           0           0           0           0           0           0
           0           0           0           0           0           0
           0           0           0           0           0           0
           0           0           0           0           0           0
           0           0           0           0           0           0
           0           0           0           0           0           0
           0           0           0           0           0           0
           0           0           0           0           0           0
           0           0           0           0           0           0
           0           0           0           0           0           0
           0           0           0           0           0           0
           0           0           0           0           0           0
           0           0           0           0           0           0
           0           0           0           0           0           0
           0           0           0           0           0           0
           0           0           0           0           0           0
           0           0           0           0           0           0
           0           0           0           0           0           0
           0           0           0           0           0           0
           0           0           0           0           0           0
           0           0           0           0           0           0
           0           0           0           0           0           0
           0           0           0           0           0           0
           0           0           0           0           0           0
           0           0           0           0           0           0
           0           0           0           0           0           0
           0           0           0           0           0           0
           0           0           0           0           0           0
           0           0
ClPar Default BitMap                       I   N=         200
        2016        2016        2016        2016        2016        2016
        2016        2016        2016        2016        2016        2016
        2016        2016        2016        2016        2016        2016
        2016        2016        2016        2016        2016        2016
        2016        2016        2016        2016        2016        2016
        2016        2016        2016        2016        2016        2016
        2016        2016        2016        2016        2016        2016
        2016        2016        2016        2016        2016        2016
        2016        2016        2016        2016        2016        2016
        2016        2016        2016        2016        2016        2016
        2016        2016        2016        2016        2016        2016
        2016        2016        2016        2016        2016        2016
        2016        2016        2016        2016        2016        2016
        2016        2016        2016        2016        2016        2016
        2016        2016         480         480         480         480
         480         480         480         480         480         480
         480         480         480         480         480         480
         480         480         480         480         480         480
         480         480         480         480         480         480
         480         480         480         480         480         480
         480         480         480         480         480         480
         480         480         480         480         480         480
         480         480         480         480         480         480
         480         480         480         480         480         480
         480         480         480         480         480         480
         480         480         480         480         480         480
         480         480         480         480         480         480
         480         480         480         480         480         480
         480         480         480         480         480         480
         480         480         480         480         480         480
         480         480         480         480         480         480
         480         480         480         480         480         480
         480         480         480         480         480         480
         480         480
ClPar Int Params                           I   N=         800
           0           0           0           0           0           0
           0           0           0           0           0           0
           0           0           0           0           0           0
           0           0           0           0           0           0
           0           0           0           0           0           0
           0           0           0           0           0           0
           0           0           0           0           0           0
           0           0           0           0           0           0
           0           0           0           0           0           0
           0           0           0           0           0           0
           0           0           0           0           0           0
           0           0           0           0           0           0
           0           0           0           0           0           0
           0           0           0           0           0           0
           0           0           0           0           0           0
           0           0           0           0           0           0
           0           0           0           0           0           0
           0           0           0           0           0           0
           0           0           0           0           0           0
           0           0           0           0           0           0
           0           0           0           0           0           0
           0           0           0           0           0           0
           0           0           0           0           0           0
           0           0           0           0           0           0
           0           0           0           0           0           0
           0           0           0           0           0           0
           0           0           0           0           0           0
           0           0           0           0           0           0
           0           0           0           0           0           0
           0           0           0           0           0           0
           0           0           0           0           0           0
           0           0           0           0           0           0
           0           0           0           0           0           0
           0           0           0           0           0           0
           0           0           0           0           0           0
           0           0           0           0           0           0
           0           0           0           0           0           0
           0           0           0           0           0           0
           0           0           0           0           0           0
           0           0           0           0           0           0
           0           0           0           0           0           0
           0           0           0           0           0           0
           0           0           0           0           0           0
           0           0           0           0           0           0
           0           0           0           0           0           0
           0           0           0           0           0           0
           0           0           0           0           0           0
           0           0           0           0           0           0
           0           0           0           0           0           0
           0           0           0           0           0           0
           0           0           0           0           0           0
           0           0           0           0           0           0
           0           0           0           0           0           0
           0           0           0           0           0           0
           0           0           0           0           0           0
           0           0           0           0           0           0
           0           0           0           0           0           0
           0           0           0           0           0           0
           0           0           0           0           0           0
           0           0           0           0           0           0
           0           0           0           0           0           0
           0           0           0           0           0           0
           0           0           0           0           0           0
           0           0           0           0           0           0
           0           0           0           0           0           0
           0           0           0           0           0           0
           0           0           0           0           0           0
           0           0           0           0           0           0
           0           0           0           0           0           0
           0           0           0           0           0           0
           0           0           0           0           0           0
           0           0           0           0           0           0
           0           0           0           0           0           0
           0           0           0           0           0           0
           0           0           0           0           0           0
           0           0           0           0           0           0
           0           0           0           0           0           0
           0           0           0           0           0           0
           0           0           0           0           0           0
           0           0           0           0           0           0
           0           0           0           0           0           0
           0           0           0           0           0           0
           0           0           0           0           0           0
           0           0           0           0           0           0
           0           0           0           0           0           0
           0           0           0           0           0           0
           0           0           0           0           0           0
           0           0           0           0           0           0
           0           0           0           0           0           0
           0           0           0           0           0           0
           0           0           0           0           0           0
           0           0           0           0           0           0
           0           0           0           0           0           0
           0           0           0           0           0           0
           0           0           0           0           0           0
           0           0           0           0           0           0
           0           0           0           0           0           0
           0           0           0           0           0           0
           0           0           0           0           0           0
           0           0           0           0           0           0
           0           0           0           0           0           0
           0           0           0           0           0           0
           0           0           0           0           0           0
           0           0           0           0           0           0
           0           0           0           0           0           0
           0           0           0           0           0           0
           0           0           0           0           0           0
           0           0           0           0           0           0
           0           0           0           0           0           0
           0           0           0           0           0           0
           0           0           0           0           0           0
           0           0           0           0           0           0
           0           0           0           0           0           0
           0           0           0           0           0           0
           0           0           0           0           0           0
           0           0           0           0           0           0
           0           0           0           0           0           0
           0           0           0           0           0           0
           0           0           0           0           0           0
           0           0           0           0           0           0
           0           0           0           0           0           0
           0           0           0           0           0           0
           0           0           0           0           0           0
           0           0           0           0           0           0
           0           0           0           0           0           0
           0           0           0           0           0           0
           0           0           0           0           0           0
           0           0           0           0           0           0
           0           0           0           0           0           0
           0           0           0           0           0           0
           0           0           0           0           0           0
           0           0           0           0           0           0
           0           0           0           0           0           0
           0           0
ClPar Real Params                          R   N=        3200
  0.00000000E+00  0.00000000E+00  0.00000000E+00  0.00000000E+00  0.00000000E+00
  0.00000000E+00  0.00000000E+00  0.00000000E+00  0.00000000E+00  0.00000000E+00
  0.00000000E+00  0.00000000E+00  0.00000000E+00  0.00000000E+00  0.00000000E+00
  0.00000000E+00  0.00000000E+00  0.00000000E+00  0.00000000E+00  0.00000000E+00
  0.00000000E+00  0.00000000E+00  0.00000000E+00  0.00000000E+00  0.00000000E+00
  0.00000000E+00  0.00000000E+00  0.00000000E+00  0.00000000E+00  0.00000000E+00
  0.00000000E+00  0.00000000E+00  0.00000000E+00  0.00000000E+00  0.00000000E+00
  0.00000000E+00  0.00000000E+00  0.00000000E+00  0.00000000E+00  0.00000000E+00
  0.00000000E+00  0.00000000E+00  0.00000000E+00  0.00000000E+00  0.00000000E+00
  0.00000000E+00  0.00000000E+00  0.00000000E+00  0.00000000E+00  0.00000000E+00
  0.00000000E+00  0.00000000E+00  0.00000000E+00  0.00000000E+00  0.00000000E+00
  0.00000000E+00  0.00000000E+00  0.00000000E+00  0.00000000E+00  0.00000000E+00
  0.00000000E+00  0.00000000E+00  0.00000000E+00  0.00000000E+00  0.00000000E+00
  0.00000000E+00  0.00000000E+00  0.00000000E+00  0.00000000E+00  0.00000000E+00
  0.00000000E+00  0.00000000E+00  0.00000000E+00  0.00000000E+00  0.00000000E+00
  0.00000000E+00  0.00000000E+00  0.00000000E+00  0.00000000E+00  0.00000000E+00
  0.00000000E+00  0.00000000E+00  0.00000000E+00  0.00000000E+00  0.00000000E+00
  0.00000000E+00  0.00000000E+00  0.00000000E+00  0.00000000E+00  0.00000000E+00
  0.00000000E+00  0.00000000E+00  0.00000000E+00  0.00000000E+00  0.00000000E+00
  0.00000000E+00  0.00000000E+00  0.00000000E+00  0.00000000E+00  0.00000000E+00
  0.00000000E+00  0.00000000E+00  0.00000000E+00  0.00000000E+00  0.00000000E+00
  0.00000000E+00  0.00000000E+00  0.00000000E+00  0.00000000E+00  0.00000000E+00
  0.00000000E+00  0.00000000E+00  0.00000000E+00  0.00000000E+00  0.00000000E+00
  0.00000000E+00  0.00000000E+00  0.00000000E+00  0.00000000E+00  0.00000000E+00
  0.00000000E+00  0.00000000E+00  0.00000000E+00  0.00000000E+00  0.00000000E+00
  0.00000000E+00  0.00000000E+00  0.00000000E+00  0.00000000E+00  0.00000000E+00
  0.00000000E+00  0.00000000E+00  0.00000000E+00  0.00000000E+00  0.00000000E+00
  0.00000000E+00  0.00000000E+00  0.00000000E+00  0.00000000E+00  0.00000000E+00
  0.00000000E+00  0.00000000E+00  0.00000000E+00  0.00000000E+00  0.00000000E+00
  0.00000000E+00  0.00000000E+00  0.00000000E+00  0.00000000E+00  0.00000000E+00
  0.00000000E+00  0.00000000E+00  0.00000000E+00  0.00000000E+00  0.00000000E+00
  0.00000000E+00  0.00000000E+00  0.00000000E+00  0.00000000E+00  0.00000000E+00
  0.00000000E+00  0.00000000E+00  0.00000000E+00  0.00000000E+00  0.00000000E+00
  0.00000000E+00  0.00000000E+00  0.00000000E+00  0.00000000E+00  0.00000000E+00
  0.00000000E+00  0.00000000E+00  0.00000000E+00  0.00000000E+00  0.00000000E+00
  0.00000000E+00  0.00000000E+00  0.00000000E+00  0.00000000E+00  0.00000000E+00
  0.00000000E+00  0.00000000E+00  0.00000000E+00  0.00000000E+00  0.00000000E+00
  0.00000000E+00  0.00000000E+00  0.00000000E+00  0.00000000E+00  0.00000000E+00
  0.00000000E+00  0.00000000E+00  0.00000000E+00  0.00000000E+00  0.00000000E+00
  0.00000000E+00  0.00000000E+00  0.00000000E+00  0.00000000E+00  0.00000000E+00
  2.26000000E-01  4.43000000E-01  1.01000000E-01  1.47000000E-01  1.92000000E-01
  2.40000000E-01  2.75000000E-01  3.03000000E-01  3.25000000E-01  4.13000000E-01
  9.60000000E-02  1.35000000E-01  1.73000000E-01  2.11000000E-01  2.48000000E-01
  2.86000000E-01  3.23000000E-01  3.60000000E-01  8.20000000E-02  1.04000000E-01
  1.17000000E-01  1.23000000E-01  1.29000000E-01  1.34000000E-01  1.40000000E-01
  1.44000000E-01  1.48000000E-01  1.52000000E-01  1.55000000E-01  1.76000000E-01
  1.98000000E-01  2.19000000E-01  2.39000000E-01  2.60000000E-01  2.80000000E-01
  3.00000000E-01  7.90000000E-02  9.90000000E-02  1.19000000E-01  1.26000000E-01
  1.33000000E-01  1.40000000E-01  1.47000000E-01  1.53000000E-01  1.58000000E-01
  1.63000000E-01  1.57000000E-01  1.70000000E-01  1.87000000E-01  2.03000000E-01
  2.19000000E-01  2.34000000E-01  2.50000000E-01  2.65000000E-01  7.40000000E-02
  9.20000000E-02  1.05000000E-01  1.06000000E-01  1.07000000E-01  1.08000000E-01
  1.09000000E-01  1.10000000E-01  1.11000000E-01  1.12000000E-01  1.13000000E-01
  1.14000000E-01  1.15000000E-01  1.16000000E-01  1.17000000E-01  1.17000000E-01
  1.26000000E-01  1.36000000E-01  1.46000000E-01  1.55000000E-01  1.65000000E-01
  1.73000000E-01  1.82000000E-01  1.90000000E-01  1.62000000E-01  1.78000000E-01
  1.10000000E-01  1.35000000E-01  1.59000000E-01  1.83000000E-01  2.07000000E-01
  2.31000000E-01  6.90000000E-02  9.40000000E-02  1.02000000E-01  1.03000000E-01
  1.05000000E-01  1.07000000E-01  1.09000000E-01  1.11000000E-01  1.13000000E-01
  1.15000000E-01  1.17000000E-01  1.19000000E-01  1.20000000E-01  1.22000000E-01
  1.24000000E-01  1.26000000E-01  1.28000000E-01  1.28000000E-01  1.28000000E-01
  1.28000000E-01  1.28000000E-01  1.28000000E-01  1.28000000E-01  1.28000000E-01
  1.28000000E-01  1.28000000E-01  1.28000000E-01  1.28000000E-01  1.28000000E-01
  1.28000000E-01  1.28000000E-01  1.28000000E-01  1.28000000E-01  1.28000000E-01
  1.28000000E-01  1.28000000E-01  1.28000000E-01  1.28000000E-01  1.28000000E-01
  1.28000000E-01  1.28000000E-01  1.28000000E-01  1.28000000E-01  1.28000000E-01
  1.28000000E-01  1.28000000E-01  1.28000000E-01  1.28000000E-01  1.28000000E-01
  1.28000000E-01  1.28000000E-01  1.28000000E-01  1.28000000E-01  1.28000000E-01
  1.28000000E-01  1.28000000E-01  1.28000000E-01  1.28000000E-01  1.28000000E-01
  1.28000000E-01  1.28000000E-01  1.28000000E-01  1.28000000E-01  1.28000000E-01
  1.28000000E-01  1.28000000E-01  1.28000000E-01  1.28000000E-01  1.28000000E-01
  1.28000000E-01  1.28000000E-01  1.28000000E-01  1.28000000E-01  1.28000000E-01
  1.28000000E-01  1.28000000E-01  1.28000000E-01  1.28000000E-01  1.28000000E-01
  1.28000000E-01  1.28000000E-01  1.28000000E-01  1.28000000E-01  1.28000000E-01
  1.28000000E-01  1.28000000E-01  1.28000000E-01  1.28000000E-01  1.28000000E-01
  1.28000000E-01  1.28000000E-01  1.28000000E-01  1.28000000E-01  1.28000000E-01
  1.28000000E-01  1.28000000E-01  1.28000000E-01  1.28000000E-01  1.28000000E-01
  1.28000000E-01  1.28000000E-01  1.28000000E-01  1.28000000E-01  1.28000000E-01
  1.28000000E-01  1.28000000E-01  1.28000000E-01  1.28000000E-01  1.28000000E-01
  1.28000000E-01  1.28000000E-01  1.28000000E-01  1.28000000E-01  1.28000000E-01
  5.47000000E-01  5.92000000E-01  5.99000000E-01  6.68000000E-01  6.98000000E-01
  7.18000000E-01  7.26000000E-01  7.36000000E-01  7.43000000E-01  7.45000000E-01
  6.07000000E-01  6.66000000E-01  6.93000000E-01  7.09000000E-01  7.20000000E-01
  7.29000000E-01  7.35000000E-01  7.40000000E-01  6.08000000E-01  7.34000000E-01
  7.46000000E-01  7.55000000E-01  7.61000000E-01  7.65000000E-01  7.67000000E-01
  7.60000000E-01  7.49000000E-01  7.33000000E-01  7.08000000E-01  6.48000000E-01
  6.88000000E-01  7.09000000E-01  7.22000000E-01  7.31000000E-01  7.38000000E-01
  7.44000000E-01  6.09000000E-01  7.30000000E-01  7.41000000E-01  7.52000000E-01
  7.58000000E-01  7.63000000E-01  7.66000000E-01  7.58000000E-01  7.48000000E-01
  7.33000000E-01  7.01000000E-01  6.45000000E-01  6.86000000E-01  7.08000000E-01
  7.22000000E-01  7.31000000E-01  7.38000000E-01  7.44000000E-01  6.08000000E-01
  7.28000000E-01  7.32000000E-01  7.32000000E-01  7.32000000E-01  7.32000000E-01
  7.32000000E-01  7.32000000E-01  7.32000000E-01  7.32000000E-01  7.32000000E-01
  7.31000000E-01  7.31000000E-01  7.31000000E-01  7.31000000E-01  7.46000000E-01
  7.37000000E-01  7.46000000E-01  7.51000000E-01  7.55000000E-01  7.58000000E-01
  7.47000000E-01  7.32000000E-01  7.11000000E-01  7.41000000E-01  7.07000000E-01
  7.47000000E-01  7.43000000E-01  7.42000000E-01  7.42000000E-01  7.43000000E-01
  7.44000000E-01  6.05000000E-01  7.24000000E-01  7.26000000E-01  7.26000000E-01
  7.27000000E-01  7.27000000E-01  7.27000000E-01  7.28000000E-01  7.28000000E-01
  7.28000000E-01  7.28000000E-01  7.28000000E-01  7.29000000E-01  7.29000000E-01
  7.29000000E-01  7.29000000E-01  7.29000000E-01  7.29000000E-01  7.29000000E-01
  7.29000000E-01  7.29000000E-01  7.29000000E-01  7.29000000E-01  7.29000000E-01
  7.29000000E-01  7.29000000E-01  7.29000000E-01  7.29000000E-01  7.29000000E-01
  7.29000000E-01  7.29000000E-01  7.29000000E-01  7.29000000E-01  7.29000000E-01
  7.29000000E-01  7.29000000E-01  7.29000000E-01  7.29000000E-01  7.29000000E-01
  7.29000000E-01  7.29000000E-01  7.29000000E-01  7.29000000E-01  7.29000000E-01
  7.29000000E-01  7.29000000E-01  7.29000000E-01  7.29000000E-01  7.29000000E-01
  7.29000000E-01  7.29000000E-01  7.29000000E-01  7.29000000E-01  7.29000000E-01
  7.29000000E-01  7.29000000E-01  7.29000000E-01  7.29000000E-01  7.29000000E-01
  7.29000000E-01  7.29000000E-01  7.29000000E-01  7.29000000E-01  7.29000000E-01
  7.29000000E-01  7.29000000E-01  7.29000000E-01  7.29000000E-01  7.29000000E-01
  7.29000000E-01  7.29000000E-01  7.29000000E-01  7.29000000E-01  7.29000000E-01
  7.29000000E-01  7.29000000E-01  7.29000000E-01  7.29000000E-01  7.29000000E-01
  7.29000000E-01  7.29000000E-01  7.29000000E-01  7.29000000E-01  7.29000000E-01
  7.29000000E-01  7.29000000E-01  7.29000000E-01  7.29000000E-01  7.29000000E-01
  7.29000000E-01  7.29000000E-01  7.29000000E-01  7.29000000E-01  7.29000000E-01
  7.29000000E-01  7.29000000E-01  7.29000000E-01  7.29000000E-01  7.29000000E-01
  7.29000000E-01  7.29000000E-01  7.29000000E-01  7.29000000E-01  7.29000000E-01
  7.29000000E-01  7.29000000E-01  7.29000000E-01  7.29000000E-01  7.29000000E-01
  7.29000000E-01  7.29000000E-01  7.29000000E-01  7.29000000E-01  7.29000000E-01
  1.00000000E+00  1.70400000E+00  3.23000000E-01  3.89000000E-01  4.67000000E-01
  5.67000000E-01  6.36000000E-01  6.64000000E-01  6.96000000E-01  8.79000000E-01
  3.07000000E-01  3.48000000E-01  4.00000000E-01  4.54000000E-01  5.09000000E-01
  5.65000000E-01  6.21000000E-01  6.77000000E-01  2.56000000E-01  3.50000000E-01
  3.64000000E-01  3.62000000E-01  3.62000000E-01  3.62000000E-01  3.62000000E-01
  3.65000000E-01  3.69000000E-01  3.75000000E-01  3.86000000E-01  4.46000000E-01
  4.55000000E-01  4.74000000E-01  4.96000000E-01  5.20000000E-01  5.45000000E-01
  5.70000000E-01  2.45000000E-01  3.22000000E-01  3.55000000E-01  3.59000000E-01
  3.64000000E-01  3.70000000E-01  3.76000000E-01  3.85000000E-01  3.95000000E-01
  4.08000000E-01  3.76000000E-01  4.23000000E-01  4.22000000E-01  4.32000000E-01
  4.45000000E-01  4.59000000E-01  4.75000000E-01  4.91000000E-01  2.28000000E-01
  2.92000000E-01  2.89000000E-01  2.92000000E-01  2.95000000E-01  2.98000000E-01
  3.00000000E-01  3.03000000E-01  3.06000000E-01  3.09000000E-01  3.12000000E-01
  3.15000000E-01  3.18000000E-01  3.21000000E-01  3.24000000E-01  3.61000000E-01
  3.69000000E-01  3.70000000E-01  3.72000000E-01  3.75000000E-01  3.78000000E-01
  3.85000000E-01  3.94000000E-01  4.07000000E-01  5.26000000E-01  6.21000000E-01
  3.36000000E-01  3.54000000E-01  3.71000000E-01  3.86000000E-01  4.02000000E-01
  4.17000000E-01  2.09000000E-01  2.94000000E-01  2.65000000E-01  2.72000000E-01
  2.78000000E-01  2.84000000E-01  2.91000000E-01  2.97000000E-01  3.03000000E-01
  3.10000000E-01  3.16000000E-01  3.22000000E-01  3.29000000E-01  3.35000000E-01
  3.41000000E-01  3.48000000E-01  3.54000000E-01  3.54000000E-01  3.54000000E-01
  3.54000000E-01  3.54000000E-01  3.54000000E-01  3.54000000E-01  3.54000000E-01
  3.54000000E-01  3.54000000E-01  3.54000000E-01  3.54000000E-01  3.54000000E-01
  3.54000000E-01  3.54000000E-01  3.54000000E-01  3.54000000E-01  3.54000000E-01
  3.54000000E-01  3.54000000E-01  3.54000000E-01  3.54000000E-01  3.54000000E-01
  3.54000000E-01  3.54000000E-01  3.54000000E-01  3.54000000E-01  3.54000000E-01
  3.54000000E-01  3.54000000E-01  3.54000000E-01  3.54000000E-01  3.54000000E-01
  3.54000000E-01  3.54000000E-01  3.54000000E-01  3.54000000E-01  3.54000000E-01
  3.54000000E-01  3.54000000E-01  3.54000000E-01  3.54000000E-01  3.54000000E-01
  3.54000000E-01  3.54000000E-01  3.54000000E-01  3.54000000E-01  3.54000000E-01
  3.54000000E-01  3.54000000E-01  3.54000000E-01  3.54000000E-01  3.54000000E-01
  3.54000000E-01  3.54000000E-01  3.54000000E-01  3.54000000E-01  3.54000000E-01
  3.54000000E-01  3.54000000E-01  3.54000000E-01  3.54000000E-01  3.54000000E-01
  3.54000000E-01  3.54000000E-01  3.54000000E-01  3.54000000E-01  3.54000000E-01
  3.54000000E-01  3.54000000E-01  3.54000000E-01  3.54000000E-01  3.54000000E-01
  3.54000000E-01  3.54000000E-01  3.54000000E-01  3.54000000E-01  3.54000000E-01
  3.54000000E-01  3.54000000E-01  3.54000000E-01  3.54000000E-01  3.54000000E-01
  3.54000000E-01  3.54000000E-01  3.54000000E-01  3.54000000E-01  3.54000000E-01
  3.54000000E-01  3.54000000E-01  3.54000000E-01  3.54000000E-01  3.54000000E-01
  3.54000000E-01  3.54000000E-01  3.54000000E-01  3.54000000E-01  3.54000000E-01
  2.74000000E-01  2.96000000E-01  5.80000000E-02  4.40000000E-02  3.90000000E-02
  3.90000000E-02  3.60000000E-02  3.20000000E-02  2.90000000E-02  3.30000000E-02
  5.50000000E-02  3.90000000E-02  3.30000000E-02  3.00000000E-02  2.80000000E-02
  2.60000000E-02  2.50000000E-02  2.50000000E-02  4.50000000E-02  4.40000000E-02
  3.30000000E-02  2.50000000E-02  2.10000000E-02  1.80000000E-02  1.50000000E-02
  1.80000000E-02  2.10000000E-02  2.50000000E-02  3.30000000E-02  5.00000000E-02
  3.80000000E-02  3.10000000E-02  2.70000000E-02  2.40000000E-02  2.20000000E-02
  2.10000000E-02  4.30000000E-02  4.00000000E-02  3.20000000E-02  2.50000000E-02
  2.10000000E-02  1.80000000E-02  1.60000000E-02  1.90000000E-02  2.20000000E-02
  2.80000000E-02  3.10000000E-02  4.70000000E-02  3.40000000E-02  2.80000000E-02
  2.40000000E-02  2.10000000E-02  1.90000000E-02  1.80000000E-02  3.90000000E-02
  3.60000000E-02  2.50000000E-02  2.50000000E-02  2.50000000E-02  2.60000000E-02
  2.60000000E-02  2.60000000E-02  2.70000000E-02  2.70000000E-02  2.70000000E-02
  2.70000000E-02  2.80000000E-02  2.80000000E-02  2.80000000E-02  3.30000000E-02
  3.30000000E-02  2.60000000E-02  2.10000000E-02  1.80000000E-02  1.60000000E-02
  1.80000000E-02  2.20000000E-02  2.60000000E-02  4.90000000E-02  8.20000000E-02
  3.00000000E-02  2.40000000E-02  2.10000000E-02  1.80000000E-02  1.60000000E-02
  1.50000000E-02  3.50000000E-02  3.60000000E-02  2.20000000E-02  2.30000000E-02
  2.40000000E-02  2.40000000E-02  2.50000000E-02  2.50000000E-02  2.60000000E-02
  2.70000000E-02  2.70000000E-02  2.80000000E-02  2.80000000E-02  2.90000000E-02
  3.00000000E-02  3.00000000E-02  3.10000000E-02  3.10000000E-02  3.10000000E-02
  3.10000000E-02  3.10000000E-02  3.10000000E-02  3.10000000E-02  3.10000000E-02
  3.10000000E-02  3.10000000E-02  3.10000000E-02  3.10000000E-02  3.10000000E-02
  3.10000000E-02  3.10000000E-02  3.10000000E-02  3.10000000E-02  3.10000000E-02
  3.10000000E-02  3.10000000E-02  3.10000000E-02  3.10000000E-02  3.10000000E-02
  3.10000000E-02  3.10000000E-02  3.10000000E-02  3.10000000E-02  3.10000000E-02
  3.10000000E-02  3.10000000E-02  3.10000000E-02  3.10000000E-02  3.10000000E-02
  3.10000000E-02  3.10000000E-02  3.10000000E-02  3.10000000E-02  3.10000000E-02
  3.10000000E-02  3.10000000E-02  3.10000000E-02  3.10000000E-02  3.10000000E-02
  3.10000000E-02  3.10000000E-02  3.10000000E-02  3.10000000E-02  3.10000000E-02
  3.10000000E-02  3.10000000E-02  3.10000000E-02  3.10000000E-02  3.10000000E-02
  3.10000000E-02  3.10000000E-02  3.10000000E-02  3.10000000E-02  3.10000000E-02
  3.10000000E-02  3.10000000E-02  3.10000000E-02  3.10000000E-02  3.10000000E-02
  3.10000000E-02  3.10000000E-02  3.10000000E-02  3.10000000E-02  3.10000000E-02
  3.10000000E-02  3.10000000E-02  3.10000000E-02  3.10000000E-02  3.10000000E-02
  3.10000000E-02  3.10000000E-02  3.10000000E-02  3.10000000E-02  3.10000000E-02
  3.10000000E-02  3.10000000E-02  3.10000000E-02  3.10000000E-02  3.10000000E-02
  3.10000000E-02  3.10000000E-02  3.10000000E-02  3.10000000E-02  3.10000000E-02
  3.10000000E-02  3.10000000E-02  3.10000000E-02  3.10000000E-02  3.10000000E-02
  3.10000000E-02  3.10000000E-02  3.10000000E-02  3.10000000E-02  3.10000000E-02
 -5.92770000E-01 -9.17860000E-01 -2.48668000E+00 -8.36430000E-01 -3.18470000E-01
 -4.55790000E-01 -5.70730000E-01 -6.77940000E-01 -7.69860000E-01 -8.51140000E-01
 -1.51908000E+00 -3.18830000E-01 -2.17900000E-01 -3.01260000E-01 -3.72750000E-01
 -4.15890000E-01 -4.45930000E-01 -5.91320000E-01 -9.56370000E-01 -2.88450000E-01
 -4.87320000E-01 -6.34280000E-01 -7.17490000E-01 -7.91980000E-01 -8.68490000E-01
 -9.17520000E-01 -9.54890000E-01 -9.88460000E-01 -1.50055000E+00 -2.92560000E-01
 -2.14960000E-01 -2.91180000E-01 -3.42080000E-01 -3.84480000E-01 -4.34940000E-01
 -5.24310000E-01 -8.10070000E-01 -2.58460000E-01 -4.35550000E-01 -5.32740000E-01
 -6.08450000E-01 -6.10260000E-01 -7.58920000E-01 -8.90130000E-01 -8.45780000E-01
 -8.69340000E-01 -1.38234000E+00 -2.64850000E-01 -1.97280000E-01 -2.65040000E-01
 -2.94470000E-01 -3.16570000E-01 -3.63590000E-01 -4.57840000E-01 -8.61830000E-01
 -1.33004000E+00 -6.82880000E-01 -6.25540000E-01 -6.35430000E-01 -8.79690000E-01
 -9.02690000E-01 -9.59650000E-01 -1.01869000E+00 -6.81170000E-01 -7.96500000E-01
 -9.04950000E-01 -8.34790000E-01 -9.01560000E-01 -9.74130000E-01 -1.03326000E+00
 -7.15490000E-01 -7.83960000E-01 -8.28380000E-01 -5.61040000E-01 -1.03841000E+00
 -8.62500000E-01 -9.59300000E-01 -1.01755000E+00 -7.64900000E-01 -1.29467000E+00
 -1.92740000E-01 -2.56010000E-01 -3.19820000E-01 -1.94660000E-01 -2.60090000E-01
 -4.27990000E-01  0.00000000E+00  0.00000000E+00  0.00000000E+00  0.00000000E+00
  0.00000000E+00  0.00000000E+00  0.00000000E+00  0.00000000E+00  0.00000000E+00
  0.00000000E+00  0.00000000E+00  0.00000000E+00  0.00000000E+00  0.00000000E+00
  0.00000000E+00  0.00000000E+00  0.00000000E+00  0.00000000E+00  0.00000000E+00
  0.00000000E+00  0.00000000E+00  0.00000000E+00  0.00000000E+00  0.00000000E+00
  0.00000000E+00  0.00000000E+00  0.00000000E+00  0.00000000E+00  0.00000000E+00
  0.00000000E+00  0.00000000E+00  0.00000000E+00  0.00000000E+00  0.00000000E+00
  0.00000000E+00  0.00000000E+00  0.00000000E+00  0.00000000E+00  0.00000000E+00
  0.00000000E+00  0.00000000E+00  0.00000000E+00  0.00000000E+00  0.00000000E+00
  0.00000000E+00  0.00000000E+00  0.00000000E+00  0.00000000E+00  0.00000000E+00
  0.00000000E+00  0.00000000E+00  0.00000000E+00  0.00000000E+00  0.00000000E+00
  0.00000000E+00  0.00000000E+00  0.00000000E+00  0.00000000E+00  0.00000000E+00
  0.00000000E+00  0.00000000E+00  0.00000000E+00  0.00000000E+00  0.00000000E+00
  0.00000000E+00  0.00000000E+00  0.00000000E+00  0.00000000E+00  0.00000000E+00
  0.00000000E+00  0.00000000E+00  0.00000000E+00  0.00000000E+00  0.00000000E+00
  0.00000000E+00  0.00000000E+00  0.00000000E+00  0.00000000E+00  0.00000000E+00
  0.00000000E+00  0.00000000E+00  0.00000000E+00  0.00000000E+00  0.00000000E+00
  0.00000000E+00  0.00000000E+00  0.00000000E+00  0.00000000E+00  0.00000000E+00
  0.00000000E+00  0.00000000E+00  0.00000000E+00  0.00000000E+00  0.00000000E+00
  0.00000000E+00  0.00000000E+00  0.00000000E+00  0.00000000E+00  0.00000000E+00
  0.00000000E+00  0.00000000E+00  0.00000000E+00  0.00000000E+00  0.00000000E+00
  0.00000000E+00  0.00000000E+00  0.00000000E+00  0.00000000E+00  0.00000000E+00
  0.00000000E+00  0.00000000E+00  0.00000000E+00  0.00000000E+00  0.00000000E+00
  1.90440000E+00  1.36430000E+00  4.84000000E-01  7.31600000E+00  9.24030000E+00
  8.78200000E+00  5.61290000E+00  4.83340000E+00  3.24870000E+00  2.71090000E+00
  2.01130000E+00  1.50282000E+01  1.46788000E+01  2.13546000E+01  2.38290000E+01
  1.98022000E+01  1.50468000E+01  1.09745000E+01  1.27219000E+01  1.51949000E+01
  1.57342000E+01  2.79222000E+01  1.61366000E+01  2.21252000E+01  2.45676000E+01
  1.96016000E+01  1.79818000E+01  1.72396000E+01  5.01500000E+00  1.92898000E+01
  2.34477000E+01  2.23993000E+01  2.96586000E+01  2.60081000E+01  2.15580000E+01
  1.69594000E+01  1.56479000E+01  1.86897000E+01  1.93530000E+01  3.43444000E+01
  1.98480000E+01  2.72140000E+01  3.02182000E+01  2.41099000E+01  2.21176000E+01
  2.12047000E+01  7.56690000E+00  2.37264000E+01  2.93879000E+01  3.01278000E+01
  4.19382000E+01  3.85203000E+01  3.39511000E+01  2.75774000E+01  1.56460000E+01
  1.04460000E+01  2.01830000E+01  4.99540000E+01  4.76430000E+01  1.18690000E+01
  1.08670000E+01  9.96100000E+00  9.18700000E+00  3.67980000E+01  1.34070000E+01
  9.38200000E+00  9.81700000E+00  8.90800000E+00  8.40700000E+00  8.05800000E+00
  1.29600000E+01  2.67920000E+01  2.49300000E+01  3.45630000E+01  1.11860000E+01
  1.09440000E+01  1.01270000E+01  9.40400000E+00  1.36660000E+01  7.81000000E+00
  6.93600000E+01  5.86630000E+01  4.79690000E+01  4.52740000E+01  3.92290000E+01
  3.30660000E+01  0.00000000E+00  0.00000000E+00  0.00000000E+00  0.00000000E+00
  0.00000000E+00  0.00000000E+00  0.00000000E+00  0.00000000E+00  0.00000000E+00
  0.00000000E+00  0.00000000E+00  0.00000000E+00  0.00000000E+00  0.00000000E+00
  0.00000000E+00  0.00000000E+00  0.00000000E+00  0.00000000E+00  0.00000000E+00
  0.00000000E+00  0.00000000E+00  0.00000000E+00  0.00000000E+00  0.00000000E+00
  0.00000000E+00  0.00000000E+00  0.00000000E+00  0.00000000E+00  0.00000000E+00
  0.00000000E+00  0.00000000E+00  0.00000000E+00  0.00000000E+00  0.00000000E+00
  0.00000000E+00  0.00000000E+00  0.00000000E+00  0.00000000E+00  0.00000000E+00
  0.00000000E+00  0.00000000E+00  0.00000000E+00  0.00000000E+00  0.00000000E+00
  0.00000000E+00  0.00000000E+00  0.00000000E+00  0.00000000E+00  0.00000000E+00
  0.00000000E+00  0.00000000E+00  0.00000000E+00  0.00000000E+00  0.00000000E+00
  0.00000000E+00  0.00000000E+00  0.00000000E+00  0.00000000E+00  0.00000000E+00
  0.00000000E+00  0.00000000E+00  0.00000000E+00  0.00000000E+00  0.00000000E+00
  0.00000000E+00  0.00000000E+00  0.00000000E+00  0.00000000E+00  0.00000000E+00
  0.00000000E+00  0.00000000E+00  0.00000000E+00  0.00000000E+00  0.00000000E+00
  0.00000000E+00  0.00000000E+00  0.00000000E+00  0.00000000E+00  0.00000000E+00
  0.00000000E+00  0.00000000E+00  0.00000000E+00  0.00000000E+00  0.00000000E+00
  0.00000000E+00  0.00000000E+00  0.00000000E+00  0.00000000E+00  0.00000000E+00
  0.00000000E+00  0.00000000E+00  0.00000000E+00  0.00000000E+00  0.00000000E+00
  0.00000000E+00  0.00000000E+00  0.00000000E+00  0.00000000E+00  0.00000000E+00
  0.00000000E+00  0.00000000E+00  0.00000000E+00  0.00000000E+00  0.00000000E+00
  0.00000000E+00  0.00000000E+00  0.00000000E+00  0.00000000E+00  0.00000000E+00
  0.00000000E+00  0.00000000E+00  0.00000000E+00  0.00000000E+00  0.00000000E+00
  0.00000000E+00  0.00000000E+00  0.00000000E+00  0.00000000E+00  0.00000000E+00
  0.00000000E+00  0.00000000E+00  0.00000000E+00  0.00000000E+00  0.00000000E+00
  0.00000000E+00  0.00000000E+00  0.00000000E+00  0.00000000E+00  0.00000000E+00
  0.00000000E+00  0.00000000E+00  0.00000000E+00  0.00000000E+00  0.00000000E+00
  0.00000000E+00  0.00000000E+00  0.00000000E+00  0.00000000E+00  0.00000000E+00
  0.00000000E+00  0.00000000E+00  0.00000000E+00  0.00000000E+00  0.00000000E+00
  0.00000000E+00  0.00000000E+00  0.00000000E+00  0.00000000E+00  0.00000000E+00
  0.00000000E+00  0.00000000E+00  0.00000000E+00  0.00000000E+00  0.00000000E+00
  0.00000000E+00  0.00000000E+00  0.00000000E+00  0.00000000E+00  0.00000000E+00
  0.00000000E+00  0.00000000E+00  0.00000000E+00  0.00000000E+00  0.00000000E+00
  0.00000000E+00  0.00000000E+00  0.00000000E+00  0.00000000E+00  0.00000000E+00
  0.00000000E+00  0.00000000E+00  0.00000000E+00  0.00000000E+00  0.00000000E+00
  0.00000000E+00  0.00000000E+00  0.00000000E+00  0.00000000E+00  0.00000000E+00
  0.00000000E+00  0.00000000E+00  0.00000000E+00  0.00000000E+00  0.00000000E+00
  0.00000000E+00  0.00000000E+00  0.00000000E+00  0.00000000E+00  0.00000000E+00
  0.00000000E+00  0.00000000E+00  0.00000000E+00  0.00000000E+00  0.00000000E+00
  0.00000000E+00  0.00000000E+00  0.00000000E+00  0.00000000E+00  0.00000000E+00
  0.00000000E+00  0.00000000E+00  0.00000000E+00  0.00000000E+00  0.00000000E+00
  0.00000000E+00  0.00000000E+00  0.00000000E+00  0.00000000E+00  0.00000000E+00
  0.00000000E+00  0.00000000E+00  0.00000000E+00  0.00000000E+00  0.00000000E+00
  0.00000000E+00  0.00000000E+00  0.00000000E+00  0.00000000E+00  0.00000000E+00
  0.00000000E+00  0.00000000E+00  0.00000000E+00  0.00000000E+00  0.00000000E+00
  0.00000000E+00  0.00000000E+00  0.00000000E+00  0.00000000E+00  0.00000000E+00
  0.00000000E+00  0.00000000E+00  0.00000000E+00  0.00000000E+00  0.00000000E+00
  0.00000000E+00  0.00000000E+00  0.00000000E+00  0.00000000E+00  0.00000000E+00
  0.00000000E+00  0.00000000E+00  0.00000000E+00  0.00000000E+00  0.00000000E+00
  0.00000000E+00  0.00000000E+00  0.00000000E+00  0.00000000E+00  0.00000000E+00
  0.00000000E+00  0.00000000E+00  0.00000000E+00  0.00000000E+00  0.00000000E+00
  0.00000000E+00  0.00000000E+00  0.00000000E+00  0.00000000E+00  0.00000000E+00
  0.00000000E+00  0.00000000E+00  0.00000000E+00  0.00000000E+00  0.00000000E+00
  0.00000000E+00  0.00000000E+00  0.00000000E+00  0.00000000E+00  0.00000000E+00
  0.00000000E+00  0.00000000E+00  0.00000000E+00  0.00000000E+00  0.00000000E+00
  0.00000000E+00  0.00000000E+00  0.00000000E+00  0.00000000E+00  0.00000000E+00
  0.00000000E+00  0.00000000E+00  0.00000000E+00  0.00000000E+00  0.00000000E+00
  0.00000000E+00  0.00000000E+00  0.00000000E+00  0.00000000E+00  0.00000000E+00
  0.00000000E+00  0.00000000E+00  0.00000000E+00  0.00000000E+00  0.00000000E+00
  0.00000000E+00  0.00000000E+00  0.00000000E+00  0.00000000E+00  0.00000000E+00
  0.00000000E+00  0.00000000E+00  0.00000000E+00  0.00000000E+00  0.00000000E+00
  0.00000000E+00  0.00000000E+00  0.00000000E+00  0.00000000E+00  0.00000000E+00
  0.00000000E+00  0.00000000E+00  0.00000000E+00  0.00000000E+00  0.00000000E+00
  0.00000000E+00  0.00000000E+00  0.00000000E+00  0.00000000E+00  0.00000000E+00
  0.00000000E+00  0.00000000E+00  0.00000000E+00  0.00000000E+00  0.00000000E+00
  0.00000000E+00  0.00000000E+00  0.00000000E+00  0.00000000E+00  0.00000000E+00
  0.00000000E+00  0.00000000E+00  0.00000000E+00  0.00000000E+00  0.00000000E+00
  0.00000000E+00  0.00000000E+00  0.00000000E+00  0.00000000E+00  0.00000000E+00
  0.00000000E+00  0.00000000E+00  0.00000000E+00  0.00000000E+00  0.00000000E+00
  0.00000000E+00  0.00000000E+00  0.00000000E+00  0.00000000E+00  0.00000000E+00
  0.00000000E+00  0.00000000E+00  0.00000000E+00  0.00000000E+00  0.00000000E+00
  0.00000000E+00  0.00000000E+00  0.00000000E+00  0.00000000E+00  0.00000000E+00
  0.00000000E+00  0.00000000E+00  0.00000000E+00  0.00000000E+00  0.00000000E+00
  0.00000000E+00  0.00000000E+00  0.00000000E+00  0.00000000E+00  0.00000000E+00
  0.00000000E+00  0.00000000E+00  0.00000000E+00  0.00000000E+00  0.00000000E+00
  0.00000000E+00  0.00000000E+00  0.00000000E+00  0.00000000E+00  0.00000000E+00
  0.00000000E+00  0.00000000E+00  0.00000000E+00  0.00000000E+00  0.00000000E+00
  0.00000000E+00  0.00000000E+00  0.00000000E+00  0.00000000E+00  0.00000000E+00
  0.00000000E+00  0.00000000E+00  0.00000000E+00  0.00000000E+00  0.00000000E+00
  0.00000000E+00  0.00000000E+00  0.00000000E+00  0.00000000E+00  0.00000000E+00
  0.00000000E+00  0.00000000E+00  0.00000000E+00  0.00000000E+00  0.00000000E+00
  0.00000000E+00  0.00000000E+00  0.00000000E+00  0.00000000E+00  0.00000000E+00
  0.00000000E+00  0.00000000E+00  0.00000000E+00  0.00000000E+00  0.00000000E+00
  0.00000000E+00  0.00000000E+00  0.00000000E+00  0.00000000E+00  0.00000000E+00
  0.00000000E+00  0.00000000E+00  0.00000000E+00  0.00000000E+00  0.00000000E+00
  0.00000000E+00  0.00000000E+00  0.00000000E+00  0.00000000E+00  0.00000000E+00
  0.00000000E+00  0.00000000E+00  0.00000000E+00  0.00000000E+00  0.00000000E+00
  0.00000000E+00  0.00000000E+00  0.00000000E+00  0.00000000E+00  0.00000000E+00
  0.00000000E+00  0.00000000E+00  0.00000000E+00  0.00000000E+00  0.00000000E+00
  0.00000000E+00  0.00000000E+00  0.00000000E+00  0.00000000E+00  0.00000000E+00
  0.00000000E+00  0.00000000E+00  0.00000000E+00  0.00000000E+00  0.00000000E+00
  0.00000000E+00  0.00000000E+00  0.00000000E+00  0.00000000E+00  0.00000000E+00
  0.00000000E+00  0.00000000E+00  0.00000000E+00  0.00000000E+00  0.00000000E+00
  0.00000000E+00  0.00000000E+00  0.00000000E+00  0.00000000E+00  0.00000000E+00
  0.00000000E+00  0.00000000E+00  0.00000000E+00  0.00000000E+00  0.00000000E+00
  0.00000000E+00  0.00000000E+00  0.00000000E+00  0.00000000E+00  0.00000000E+00
  0.00000000E+00  0.00000000E+00  0.00000000E+00  0.00000000E+00  0.00000000E+00
  0.00000000E+00  0.00000000E+00  0.00000000E+00  0.00000000E+00  0.00000000E+00
  0.00000000E+00  0.00000000E+00  0.00000000E+00  0.00000000E+00  0.00000000E+00
  0.00000000E+00  0.00000000E+00  0.00000000E+00  0.00000000E+00  0.00000000E+00
  0.00000000E+00  0.00000000E+00  0.00000000E+00  0.00000000E+00  0.00000000E+00
  0.00000000E+00  0.00000000E+00  0.00000000E+00  0.00000000E+00  0.00000000E+00
  0.00000000E+00  0.00000000E+00  0.00000000E+00  0.00000000E+00  0.00000000E+00
  0.00000000E+00  0.00000000E+00  0.00000000E+00  0.00000000E+00  0.00000000E+00
  0.00000000E+00  0.00000000E+00  0.00000000E+00  0.00000000E+00  0.00000000E+00
  0.00000000E+00  0.00000000E+00  0.00000000E+00  0.00000000E+00  0.00000000E+00
  0.00000000E+00  0.00000000E+00  0.00000000E+00  0.00000000E+00  0.00000000E+00
  0.00000000E+00  0.00000000E+00  0.00000000E+00  0.00000000E+00  0.00000000E+00
  0.00000000E+00  0.00000000E+00  0.00000000E+00  0.00000000E+00  0.00000000E+00
  0.00000000E+00  0.00000000E+00  0.00000000E+00  0.00000000E+00  0.00000000E+00
  0.00000000E+00  0.00000000E+00  0.00000000E+00  0.00000000E+00  0.00000000E+00
  0.00000000E+00  0.00000000E+00  0.00000000E+00  0.00000000E+00  0.00000000E+00
  0.00000000E+00  0.00000000E+00  0.00000000E+00  0.00000000E+00  0.00000000E+00
  0.00000000E+00  0.00000000E+00  0.00000000E+00  0.00000000E+00  0.00000000E+00
  0.00000000E+00  0.00000000E+00  0.00000000E+00  0.00000000E+00  0.00000000E+00
  0.00000000E+00  0.00000000E+00  0.00000000E+00  0.00000000E+00  0.00000000E+00
  0.00000000E+00  0.00000000E+00  0.00000000E+00  0.00000000E+00  0.00000000E+00
  0.00000000E+00  0.00000000E+00  0.00000000E+00  0.00000000E+00  0.00000000E+00
  0.00000000E+00  0.00000000E+00  0.00000000E+00  0.00000000E+00  0.00000000E+00
  0.00000000E+00  0.00000000E+00  0.00000000E+00  0.00000000E+00  0.00000000E+00
  0.00000000E+00  0.00000000E+00  0.00000000E+00  0.00000000E+00  0.00000000E+00
  0.00000000E+00  0.00000000E+00  0.00000000E+00  0.00000000E+00  0.00000000E+00
  0.00000000E+00  0.00000000E+00  0.00000000E+00  0.00000000E+00  0.00000000E+00
  0.00000000E+00  0.00000000E+00  0.00000000E+00  0.00000000E+00  0.00000000E+00
  0.00000000E+00  0.00000000E+00  0.00000000E+00  0.00000000E+00  0.00000000E+00
  0.00000000E+00  0.00000000E+00  0.00000000E+00  0.00000000E+00  0.00000000E+00
  0.00000000E+00  0.00000000E+00  0.00000000E+00  0.00000000E+00  0.00000000E+00
  0.00000000E+00  0.00000000E+00  0.00000000E+00  0.00000000E+00  0.00000000E+00
  0.00000000E+00  0.00000000E+00  0.00000000E+00  0.00000000E+00  0.00000000E+00
  0.00000000E+00  0.00000000E+00  0.00000000E+00  0.00000000E+00  0.00000000E+00
  0.00000000E+00  0.00000000E+00  0.00000000E+00  0.00000000E+00  0.00000000E+00
  0.00000000E+00  0.00000000E+00  0.00000000E+00  0.00000000E+00  0.00000000E+00
  0.00000000E+00  0.00000000E+00  0.00000000E+00  0.00000000E+00  0.00000000E+00
  0.00000000E+00  0.00000000E+00  0.00000000E+00  0.00000000E+00  0.00000000E+00
  0.00000000E+00  0.00000000E+00  0.00000000E+00  0.00000000E+00  0.00000000E+00
  0.00000000E+00  0.00000000E+00  0.00000000E+00  0.00000000E+00  0.00000000E+00
  0.00000000E+00  0.00000000E+00  0.00000000E+00  0.00000000E+00  0.00000000E+00
  0.00000000E+00  0.00000000E+00  0.00000000E+00  0.00000000E+00  0.00000000E+00
  0.00000000E+00  0.00000000E+00  0.00000000E+00  0.00000000E+00  0.00000000E+00
  0.00000000E+00  0.00000000E+00  0.00000000E+00  0.00000000E+00  0.00000000E+00
  0.00000000E+00  0.00000000E+00  0.00000000E+00  0.00000000E+00  0.00000000E+00
  0.00000000E+00  0.00000000E+00  0.00000000E+00  0.00000000E+00  0.00000000E+00
  0.00000000E+00  0.00000000E+00  0.00000000E+00  0.00000000E+00  0.00000000E+00
  0.00000000E+00  0.00000000E+00  0.00000000E+00  0.00000000E+00  0.00000000E+00
  0.00000000E+00  0.00000000E+00  0.00000000E+00  0.00000000E+00  0.00000000E+00
  0.00000000E+00  0.00000000E+00  0.00000000E+00  0.00000000E+00  0.00000000E+00
  0.00000000E+00  0.00000000E+00  0.00000000E+00  0.00000000E+00  0.00000000E+00
  0.00000000E+00  0.00000000E+00  0.00000000E+00  0.00000000E+00  0.00000000E+00
  0.00000000E+00  0.00000000E+00  0.00000000E+00  0.00000000E+00  0.00000000E+00
  0.00000000E+00  0.00000000E+00  0.00000000E+00  0.00000000E+00  0.00000000E+00
  0.00000000E+00  0.00000000E+00  0.00000000E+00  0.00000000E+00  0.00000000E+00
  0.00000000E+00  0.00000000E+00  0.00000000E+00  0.00000000E+00  0.00000000E+00
  0.00000000E+00  0.00000000E+00  0.00000000E+00  0.00000000E+00  0.00000000E+00
  0.00000000E+00  0.00000000E+00  0.00000000E+00  0.00000000E+00  0.00000000E+00
  0.00000000E+00  0.00000000E+00  0.00000000E+00  0.00000000E+00  0.00000000E+00
  0.00000000E+00  0.00000000E+00  0.00000000E+00  0.00000000E+00  0.00000000E+00
  0.00000000E+00  0.00000000E+00  0.00000000E+00  0.00000000E+00  0.00000000E+00
  0.00000000E+00  0.00000000E+00  0.00000000E+00  0.00000000E+00  0.00000000E+00
  0.00000000E+00  0.00000000E+00  0.00000000E+00  0.00000000E+00  0.00000000E+00
  0.00000000E+00  0.00000000E+00  0.00000000E+00  0.00000000E+00  0.00000000E+00
  0.00000000E+00  0.00000000E+00  0.00000000E+00  0.00000000E+00  0.00000000E+00
  0.00000000E+00  0.00000000E+00  0.00000000E+00  0.00000000E+00  0.00000000E+00
  0.00000000E+00  0.00000000E+00  0.00000000E+00  0.00000000E+00  0.00000000E+00
  0.00000000E+00  0.00000000E+00  0.00000000E+00  0.00000000E+00  0.00000000E+00
  0.00000000E+00  0.00000000E+00  0.00000000E+00  0.00000000E+00  0.00000000E+00
  0.00000000E+00  0.00000000E+00  0.00000000E+00  0.00000000E+00  0.00000000E+00
  0.00000000E+00  0.00000000E+00  0.00000000E+00  0.00000000E+00  0.00000000E+00
  0.00000000E+00  0.00000000E+00  0.00000000E+00  0.00000000E+00  0.00000000E+00
  0.00000000E+00  0.00000000E+00  0.00000000E+00  0.00000000E+00  0.00000000E+00
  0.00000000E+00  0.00000000E+00  0.00000000E+00  0.00000000E+00  0.00000000E+00
  0.00000000E+00  0.00000000E+00  0.00000000E+00  0.00000000E+00  0.00000000E+00
  0.00000000E+00  0.00000000E+00  0.00000000E+00  0.00000000E+00  0.00000000E+00
  0.00000000E+00  0.00000000E+00  0.00000000E+00  0.00000000E+00  0.00000000E+00
  0.00000000E+00  0.00000000E+00  0.00000000E+00  0.00000000E+00  0.00000000E+00
  0.00000000E+00  0.00000000E+00  0.00000000E+00  0.00000000E+00  0.00000000E+00
  0.00000000E+00  0.00000000E+00  0.00000000E+00  0.00000000E+00  0.00000000E+00
  0.00000000E+00  0.00000000E+00  0.00000000E+00  0.00000000E+00  0.00000000E+00
  0.00000000E+00  0.00000000E+00  0.00000000E+00  0.00000000E+00  0.00000000E+00
  0.00000000E+00  0.00000000E+00  0.00000000E+00  0.00000000E+00  0.00000000E+00
  0.00000000E+00  0.00000000E+00  0.00000000E+00  0.00000000E+00  0.00000000E+00
  0.00000000E+00  0.00000000E+00  0.00000000E+00  0.00000000E+00  0.00000000E+00
  0.00000000E+00  0.00000000E+00  0.00000000E+00  0.00000000E+00  0.00000000E+00
  0.00000000E+00  0.00000000E+00  0.00000000E+00  0.00000000E+00  0.00000000E+00
  0.00000000E+00  0.00000000E+00  0.00000000E+00  0.00000000E+00  0.00000000E+00
  0.00000000E+00  0.00000000E+00  0.00000000E+00  0.00000000E+00  0.00000000E+00
  0.00000000E+00  0.00000000E+00  0.00000000E+00  0.00000000E+00  0.00000000E+00
  0.00000000E+00  0.00000000E+00  0.00000000E+00  0.00000000E+00  0.00000000E+00
  0.00000000E+00  0.00000000E+00  0.00000000E+00  0.00000000E+00  0.00000000E+00
  0.00000000E+00  0.00000000E+00  0.00000000E+00  0.00000000E+00  0.00000000E+00
  0.00000000E+00  0.00000000E+00  0.00000000E+00  0.00000000E+00  0.00000000E+00
  0.00000000E+00  0.00000000E+00  0.00000000E+00  0.00000000E+00  0.00000000E+00
  0.00000000E+00  0.00000000E+00  0.00000000E+00  0.00000000E+00  0.00000000E+00
  0.00000000E+00  0.00000000E+00  0.00000000E+00  0.00000000E+00  0.00000000E+00
  0.00000000E+00  0.00000000E+00  0.00000000E+00  0.00000000E+00  0.00000000E+00
  0.00000000E+00  0.00000000E+00  0.00000000E+00  0.00000000E+00  0.00000000E+00
  0.00000000E+00  0.00000000E+00  0.00000000E+00  0.00000000E+00  0.00000000E+00
  0.00000000E+00  0.00000000E+00  0.00000000E+00  0.00000000E+00  0.00000000E+00
  0.00000000E+00  0.00000000E+00  0.00000000E+00  0.00000000E+00  0.00000000E+00
  0.00000000E+00  0.00000000E+00  0.00000000E+00  0.00000000E+00  0.00000000E+00
  0.00000000E+00  0.00000000E+00  0.00000000E+00  0.00000000E+00  0.00000000E+00
  0.00000000E+00  0.00000000E+00  0.00000000E+00  0.00000000E+00  0.00000000E+00
  0.00000000E+00  0.00000000E+00  0.00000000E+00  0.00000000E+00  0.00000000E+00
  0.00000000E+00  0.00000000E+00  0.00000000E+00  0.00000000E+00  0.00000000E+00
  0.00000000E+00  0.00000000E+00  0.00000000E+00  0.00000000E+00  0.00000000E+00
  0.00000000E+00  0.00000000E+00  0.00000000E+00  0.00000000E+00  0.00000000E+00
  0.00000000E+00  0.00000000E+00  0.00000000E+00  0.00000000E+00  0.00000000E+00
  0.00000000E+00  0.00000000E+00  0.00000000E+00  0.00000000E+00  0.00000000E+00
  0.00000000E+00  0.00000000E+00  0.00000000E+00  0.00000000E+00  0.00000000E+00
  0.00000000E+00  0.00000000E+00  0.00000000E+00  0.00000000E+00  0.00000000E+00
  0.00000000E+00  0.00000000E+00  0.00000000E+00  0.00000000E+00  0.00000000E+00
  0.00000000E+00  0.00000000E+00  0.00000000E+00  0.00000000E+00  0.00000000E+00
  0.00000000E+00  0.00000000E+00  0.00000000E+00  0.00000000E+00  0.00000000E+00
  0.00000000E+00  0.00000000E+00  0.00000000E+00  0.00000000E+00  0.00000000E+00
  0.00000000E+00  0.00000000E+00  0.00000000E+00  0.00000000E+00  0.00000000E+00
  0.00000000E+00  0.00000000E+00  0.00000000E+00  0.00000000E+00  0.00000000E+00
  0.00000000E+00  0.00000000E+00  0.00000000E+00  0.00000000E+00  0.00000000E+00
  0.00000000E+00  0.00000000E+00  0.00000000E+00  0.00000000E+00  0.00000000E+00
  0.00000000E+00  0.00000000E+00  0.00000000E+00  0.00000000E+00  0.00000000E+00
  0.00000000E+00  0.00000000E+00  0.00000000E+00  0.00000000E+00  0.00000000E+00
  0.00000000E+00  0.00000000E+00  0.00000000E+00  0.00000000E+00  0.00000000E+00
  0.00000000E+00  0.00000000E+00  0.00000000E+00  0.00000000E+00  0.00000000E+00
  0.00000000E+00  0.00000000E+00  0.00000000E+00  0.00000000E+00  0.00000000E+00
  0.00000000E+00  0.00000000E+00  0.00000000E+00  0.00000000E+00  0.00000000E+00
  0.00000000E+00  0.00000000E+00  0.00000000E+00  0.00000000E+00  0.00000000E+00
  0.00000000E+00  0.00000000E+00  0.00000000E+00  0.00000000E+00  0.00000000E+00
  0.00000000E+00  0.00000000E+00  0.00000000E+00  0.00000000E+00  0.00000000E+00
  0.00000000E+00  0.00000000E+00  0.00000000E+00  0.00000000E+00  0.00000000E+00
  0.00000000E+00  0.00000000E+00  0.00000000E+00  0.00000000E+00  0.00000000E+00
  0.00000000E+00  0.00000000E+00  0.00000000E+00  0.00000000E+00  0.00000000E+00
  0.00000000E+00  0.00000000E+00  0.00000000E+00  0.00000000E+00  0.00000000E+00
  0.00000000E+00  0.00000000E+00  0.00000000E+00  0.00000000E+00  0.00000000E+00
  0.00000000E+00  0.00000000E+00  0.00000000E+00  0.00000000E+00  0.00000000E+00
  0.00000000E+00  0.00000000E+00  0.00000000E+00  0.00000000E+00  0.00000000E+00
  0.00000000E+00  0.00000000E+00  0.00000000E+00  0.00000000E+00  0.00000000E+00
  0.00000000E+00  0.00000000E+00  0.00000000E+00  0.00000000E+00  0.00000000E+00
  0.00000000E+00  0.00000000E+00  0.00000000E+00  0.00000000E+00  0.00000000E+00
  0.00000000E+00  0.00000000E+00  0.00000000E+00  0.00000000E+00  0.00000000E+00
  0.00000000E+00  0.00000000E+00  0.00000000E+00  0.00000000E+00  0.00000000E+00
  0.00000000E+00  0.00000000E+00  0.00000000E+00  0.00000000E+00  0.00000000E+00
  0.00000000E+00  0.00000000E+00  0.00000000E+00  0.00000000E+00  0.00000000E+00
  0.00000000E+00  0.00000000E+00  0.00000000E+00  0.00000000E+00  0.00000000E+00
  0.00000000E+00  0.00000000E+00  0.00000000E+00  0.00000000E+00  0.00000000E+00
  0.00000000E+00  0.00000000E+00  0.00000000E+00  0.00000000E+00  0.00000000E+00
  0.00000000E+00  0.00000000E+00  0.00000000E+00  0.00000000E+00  0.00000000E+00
  0.00000000E+00  0.00000000E+00  0.00000000E+00  0.00000000E+00  0.00000000E+00
  0.00000000E+00  0.00000000E+00  0.00000000E+00  0.00000000E+00  0.00000000E+00
  0.00000000E+00  0.00000000E+00  0.00000000E+00  0.00000000E+00  0.00000000E+00
  0.00000000E+00  0.00000000E+00  0.00000000E+00  0.00000000E+00  0.00000000E+00
  0.00000000E+00  0.00000000E+00  0.00000000E+00  0.00000000E+00  0.00000000E+00
  0.00000000E+00  0.00000000E+00  0.00000000E+00  0.00000000E+00  0.00000000E+00
  0.00000000E+00  0.00000000E+00  0.00000000E+00  0.00000000E+00  0.00000000E+00
  0.00000000E+00  0.00000000E+00  0.00000000E+00  0.00000000E+00  0.00000000E+00
  0.00000000E+00  0.00000000E+00  0.00000000E+00  0.00000000E+00  0.00000000E+00
  0.00000000E+00  0.00000000E+00  0.00000000E+00  0.00000000E+00  0.00000000E+00
  0.00000000E+00  0.00000000E+00  0.00000000E+00  0.00000000E+00  0.00000000E+00
  0.00000000E+00  0.00000000E+00  0.00000000E+00  0.00000000E+00  0.00000000E+00
  0.00000000E+00  0.00000000E+00  0.00000000E+00  0.00000000E+00  0.00000000E+00
  0.00000000E+00  0.00000000E+00  0.00000000E+00  0.00000000E+00  0.00000000E+00
  0.00000000E+00  0.00000000E+00  0.00000000E+00  0.00000000E+00  0.00000000E+00
  0.00000000E+00  0.00000000E+00  0.00000000E+00  0.00000000E+00  0.00000000E+00
  0.00000000E+00  0.00000000E+00  0.00000000E+00  0.00000000E+00  0.00000000E+00
  0.00000000E+00  0.00000000E+00  0.00000000E+00  0.00000000E+00  0.00000000E+00
  0.00000000E+00  0.00000000E+00  0.00000000E+00  0.00000000E+00  0.00000000E+00
  0.00000000E+00  0.00000000E+00  0.00000000E+00  0.00000000E+00  0.00000000E+00
  0.00000000E+00  0.00000000E+00  0.00000000E+00  0.00000000E+00  0.00000000E+00
  0.00000000E+00  0.00000000E+00  0.00000000E+00  0.00000000E+00  0.00000000E+00
  0.00000000E+00  0.00000000E+00  0.00000000E+00  0.00000000E+00  0.00000000E+00
  0.00000000E+00  0.00000000E+00  0.00000000E+00  0.00000000E+00  0.00000000E+00
  0.00000000E+00  0.00000000E+00  0.00000000E+00  0.00000000E+00  0.00000000E+00
  0.00000000E+00  0.00000000E+00  0.00000000E+00  0.00000000E+00  0.00000000E+00
  0.00000000E+00  0.00000000E+00  0.00000000E+00  0.00000000E+00  0.00000000E+00
  0.00000000E+00  0.00000000E+00  0.00000000E+00  0.00000000E+00  0.00000000E+00
  0.00000000E+00  0.00000000E+00  0.00000000E+00  0.00000000E+00  0.00000000E+00
  0.00000000E+00  0.00000000E+00  0.00000000E+00  0.00000000E+00  0.00000000E+00
  0.00000000E+00  0.00000000E+00  0.00000000E+00  0.00000000E+00  0.00000000E+00
  0.00000000E+00  0.00000000E+00  0.00000000E+00  0.00000000E+00  0.00000000E+00
  0.00000000E+00  0.00000000E+00  0.00000000E+00  0.00000000E+00  0.00000000E+00
  0.00000000E+00  0.00000000E+00  0.00000000E+00  0.00000000E+00  0.00000000E+00
  0.00000000E+00  0.00000000E+00  0.00000000E+00  0.00000000E+00  0.00000000E+00
  0.00000000E+00  0.00000000E+00  0.00000000E+00  0.00000000E+00  0.00000000E+00
  0.00000000E+00  0.00000000E+00  0.00000000E+00  0.00000000E+00  0.00000000E+00
  0.00000000E+00  0.00000000E+00  0.00000000E+00  0.00000000E+00  0.00000000E+00
  0.00000000E+00  0.00000000E+00  0.00000000E+00  0.00000000E+00  0.00000000E+00
  0.00000000E+00  0.00000000E+00  0.00000000E+00  0.00000000E+00  0.00000000E+00
  0.00000000E+00  0.00000000E+00  0.00000000E+00  0.00000000E+00  0.00000000E+00
  0.00000000E+00  0.00000000E+00  0.00000000E+00  0.00000000E+00  0.00000000E+00
  0.00000000E+00  0.00000000E+00  0.00000000E+00  0.00000000E+00  0.00000000E+00
  0.00000000E+00  0.00000000E+00  0.00000000E+00  0.00000000E+00  0.00000000E+00
  0.00000000E+00  0.00000000E+00  0.00000000E+00  0.00000000E+00  0.00000000E+00
  0.00000000E+00  0.00000000E+00  0.00000000E+00  0.00000000E+00  0.00000000E+00
  0.00000000E+00  0.00000000E+00  0.00000000E+00  0.00000000E+00  0.00000000E+00
  0.00000000E+00  0.00000000E+00  0.00000000E+00  0.00000000E+00  0.00000000E+00
  0.00000000E+00  0.00000000E+00  0.00000000E+00  0.00000000E+00  0.00000000E+00
  0.00000000E+00  0.00000000E+00  0.00000000E+00  0.00000000E+00  0.00000000E+00
  0.00000000E+00  0.00000000E+00  0.00000000E+00  0.00000000E+00  0.00000000E+00
  0.00000000E+00  0.00000000E+00  0.00000000E+00  0.00000000E+00  0.00000000E+00
  0.00000000E+00  0.00000000E+00  0.00000000E+00  0.00000000E+00  0.00000000E+00
  0.00000000E+00  0.00000000E+00  0.00000000E+00  0.00000000E+00  0.00000000E+00
  0.00000000E+00  0.00000000E+00  0.00000000E+00  0.00000000E+00  0.00000000E+00
  0.00000000E+00  0.00000000E+00  0.00000000E+00  0.00000000E+00  0.00000000E+00
  0.00000000E+00  0.00000000E+00  0.00000000E+00  0.00000000E+00  0.00000000E+00
  0.00000000E+00  0.00000000E+00  0.00000000E+00  0.00000000E+00  0.00000000E+00
  0.00000000E+00  0.00000000E+00  0.00000000E+00  0.00000000E+00  0.00000000E+00
  0.00000000E+00  0.00000000E+00  0.00000000E+00  0.00000000E+00  0.00000000E+00
  0.00000000E+00  0.00000000E+00  0.00000000E+00  0.00000000E+00  0.00000000E+00
  0.00000000E+00  0.00000000E+00  0.00000000E+00  0.00000000E+00  0.00000000E+00
  0.00000000E+00  0.00000000E+00  0.00000000E+00  0.00000000E+00  0.00000000E+00
  0.00000000E+00  0.00000000E+00  0.00000000E+00  0.00000000E+00  0.00000000E+00
  0.00000000E+00  0.00000000E+00  0.00000000E+00  0.00000000E+00  0.00000000E+00
  0.00000000E+00  0.00000000E+00  0.00000000E+00  0.00000000E+00  0.00000000E+00
  0.00000000E+00  0.00000000E+00  0.00000000E+00  0.00000000E+00  0.00000000E+00
  0.00000000E+00  0.00000000E+00  0.00000000E+00  0.00000000E+00  0.00000000E+00
  0.00000000E+00  0.00000000E+00  0.00000000E+00  0.00000000E+00  0.00000000E+00
  0.00000000E+00  0.00000000E+00  0.00000000E+00  0.00000000E+00  0.00000000E+00
  0.00000000E+00  0.00000000E+00  0.00000000E+00  0.00000000E+00  0.00000000E+00
  0.00000000E+00  0.00000000E+00  0.00000000E+00  0.00000000E+00  0.00000000E+00
  0.00000000E+00  0.00000000E+00  0.00000000E+00  0.00000000E+00  0.00000000E+00
  0.00000000E+00  0.00000000E+00  0.00000000E+00  0.00000000E+00  0.00000000E+00
  0.00000000E+00  0.00000000E+00  0.00000000E+00  0.00000000E+00  0.00000000E+00
  0.00000000E+00  0.00000000E+00  0.00000000E+00  0.00000000E+00  0.00000000E+00
  0.00000000E+00  0.00000000E+00  0.00000000E+00  0.00000000E+00  0.00000000E+00
  0.00000000E+00  0.00000000E+00  0.00000000E+00  0.00000000E+00  0.00000000E+00
  0.00000000E+00  0.00000000E+00  0.00000000E+00  0.00000000E+00  0.00000000E+00
  0.00000000E+00  0.00000000E+00  0.00000000E+00  0.00000000E+00  0.00000000E+00
  0.00000000E+00  0.00000000E+00  0.00000000E+00  0.00000000E+00  0.00000000E+00
  0.00000000E+00  0.00000000E+00  0.00000000E+00  0.00000000E+00  0.00000000E+00
  0.00000000E+00  0.00000000E+00  0.00000000E+00  0.00000000E+00  0.00000000E+00
  0.00000000E+00  0.00000000E+00  0.00000000E+00  0.00000000E+00  0.00000000E+00
  0.00000000E+00  0.00000000E+00  0.00000000E+00  0.00000000E+00  0.00000000E+00
  0.00000000E+00  0.00000000E+00  0.00000000E+00  0.00000000E+00  0.00000000E+00
  0.00000000E+00  0.00000000E+00  0.00000000E+00  0.00000000E+00  0.00000000E+00
  0.00000000E+00  0.00000000E+00  0.00000000E+00  0.00000000E+00  0.00000000E+00
  0.00000000E+00  0.00000000E+00  0.00000000E+00  0.00000000E+00  0.00000000E+00
  0.00000000E+00  0.00000000E+00  0.00000000E+00  0.00000000E+00  0.00000000E+00
  0.00000000E+00  0.00000000E+00  0.00000000E+00  0.00000000E+00  0.00000000E+00
  0.00000000E+00  0.00000000E+00  0.00000000E+00  0.00000000E+00  0.00000000E+00
  0.00000000E+00  0.00000000E+00  0.00000000E+00  0.00000000E+00  0.00000000E+00
  0.00000000E+00  0.00000000E+00  0.00000000E+00  0.00000000E+00  0.00000000E+00
  0.00000000E+00  0.00000000E+00  0.00000000E+00  0.00000000E+00  0.00000000E+00
  0.00000000E+00  0.00000000E+00  0.00000000E+00  0.00000000E+00  0.00000000E+00
  0.00000000E+00  0.00000000E+00  0.00000000E+00  0.00000000E+00  0.00000000E+00
  0.00000000E+00  0.00000000E+00  0.00000000E+00  0.00000000E+00  0.00000000E+00
  0.00000000E+00  0.00000000E+00  0.00000000E+00  0.00000000E+00  0.00000000E+00
  0.00000000E+00  0.00000000E+00  0.00000000E+00  0.00000000E+00  0.00000000E+00
  0.00000000E+00  0.00000000E+00  0.00000000E+00  0.00000000E+00  0.00000000E+00
  0.00000000E+00  0.00000000E+00  0.00000000E+00  0.00000000E+00  0.00000000E+00
  0.00000000E+00  0.00000000E+00  0.00000000E+00  0.00000000E+00  0.00000000E+00
  0.00000000E+00  0.00000000E+00  0.00000000E+00  0.00000000E+00  0.00000000E+00
  0.00000000E+00  0.00000000E+00  0.00000000E+00  0.00000000E+00  0.00000000E+00
  0.00000000E+00  0.00000000E+00  0.00000000E+00  0.00000000E+00  0.00000000E+00
  0.00000000E+00  0.00000000E+00  0.00000000E+00  0.00000000E+00  0.00000000E+00
  0.00000000E+00  0.00000000E+00  0.00000000E+00  0.00000000E+00  0.00000000E+00
  0.00000000E+00  0.00000000E+00  0.00000000E+00  0.00000000E+00  0.00000000E+00
  0.00000000E+00  0.00000000E+00  0.00000000E+00  0.00000000E+00  0.00000000E+00
  0.00000000E+00  0.00000000E+00  0.00000000E+00  0.00000000E+00  0.00000000E+00
  0.00000000E+00  0.00000000E+00  0.00000000E+00  0.00000000E+00  0.00000000E+00
  0.00000000E+00  0.00000000E+00  0.00000000E+00  0.00000000E+00  0.00000000E+00
  0.00000000E+00  0.00000000E+00  0.00000000E+00  0.00000000E+00  0.00000000E+00
  0.00000000E+00  0.00000000E+00  0.00000000E+00  0.00000000E+00  0.00000000E+00
  0.00000000E+00  0.00000000E+00  0.00000000E+00  0.00000000E+00  0.00000000E+00
  0.00000000E+00  0.00000000E+00  0.00000000E+00  0.00000000E+00  0.00000000E+00
  0.00000000E+00  0.00000000E+00  0.00000000E+00  0.00000000E+00  0.00000000E+00
  0.00000000E+00  0.00000000E+00  0.00000000E+00  0.00000000E+00  0.00000000E+00
  0.00000000E+00  0.00000000E+00  0.00000000E+00  0.00000000E+00  0.00000000E+00
  0.00000000E+00  0.00000000E+00  0.00000000E+00  0.00000000E+00  0.00000000E+00
  0.00000000E+00  0.00000000E+00  0.00000000E+00  0.00000000E+00  0.00000000E+00
  0.00000000E+00  0.00000000E+00  0.00000000E+00  0.00000000E+00  0.00000000E+00
  0.00000000E+00  0.00000000E+00  0.00000000E+00  0.00000000E+00  0.00000000E+00
  0.00000000E+00  0.00000000E+00  0.00000000E+00  0.00000000E+00  0.00000000E+00
  0.00000000E+00  0.00000000E+00  0.00000000E+00  0.00000000E+00  0.00000000E+00
  0.00000000E+00  0.00000000E+00  0.00000000E+00  0.00000000E+00  0.00000000E+00
  0.00000000E+00  0.00000000E+00  0.00000000E+00  0.00000000E+00  0.00000000E+00
  0.00000000E+00  0.00000000E+00  0.00000000E+00  0.00000000E+00  0.00000000E+00
  0.00000000E+00  0.00000000E+00  0.00000000E+00  0.00000000E+00  0.00000000E+00
  0.00000000E+00  0.00000000E+00  0.00000000E+00  0.00000000E+00  0.00000000E+00
  0.00000000E+00  0.00000000E+00  0.00000000E+00  0.00000000E+00  0.00000000E+00
  0.00000000E+00  0.00000000E+00  0.00000000E+00  0.00000000E+00  0.00000000E+00
  0.00000000E+00  0.00000000E+00  0.00000000E+00  0.00000000E+00  0.00000000E+00
  0.00000000E+00  0.00000000E+00  0.00000000E+00  0.00000000E+00  0.00000000E+00
  0.00000000E+00  0.00000000E+00  0.00000000E+00  0.00000000E+00  0.00000000E+00
  0.00000000E+00  0.00000000E+00  0.00000000E+00  0.00000000E+00  0.00000000E+00
  0.00000000E+00  0.00000000E+00  0.00000000E+00  0.00000000E+00  0.00000000E+00
  0.00000000E+00  0.00000000E+00  0.00000000E+00  0.00000000E+00  0.00000000E+00
Gaussian Version                           C   N=           2
ES64L-G16RevB.01        
