 Entering Gaussian System, Link 0=/home/falbo/g16/g16
 Initial command:
 /home/falbo/g16/l1.exe "/home/falbo/scratch_g16/1211/Gau-1437421.inp" -scrdir="/home/falbo/scratch_g16/1211/"
 Entering Link 1 = /home/falbo/g16/l1.exe PID=   1437422.
  
 Copyright (c) 1988-2017, Gaussian, Inc.  All Rights Reserved.
  
 This is part of the Gaussian(R) 16 program.  It is based on
 the Gaussian(R) 09 system (copyright 2009, Gaussian, Inc.),
 the Gaussian(R) 03 system (copyright 2003, Gaussian, Inc.),
 the Gaussian(R) 98 system (copyright 1998, Gaussian, Inc.),
 the Gaussian(R) 94 system (copyright 1995, Gaussian, Inc.),
 the Gaussian 92(TM) system (copyright 1992, Gaussian, Inc.),
 the Gaussian 90(TM) system (copyright 1990, Gaussian, Inc.),
 the Gaussian 88(TM) system (copyright 1988, Gaussian, Inc.),
 the Gaussian 86(TM) system (copyright 1986, Carnegie Mellon
 University), and the Gaussian 82(TM) system (copyright 1983,
 Carnegie Mellon University). Gaussian is a federally registered
 trademark of Gaussian, Inc.
  
 This software contains proprietary and confidential information,
 including trade secrets, belonging to Gaussian, Inc.
  
 This software is provided under written license and may be
 used, copied, transmitted, or stored only in accord with that
 written license.
  
 The following legend is applicable only to US Government
 contracts under FAR:
  
                    RESTRICTED RIGHTS LEGEND
  
 Use, reproduction and disclosure by the US Government is
 subject to restrictions as set forth in subparagraphs (a)
 and (c) of the Commercial Computer Software - Restricted
 Rights clause in FAR 52.227-19.
  
 Gaussian, Inc.
 340 Quinnipiac St., Bldg. 40, Wallingford CT 06492
  
  
 ---------------------------------------------------------------
 Warning -- This program may not be used in any manner that
 competes with the business of Gaussian, Inc. or will provide
 assistance to any competitor of Gaussian, Inc.  The licensee
 of this program is prohibited from giving any competitor of
 Gaussian, Inc. access to this program.  By using this program,
 the user acknowledges that Gaussian, Inc. is engaged in the
 business of creating and licensing software in the field of
 computational chemistry and represents and warrants to the
 licensee that it is not a competitor of Gaussian, Inc. and that
 it will not use this program in any manner prohibited above.
 ---------------------------------------------------------------
  

 Cite this work as:
 Gaussian 16, Revision B.01,
 M. J. Frisch, G. W. Trucks, H. B. Schlegel, G. E. Scuseria, 
 M. A. Robb, J. R. Cheeseman, G. Scalmani, V. Barone, 
 G. A. Petersson, H. Nakatsuji, X. Li, M. Caricato, A. V. Marenich, 
 J. Bloino, B. G. Janesko, R. Gomperts, B. Mennucci, H. P. Hratchian, 
 J. V. Ortiz, A. F. Izmaylov, J. L. Sonnenberg, D. Williams-Young, 
 F. Ding, F. Lipparini, F. Egidi, J. Goings, B. Peng, A. Petrone, 
 T. Henderson, D. Ranasinghe, V. G. Zakrzewski, J. Gao, N. Rega, 
 G. Zheng, W. Liang, M. Hada, M. Ehara, K. Toyota, R. Fukuda, 
 J. Hasegawa, M. Ishida, T. Nakajima, Y. Honda, O. Kitao, H. Nakai, 
 T. Vreven, K. Throssell, J. A. Montgomery, Jr., J. E. Peralta, 
 F. Ogliaro, M. J. Bearpark, J. J. Heyd, E. N. Brothers, K. N. Kudin, 
 V. N. Staroverov, T. A. Keith, R. Kobayashi, J. Normand, 
 K. Raghavachari, A. P. Rendell, J. C. Burant, S. S. Iyengar, 
 J. Tomasi, M. Cossi, J. M. Millam, M. Klene, C. Adamo, R. Cammi, 
 J. W. Ochterski, R. L. Martin, K. Morokuma, O. Farkas, 
 J. B. Foresman, and D. J. Fox, Gaussian, Inc., Wallingford CT, 2016.
 
 ******************************************
 Gaussian 16:  ES64L-G16RevB.01 20-Dec-2017
                12-Aug-2026 
 ******************************************
 %mem=96GB
 %nprocshared=48
 Will use up to   48 processors via shared memory.
 %chk=02_conf_010.chk
 -------------------------------------------------------------
 #p m052x/6-31+G(d) opt(calcall,tight,maxstep=7) freq=intmodes
 -------------------------------------------------------------
 1/7=10,8=7,10=4,18=20,19=15,26=3,38=1/1,3;
 2/9=110,12=2,17=6,18=5,40=1/2;
 3/5=1,6=6,7=11,11=2,25=1,30=1,71=2,74=-38,140=1/1,2,3;
 4//1;
 5/5=2,38=5/2;
 8/6=4,10=90,11=11/1;
 11/6=1,8=1,9=11,15=111,16=1/1,2,10;
 10/6=1/2;
 6/7=2,8=2,9=2,10=2,18=1,28=1/1;
 7/10=1,25=1/1,2,3,16;
 1/7=10,8=7,10=4,18=20,19=15,26=3/3(3);
 2/9=110/2;
 7/8=21,9=1,25=1,44=-1/16;
 99//99;
 2/9=110/2;
 3/5=1,6=6,7=11,11=2,25=1,30=1,71=2,74=-38,140=1/1,2,3;
 4/5=5,16=3,69=1/1;
 5/5=2,38=5/2;
 8/6=4,10=90,11=11/1;
 11/6=1,8=1,9=11,15=111,16=1/1,2,10;
 10/6=1/2;
 7/10=1,25=1/1,2,3,16;
 1/7=10,8=7,10=4,18=20,19=15,26=3/3(-8);
 2/9=110/2;
 6/7=2,8=2,9=2,10=2,18=1,19=2,28=1/1;
 7/8=21,9=1,25=1,44=-1/16;
 99//99;
 Leave Link    1 at Wed Aug 12 19:11:02 2026, MaxMem= 12884901888 cpu:               1.6 elap:               0.0
 (Enter /home/falbo/g16/l101.exe)
 -----------------------------------------------------
 HessFit high-level Opt+Freq starting from 02_conf_010
 -----------------------------------------------------
 Symbolic Z-matrix:
 Charge =  0 Multiplicity = 1
 C                    -0.53102   0.8159    1.46277 
 H                    -0.37141  -0.2573    1.38564 
 H                    -0.21811   1.13302   2.45399 
 H                     0.10042   1.30977   0.7271 
 C                    -1.99742   1.15185   1.21717 
 H                    -2.61204   0.67553   1.9847 
 H                    -2.29651   0.73763   0.25105 
 C                    -2.2772    2.65515   1.21066 
 H                    -1.62008   3.13951   0.48451 
 H                    -3.30711   2.81646   0.88254 
 C                    -2.08915   3.30601   2.57612 
 H                    -2.36874   4.35644   2.53537 
 H                    -2.7123    2.81441   3.32045 
 H                    -1.05323   3.24488   2.89902 
 
 ITRead=  0  0  0  0  0  0  0  0  0  0  0  0  0  0
 MicOpt= -1 -1 -1 -1 -1 -1 -1 -1 -1 -1 -1 -1 -1 -1
 NAtoms=     14 NQM=       14 NQMF=       0 NMMI=      0 NMMIF=      0
                NMic=       0 NMicF=      0.
                    Isotopes and Nuclear Properties:
 (Nuclear quadrupole moments (NQMom) in fm**2, nuclear magnetic moments (NMagM)
  in nuclear magnetons)

  Atom         1           2           3           4           5           6           7           8           9          10
 IAtWgt=          12           1           1           1          12           1           1          12           1           1
 AtmWgt=  12.0000000   1.0078250   1.0078250   1.0078250  12.0000000   1.0078250   1.0078250  12.0000000   1.0078250   1.0078250
 NucSpn=           0           1           1           1           0           1           1           0           1           1
 AtZEff=  -0.0000000  -0.0000000  -0.0000000  -0.0000000  -0.0000000  -0.0000000  -0.0000000  -0.0000000  -0.0000000  -0.0000000
 NQMom=    0.0000000   0.0000000   0.0000000   0.0000000   0.0000000   0.0000000   0.0000000   0.0000000   0.0000000   0.0000000
 NMagM=    0.0000000   2.7928460   2.7928460   2.7928460   0.0000000   2.7928460   2.7928460   0.0000000   2.7928460   2.7928460
 AtZNuc=   6.0000000   1.0000000   1.0000000   1.0000000   6.0000000   1.0000000   1.0000000   6.0000000   1.0000000   1.0000000

  Atom        11          12          13          14
 IAtWgt=          12           1           1           1
 AtmWgt=  12.0000000   1.0078250   1.0078250   1.0078250
 NucSpn=           0           1           1           1
 AtZEff=  -0.0000000  -0.0000000  -0.0000000  -0.0000000
 NQMom=    0.0000000   0.0000000   0.0000000   0.0000000
 NMagM=    0.0000000   2.7928460   2.7928460   2.7928460
 AtZNuc=   6.0000000   1.0000000   1.0000000   1.0000000
 Leave Link  101 at Wed Aug 12 19:11:03 2026, MaxMem= 12884901888 cpu:              15.6 elap:               0.4
 (Enter /home/falbo/g16/l103.exe)

 GradGradGradGradGradGradGradGradGradGradGradGradGradGradGradGradGradGrad
 Berny optimization.
 Initialization pass.
                           ----------------------------
                           !    Initial Parameters    !
                           ! (Angstroms and Degrees)  !
 --------------------------                            --------------------------
 ! Name  Definition              Value          Derivative Info.                !
 --------------------------------------------------------------------------------
 ! R1    R(1,2)                  1.0877         calculate D2E/DX2 analytically  !
 ! R2    R(1,3)                  1.0867         calculate D2E/DX2 analytically  !
 ! R3    R(1,4)                  1.088          calculate D2E/DX2 analytically  !
 ! R4    R(1,5)                  1.5243         calculate D2E/DX2 analytically  !
 ! R5    R(5,6)                  1.0926         calculate D2E/DX2 analytically  !
 ! R6    R(5,7)                  1.0929         calculate D2E/DX2 analytically  !
 ! R7    R(5,8)                  1.5291         calculate D2E/DX2 analytically  !
 ! R8    R(8,9)                  1.0926         calculate D2E/DX2 analytically  !
 ! R9    R(8,10)                 1.0929         calculate D2E/DX2 analytically  !
 ! R10   R(8,11)                 1.5243         calculate D2E/DX2 analytically  !
 ! R11   R(11,12)                1.0878         calculate D2E/DX2 analytically  !
 ! R12   R(11,13)                1.0881         calculate D2E/DX2 analytically  !
 ! R13   R(11,14)                1.0868         calculate D2E/DX2 analytically  !
 ! A1    A(2,1,3)              108.0796         calculate D2E/DX2 analytically  !
 ! A2    A(2,1,4)              108.3448         calculate D2E/DX2 analytically  !
 ! A3    A(2,1,5)              110.3146         calculate D2E/DX2 analytically  !
 ! A4    A(3,1,4)              108.4916         calculate D2E/DX2 analytically  !
 ! A5    A(3,1,5)              111.0787         calculate D2E/DX2 analytically  !
 ! A6    A(4,1,5)              110.4453         calculate D2E/DX2 analytically  !
 ! A7    A(1,5,6)              109.3841         calculate D2E/DX2 analytically  !
 ! A8    A(1,5,7)              108.7944         calculate D2E/DX2 analytically  !
 ! A9    A(1,5,8)              113.1645         calculate D2E/DX2 analytically  !
 ! A10   A(6,5,7)              107.5674         calculate D2E/DX2 analytically  !
 ! A11   A(6,5,8)              109.1869         calculate D2E/DX2 analytically  !
 ! A12   A(7,5,8)              108.5889         calculate D2E/DX2 analytically  !
 ! A13   A(5,8,9)              109.1848         calculate D2E/DX2 analytically  !
 ! A14   A(5,8,10)             108.5909         calculate D2E/DX2 analytically  !
 ! A15   A(5,8,11)             113.1661         calculate D2E/DX2 analytically  !
 ! A16   A(9,8,10)             107.5662         calculate D2E/DX2 analytically  !
 ! A17   A(9,8,11)             109.3828         calculate D2E/DX2 analytically  !
 ! A18   A(10,8,11)            108.7953         calculate D2E/DX2 analytically  !
 ! A19   A(8,11,12)            110.3081         calculate D2E/DX2 analytically  !
 ! A20   A(8,11,13)            110.4392         calculate D2E/DX2 analytically  !
 ! A21   A(8,11,14)            111.0835         calculate D2E/DX2 analytically  !
 ! A22   A(12,11,13)           108.3433         calculate D2E/DX2 analytically  !
 ! A23   A(12,11,14)           108.0858         calculate D2E/DX2 analytically  !
 ! A24   A(13,11,14)           108.495          calculate D2E/DX2 analytically  !
 ! D1    D(2,1,5,6)             62.17           calculate D2E/DX2 analytically  !
 ! D2    D(2,1,5,7)            -55.0704         calculate D2E/DX2 analytically  !
 ! D3    D(2,1,5,8)           -175.8588         calculate D2E/DX2 analytically  !
 ! D4    D(3,1,5,6)            -57.6543         calculate D2E/DX2 analytically  !
 ! D5    D(3,1,5,7)           -174.8947         calculate D2E/DX2 analytically  !
 ! D6    D(3,1,5,8)             64.3169         calculate D2E/DX2 analytically  !
 ! D7    D(4,1,5,6)           -178.0822         calculate D2E/DX2 analytically  !
 ! D8    D(4,1,5,7)             64.6774         calculate D2E/DX2 analytically  !
 ! D9    D(4,1,5,8)            -56.111          calculate D2E/DX2 analytically  !
 ! D10   D(1,5,8,9)             54.5943         calculate D2E/DX2 analytically  !
 ! D11   D(1,5,8,10)           171.6065         calculate D2E/DX2 analytically  !
 ! D12   D(1,5,8,11)           -67.4851         calculate D2E/DX2 analytically  !
 ! D13   D(6,5,8,9)            176.6759         calculate D2E/DX2 analytically  !
 ! D14   D(6,5,8,10)           -66.3119         calculate D2E/DX2 analytically  !
 ! D15   D(6,5,8,11)            54.5965         calculate D2E/DX2 analytically  !
 ! D16   D(7,5,8,9)            -66.3105         calculate D2E/DX2 analytically  !
 ! D17   D(7,5,8,10)            50.7017         calculate D2E/DX2 analytically  !
 ! D18   D(7,5,8,11)           171.6101         calculate D2E/DX2 analytically  !
 ! D19   D(5,8,11,12)         -175.9042         calculate D2E/DX2 analytically  !
 ! D20   D(5,8,11,13)          -56.1664         calculate D2E/DX2 analytically  !
 ! D21   D(5,8,11,14)           64.2648         calculate D2E/DX2 analytically  !
 ! D22   D(9,8,11,12)           62.1272         calculate D2E/DX2 analytically  !
 ! D23   D(9,8,11,13)         -178.135          calculate D2E/DX2 analytically  !
 ! D24   D(9,8,11,14)          -57.7038         calculate D2E/DX2 analytically  !
 ! D25   D(10,8,11,12)         -55.1116         calculate D2E/DX2 analytically  !
 ! D26   D(10,8,11,13)          64.6262         calculate D2E/DX2 analytically  !
 ! D27   D(10,8,11,14)        -174.9426         calculate D2E/DX2 analytically  !
 --------------------------------------------------------------------------------
 Trust Radius=7.00D-02 FncErr=1.00D-07 GrdErr=1.00D-06 EigMax=2.50D+02 EigMin=1.00D-04
 Number of steps in this run=     74 maximum allowed number of steps=    100.
 GradGradGradGradGradGradGradGradGradGradGradGradGradGradGradGradGradGrad

 Leave Link  103 at Wed Aug 12 19:11:03 2026, MaxMem= 12884901888 cpu:               0.4 elap:               0.0
 (Enter /home/falbo/g16/l202.exe)
                          Input orientation:                          
 ---------------------------------------------------------------------
 Center     Atomic      Atomic             Coordinates (Angstroms)
 Number     Number       Type             X           Y           Z
 ---------------------------------------------------------------------
      1          6           0       -0.531017    0.815902    1.462775
      2          1           0       -0.371414   -0.257303    1.385640
      3          1           0       -0.218110    1.133017    2.453989
      4          1           0        0.100420    1.309769    0.727099
      5          6           0       -1.997421    1.151849    1.217168
      6          1           0       -2.612045    0.675534    1.984700
      7          1           0       -2.296506    0.737631    0.251046
      8          6           0       -2.277202    2.655147    1.210662
      9          1           0       -1.620080    3.139506    0.484509
     10          1           0       -3.307113    2.816457    0.882537
     11          6           0       -2.089152    3.306008    2.576119
     12          1           0       -2.368740    4.356443    2.535367
     13          1           0       -2.712300    2.814410    3.320452
     14          1           0       -1.053235    3.244882    2.899015
 ---------------------------------------------------------------------
                    Distance matrix (angstroms):
                    1          2          3          4          5
     1  C    0.000000
     2  H    1.087747   0.000000
     3  H    1.086728   1.760074   0.000000
     4  H    1.088043   1.764091   1.764894   0.000000
     5  C    1.524310   2.158238   2.167032   2.160102   0.000000
     6  H    2.150066   2.499897   2.482024   3.056350   1.092586
     7  H    2.142747   2.446053   3.054343   2.509825   1.092895
     8  C    2.548635   3.484969   2.846507   2.774339   1.529126
     9  H    2.746306   3.729547   3.141714   2.523273   2.151733
    10  H    3.470677   4.280122   3.852969   3.729014   2.144339
    11  C    3.141329   4.130987   2.870123   3.492574   2.548640
    12  H    4.130752   5.157310   3.875863   4.318427   3.484961
    13  H    3.493278   4.319568   3.130307   4.111060   2.774702
    14  H    2.869746   3.875627   2.314186   3.129346   2.846206
                    6          7          8          9         10
     6  H    0.000000
     7  H    1.763229   0.000000
     8  C    2.151772   2.144318   0.000000
     9  H    3.050528   2.506204   1.092570   0.000000
    10  H    2.506279   2.396168   1.092888   1.763198   0.000000
    11  C    2.746378   3.470666   1.524289   2.150019   2.142734
    12  H    3.729816   4.280087   2.158155   2.499489   2.446211
    13  H    2.523703   3.729229   2.160067   3.056338   2.509430
    14  H    3.141243   3.852762   2.167123   2.482390   3.054456
                   11         12         13         14
    11  C    0.000000
    12  H    1.087770   0.000000
    13  H    1.088125   1.764160   0.000000
    14  H    1.086794   1.760217   1.765053   0.000000
 Stoichiometry    C4H10
 Framework group  C1[X(C4H10)]
 Deg. of freedom    36
 Full point group                 C1      NOp   1
 Largest Abelian subgroup         C1      NOp   1
 Largest concise Abelian subgroup C1      NOp   1
                         Standard orientation:                         
 ---------------------------------------------------------------------
 Center     Atomic      Atomic             Coordinates (Angstroms)
 Number     Number       Type             X           Y           Z
 ---------------------------------------------------------------------
      1          6           0       -1.565348   -0.550419   -0.129214
      2          1           0       -2.561250   -0.465372    0.299899
      3          1           0       -1.142370   -1.500571    0.185869
      4          1           0       -1.658939   -0.556855   -1.213205
      5          6           0       -0.692977    0.614912    0.322998
      6          1           0       -0.582679    0.585021    1.409591
      7          1           0       -1.196116    1.551030    0.068137
      8          6           0        0.692988    0.614873   -0.323009
      9          1           0        0.582651    0.584905   -1.409580
     10          1           0        1.196167    1.550991   -0.068259
     11          6           0        1.565333   -0.550444    0.129219
     12          1           0        2.560978   -0.465751   -0.300620
     13          1           0        1.659680   -0.556182    1.213230
     14          1           0        1.141901   -1.500749   -0.185022
 ---------------------------------------------------------------------
 Rotational constants (GHZ):          13.4371527           4.7931495           4.1162641
 Leave Link  202 at Wed Aug 12 19:11:03 2026, MaxMem= 12884901888 cpu:               0.2 elap:               0.0
 (Enter /home/falbo/g16/l301.exe)
 Standard basis: 6-31+G(d) (6D, 7F)
 Ernie: Thresh=  0.10000D-02 Tol=  0.10000D-05 Strict=F.
 There are    96 symmetry adapted cartesian basis functions of A   symmetry.
 There are    96 symmetry adapted basis functions of A   symmetry.
    96 basis functions,   168 primitive gaussians,    96 cartesian basis functions
    17 alpha electrons       17 beta electrons
       nuclear repulsion energy       133.0775480411 Hartrees.
 IExCor= 3428 DFT=T Ex+Corr=M052X ExCW=0 ScaHFX=  0.560000
 ScaDFX=  0.440000  0.440000  1.000000  1.000000 ScalE2=  1.000000  1.000000
 IRadAn=      5 IRanWt=     -1 IRanGd=            0 ICorTp=0 IEmpDi=  4
 NAtoms=   14 NActive=   14 NUniq=   14 SFac= 1.00D+00 NAtFMM=   60 NAOKFM=F Big=F
 Integral buffers will be    131072 words long.
 Raffenetti 2 integral format.
 Two-electron integral symmetry is turned on.
 Leave Link  301 at Wed Aug 12 19:11:03 2026, MaxMem= 12884901888 cpu:               2.3 elap:               0.1
 (Enter /home/falbo/g16/l302.exe)
 NPDir=0 NMtPBC=     1 NCelOv=     1 NCel=       1 NClECP=     1 NCelD=      1
         NCelK=      1 NCelE2=     1 NClLst=     1 CellRange=     0.0.
 One-electron integrals computed using PRISM.
 One-electron integral symmetry used in STVInt
 NBasis=    96 RedAO= T EigKep=  1.74D-04  NBF=    96
 NBsUse=    96 1.00D-06 EigRej= -1.00D+00 NBFU=    96
 Precomputing XC quadrature grid using
 IXCGrd= 4 IRadAn=           5 IRanWt=          -1 IRanGd=           0 AccXCQ= 0.00D+00.
 Generated NRdTot=       0 NPtTot=           0 NUsed=           0 NTot=          32
 NSgBfM=    96    96    96    96    96 MxSgAt=    14 MxSgA2=    14.
 Leave Link  302 at Wed Aug 12 19:11:03 2026, MaxMem= 12884901888 cpu:               7.2 elap:               0.2
 (Enter /home/falbo/g16/l303.exe)
 DipDrv:  MaxL=1.
 Leave Link  303 at Wed Aug 12 19:11:03 2026, MaxMem= 12884901888 cpu:               1.0 elap:               0.0
 (Enter /home/falbo/g16/l401.exe)
 ExpMin= 4.38D-02 ExpMax= 3.05D+03 ExpMxC= 4.57D+02 IAcc=3 IRadAn=         5 AccDes= 0.00D+00
 Harris functional with IExCor= 1009 and IRadAn=       5 diagonalized for initial guess.
 HarFok:  IExCor= 1009 AccDes= 0.00D+00 IRadAn=         5 IDoV= 1 UseB2=F ITyADJ=14
 ICtDFT=  3500011 ScaDFX=  1.000000  1.000000  1.000000  1.000000
 FoFCou: FMM=F IPFlag=           0 FMFlag=      100000 FMFlg1=           0
         NFxFlg=           0 DoJE=T BraDBF=F KetDBF=T FulRan=T
         wScrn=  0.000000 ICntrl=       500 IOpCl=  0 I1Cent=   200000004 NGrid=           0
         NMat0=    1 NMatS0=      1 NMatT0=    0 NMatD0=    1 NMtDS0=    0 NMtDT0=    0
 Petite list used in FoFCou.
 Harris En= -158.380049810686    
 JPrj=0 DoOrth=F DoCkMO=F.
 Leave Link  401 at Wed Aug 12 19:11:03 2026, MaxMem= 12884901888 cpu:              10.4 elap:               0.2
 (Enter /home/falbo/g16/l502.exe)
 Integral symmetry usage will be decided dynamically.
 Closed shell SCF:
 Using DIIS extrapolation, IDIIS=  1040.
 NGot= 12884901888 LenX= 12884877536 LenY= 12884867879
 Requested convergence on RMS density matrix=1.00D-08 within 128 cycles.
 Requested convergence on MAX density matrix=1.00D-06.
 Requested convergence on             energy=1.00D-06.
 No special actions if energy rises.
 Fock matrices will be formed incrementally for  20 cycles.

 Cycle   1  Pass 1  IDiag  1:
 FoFJK:  IHMeth= 1 ICntrl=       0 DoSepK=F KAlg= 0 I1Cent=           0 FoldK=F
 IRaf= 990000000 NMat=       1 IRICut=       1 DoRegI=T DoRafI=F ISym2E= 0 IDoP0=0 IntGTp=1.
 FoFCou: FMM=F IPFlag=           0 FMFlag=      100000 FMFlg1=           0
         NFxFlg=           0 DoJE=F BraDBF=F KetDBF=F FulRan=T
         wScrn=  0.000000 ICntrl=         0 IOpCl=  0 I1Cent=           0 NGrid=           0
         NMat0=    1 NMatS0=      1 NMatT0=    0 NMatD0=    1 NMtDS0=    0 NMtDT0=    0
 Symmetry not used in FoFCou.
 E= -158.217597380589    
 DIIS: error= 4.17D-02 at cycle   1 NSaved=   1.
 NSaved= 1 IEnMin= 1 EnMin= -158.217597380589     IErMin= 1 ErrMin= 4.17D-02
 ErrMax= 4.17D-02  0.00D+00 EMaxC= 1.00D-01 BMatC= 1.84D-01 BMatP= 1.84D-01
 IDIUse=3 WtCom= 5.83D-01 WtEn= 4.17D-01
 Coeff-Com:  0.100D+01
 Coeff-En:   0.100D+01
 Coeff:      0.100D+01
 Gap=     0.383 Goal=   None    Shift=    0.000
 GapD=    0.383 DampG=1.000 DampE=0.500 DampFc=0.5000 IDamp=-1.
 Damping current iteration by 5.00D-01
 RMSDP=8.53D-03 MaxDP=1.16D-01              OVMax= 1.49D-01

 Cycle   2  Pass 1  IDiag  1:
 RMSU=  4.08D-03    CP:  9.58D-01
 E= -158.321600616864     Delta-E=       -0.104003236275 Rises=F Damp=T
 DIIS: error= 1.14D-02 at cycle   2 NSaved=   2.
 NSaved= 2 IEnMin= 2 EnMin= -158.321600616864     IErMin= 2 ErrMin= 1.14D-02
 ErrMax= 1.14D-02  0.00D+00 EMaxC= 1.00D-01 BMatC= 7.51D-03 BMatP= 1.84D-01
 IDIUse=3 WtCom= 8.86D-01 WtEn= 1.14D-01
 Coeff-Com: -0.763D-01 0.108D+01
 Coeff-En:   0.000D+00 0.100D+01
 Coeff:     -0.676D-01 0.107D+01
 Gap=     0.443 Goal=   None    Shift=    0.000
 RMSDP=1.96D-03 MaxDP=2.07D-02 DE=-1.04D-01 OVMax= 7.20D-02

 Cycle   3  Pass 1  IDiag  1:
 RMSU=  1.94D-03    CP:  9.48D-01  1.02D+00
 E= -158.417085348184     Delta-E=       -0.095484731320 Rises=F Damp=F
 DIIS: error= 1.92D-03 at cycle   3 NSaved=   3.
 NSaved= 3 IEnMin= 3 EnMin= -158.417085348184     IErMin= 3 ErrMin= 1.92D-03
 ErrMax= 1.92D-03  0.00D+00 EMaxC= 1.00D-01 BMatC= 3.42D-04 BMatP= 7.51D-03
 IDIUse=3 WtCom= 9.81D-01 WtEn= 1.92D-02
 Coeff-Com: -0.133D-01 0.113D+00 0.900D+00
 Coeff-En:   0.000D+00 0.000D+00 0.100D+01
 Coeff:     -0.131D-01 0.111D+00 0.902D+00
 Gap=     0.435 Goal=   None    Shift=    0.000
 RMSDP=4.52D-04 MaxDP=6.62D-03 DE=-9.55D-02 OVMax= 5.25D-03

 Cycle   4  Pass 1  IDiag  1:
 RMSU=  4.19D-04    CP:  9.48D-01  1.04D+00  9.20D-01
 E= -158.417341112308     Delta-E=       -0.000255764124 Rises=F Damp=F
 DIIS: error= 8.87D-04 at cycle   4 NSaved=   4.
 NSaved= 4 IEnMin= 4 EnMin= -158.417341112308     IErMin= 4 ErrMin= 8.87D-04
 ErrMax= 8.87D-04  0.00D+00 EMaxC= 1.00D-01 BMatC= 5.68D-05 BMatP= 3.42D-04
 IDIUse=3 WtCom= 9.91D-01 WtEn= 8.87D-03
 Coeff-Com:  0.125D-02-0.306D-02 0.263D+00 0.739D+00
 Coeff-En:   0.000D+00 0.000D+00 0.000D+00 0.100D+01
 Coeff:      0.124D-02-0.303D-02 0.261D+00 0.741D+00
 Gap=     0.437 Goal=   None    Shift=    0.000
 RMSDP=1.33D-04 MaxDP=1.36D-03 DE=-2.56D-04 OVMax= 1.93D-03

 Cycle   5  Pass 1  IDiag  1:
 RMSU=  9.15D-05    CP:  9.48D-01  1.03D+00  9.61D-01  9.23D-01
 E= -158.417391991323     Delta-E=       -0.000050879015 Rises=F Damp=F
 DIIS: error= 1.98D-04 at cycle   5 NSaved=   5.
 NSaved= 5 IEnMin= 5 EnMin= -158.417391991323     IErMin= 5 ErrMin= 1.98D-04
 ErrMax= 1.98D-04  0.00D+00 EMaxC= 1.00D-01 BMatC= 5.26D-06 BMatP= 5.68D-05
 IDIUse=3 WtCom= 9.98D-01 WtEn= 1.98D-03
 Coeff-Com:  0.159D-02-0.712D-02 0.498D-01 0.281D+00 0.674D+00
 Coeff-En:   0.000D+00 0.000D+00 0.000D+00 0.000D+00 0.100D+01
 Coeff:      0.159D-02-0.710D-02 0.497D-01 0.281D+00 0.675D+00
 Gap=     0.436 Goal=   None    Shift=    0.000
 RMSDP=2.63D-05 MaxDP=3.39D-04 DE=-5.09D-05 OVMax= 4.95D-04

 Cycle   6  Pass 1  IDiag  1:
 RMSU=  2.32D-05    CP:  9.48D-01  1.03D+00  9.64D-01  9.43D-01  9.60D-01
 E= -158.417396998181     Delta-E=       -0.000005006858 Rises=F Damp=F
 DIIS: error= 2.75D-05 at cycle   6 NSaved=   6.
 NSaved= 6 IEnMin= 6 EnMin= -158.417396998181     IErMin= 6 ErrMin= 2.75D-05
 ErrMax= 2.75D-05  0.00D+00 EMaxC= 1.00D-01 BMatC= 9.14D-08 BMatP= 5.26D-06
 IDIUse=1 WtCom= 1.00D+00 WtEn= 0.00D+00
 Coeff-Com:  0.224D-03-0.785D-03-0.116D-01-0.961D-02 0.915D-01 0.930D+00
 Coeff:      0.224D-03-0.785D-03-0.116D-01-0.961D-02 0.915D-01 0.930D+00
 Gap=     0.436 Goal=   None    Shift=    0.000
 RMSDP=1.20D-05 MaxDP=1.63D-04 DE=-5.01D-06 OVMax= 1.03D-04

 Cycle   7  Pass 1  IDiag  1:
 RMSU=  6.48D-06    CP:  9.49D-01  1.02D+00  9.65D-01  9.60D-01  1.03D+00
                    CP:  1.02D+00
 E= -158.417397116652     Delta-E=       -0.000000118471 Rises=F Damp=F
 DIIS: error= 4.11D-06 at cycle   7 NSaved=   7.
 NSaved= 7 IEnMin= 7 EnMin= -158.417397116652     IErMin= 7 ErrMin= 4.11D-06
 ErrMax= 4.11D-06  0.00D+00 EMaxC= 1.00D-01 BMatC= 2.15D-09 BMatP= 9.14D-08
 IDIUse=1 WtCom= 1.00D+00 WtEn= 0.00D+00
 Coeff-Com: -0.284D-04 0.135D-03-0.373D-02-0.116D-01-0.110D-01 0.136D+00
 Coeff-Com:  0.890D+00
 Coeff:     -0.284D-04 0.135D-03-0.373D-02-0.116D-01-0.110D-01 0.136D+00
 Coeff:      0.890D+00
 Gap=     0.436 Goal=   None    Shift=    0.000
 RMSDP=1.71D-06 MaxDP=2.36D-05 DE=-1.18D-07 OVMax= 1.69D-05

 Cycle   8  Pass 1  IDiag  1:
 RMSU=  7.75D-07    CP:  9.49D-01  1.02D+00  9.65D-01  9.60D-01  1.04D+00
                    CP:  1.06D+00  1.04D+00
 E= -158.417397119863     Delta-E=       -0.000000003212 Rises=F Damp=F
 DIIS: error= 4.45D-07 at cycle   8 NSaved=   8.
 NSaved= 8 IEnMin= 8 EnMin= -158.417397119863     IErMin= 8 ErrMin= 4.45D-07
 ErrMax= 4.45D-07  0.00D+00 EMaxC= 1.00D-01 BMatC= 2.19D-11 BMatP= 2.15D-09
 IDIUse=1 WtCom= 1.00D+00 WtEn= 0.00D+00
 Coeff-Com: -0.784D-05 0.231D-04 0.216D-03 0.185D-03-0.171D-02-0.201D-01
 Coeff-Com: -0.235D-02 0.102D+01
 Coeff:     -0.784D-05 0.231D-04 0.216D-03 0.185D-03-0.171D-02-0.201D-01
 Coeff:     -0.235D-02 0.102D+01
 Gap=     0.436 Goal=   None    Shift=    0.000
 RMSDP=3.37D-07 MaxDP=4.23D-06 DE=-3.21D-09 OVMax= 3.19D-06

 Cycle   9  Pass 1  IDiag  1:
 RMSU=  7.34D-08    CP:  9.49D-01  1.02D+00  9.65D-01  9.60D-01  1.05D+00
                    CP:  1.06D+00  1.08D+00  1.14D+00
 E= -158.417397119916     Delta-E=       -0.000000000052 Rises=F Damp=F
 DIIS: error= 5.44D-08 at cycle   9 NSaved=   9.
 NSaved= 9 IEnMin= 9 EnMin= -158.417397119916     IErMin= 9 ErrMin= 5.44D-08
 ErrMax= 5.44D-08  0.00D+00 EMaxC= 1.00D-01 BMatC= 4.40D-13 BMatP= 2.19D-11
 IDIUse=1 WtCom= 1.00D+00 WtEn= 0.00D+00
 Coeff-Com:  0.679D-06-0.151D-05 0.539D-04 0.145D-03 0.118D-03-0.258D-02
 Coeff-Com: -0.132D-01 0.339D-01 0.982D+00
 Coeff:      0.679D-06-0.151D-05 0.539D-04 0.145D-03 0.118D-03-0.258D-02
 Coeff:     -0.132D-01 0.339D-01 0.982D+00
 Gap=     0.436 Goal=   None    Shift=    0.000
 RMSDP=3.76D-08 MaxDP=4.07D-07 DE=-5.24D-11 OVMax= 4.42D-07

 Cycle  10  Pass 1  IDiag  1:
 RMSU=  9.60D-09    CP:  9.49D-01  1.02D+00  9.65D-01  9.60D-01  1.05D+00
                    CP:  1.06D+00  1.09D+00  1.17D+00  1.11D+00
 E= -158.417397119919     Delta-E=       -0.000000000003 Rises=F Damp=F
 DIIS: error= 9.15D-09 at cycle  10 NSaved=  10.
 NSaved=10 IEnMin=10 EnMin= -158.417397119919     IErMin=10 ErrMin= 9.15D-09
 ErrMax= 9.15D-09  0.00D+00 EMaxC= 1.00D-01 BMatC= 1.38D-14 BMatP= 4.40D-13
 IDIUse=1 WtCom= 1.00D+00 WtEn= 0.00D+00
 Coeff-Com:  0.343D-06-0.727D-06-0.787D-05-0.153D-04 0.407D-04 0.580D-03
 Coeff-Com:  0.371D-03-0.261D-01-0.158D-01 0.104D+01
 Coeff:      0.343D-06-0.727D-06-0.787D-05-0.153D-04 0.407D-04 0.580D-03
 Coeff:      0.371D-03-0.261D-01-0.158D-01 0.104D+01
 Gap=     0.436 Goal=   None    Shift=    0.000
 RMSDP=5.94D-09 MaxDP=7.27D-08 DE=-2.90D-12 OVMax= 8.76D-08

 SCF Done:  E(RM052X) =  -158.417397120     A.U. after   10 cycles
            NFock= 10  Conv=0.59D-08     -V/T= 2.0095
 KE= 1.569251572540D+02 PE=-6.314334175391D+02 EE= 1.830133151242D+02
 Leave Link  502 at Wed Aug 12 19:11:06 2026, MaxMem= 12884901888 cpu:             117.4 elap:               2.5
 (Enter /home/falbo/g16/l801.exe)
 DoSCS=F DFT=T ScalE2(SS,OS)=  1.000000  1.000000
 Range of M.O.s used for correlation:     1    96
 NBasis=    96 NAE=    17 NBE=    17 NFC=     0 NFV=     0
 NROrb=     96 NOA=    17 NOB=    17 NVA=    79 NVB=    79

 **** Warning!!: The largest alpha MO coefficient is  0.23317669D+02

 Leave Link  801 at Wed Aug 12 19:11:06 2026, MaxMem= 12884901888 cpu:               0.8 elap:               0.0
 (Enter /home/falbo/g16/l1101.exe)
 Using compressed storage, NAtomX=    14.
 Will process     15 centers per pass.
 Leave Link 1101 at Wed Aug 12 19:11:06 2026, MaxMem= 12884901888 cpu:               5.8 elap:               0.1
 (Enter /home/falbo/g16/l1102.exe)
 Symmetrizing basis deriv contribution to polar:
 IMax=3 JMax=2 DiffMx= 0.00D+00
 Leave Link 1102 at Wed Aug 12 19:11:06 2026, MaxMem= 12884901888 cpu:               0.9 elap:               0.0
 (Enter /home/falbo/g16/l1110.exe)
 Forming Gx(P) for the SCF density, NAtomX=    14.
 Integral derivatives from FoFJK, PRISM(SPDF).
 Do as many integral derivatives as possible in FoFJK.
 G2DrvN: MDV=   12884900632.
 G2DrvN: will do    15 centers at a time, making    1 passes.
 Calling FoFCou, ICntrl=  3107 FMM=F I1Cent=   0 AccDes= 0.00D+00.
 FoFJK:  IHMeth= 1 ICntrl=    3107 DoSepK=F KAlg= 0 I1Cent=           0 FoldK=F
 IRaf=         0 NMat=       1 IRICut=       1 DoRegI=T DoRafI=F ISym2E= 0 IDoP0=0 IntGTp=1.
 FoFCou: FMM=F IPFlag=           0 FMFlag=      100000 FMFlg1=           0
         NFxFlg=           0 DoJE=F BraDBF=F KetDBF=F FulRan=T
         wScrn=  0.000000 ICntrl=      3107 IOpCl=  0 I1Cent=           0 NGrid=           0
         NMat0=    1 NMatS0=      1 NMatT0=    0 NMatD0=    1 NMtDS0=    0 NMtDT0=    0
 Symmetry not used in FoFCou.
 End of G2Drv F.D. properties file   721 does not exist.
 End of G2Drv F.D. properties file   722 does not exist.
 End of G2Drv F.D. properties file   788 does not exist.
 Leave Link 1110 at Wed Aug 12 19:11:11 2026, MaxMem= 12884901888 cpu:             212.4 elap:               4.5
 (Enter /home/falbo/g16/l1002.exe)
 Minotr:  Closed shell wavefunction.
          IDoAtm=11111111111111
          Direct CPHF calculation.
          Differentiating once with respect to electric field.
                with respect to dipole field.
          Differentiating once with respect to nuclear coordinates.
          Requested convergence is 1.0D-08 RMS, and 1.0D-07 maximum.
          Secondary convergence is 1.0D-12 RMS, and 1.0D-12 maximum.
          NewPWx=T KeepS1=F KeepF1=F KeepIn=T MapXYZ=F SortEE=F KeepMc=T.
         4271 words used for storage of precomputed grid.
 Keep R1 ints in memory in canonical form, NReq=55003831.
 FoFCou: FMM=F IPFlag=           0 FMFlag=           0 FMFlg1=           0
         NFxFlg=           0 DoJE=F BraDBF=F KetDBF=F FulRan=T
         wScrn=  0.000000 ICntrl=       600 IOpCl=  0 I1Cent=           0 NGrid=           0
         NMat0=    1 NMatS0=   4656 NMatT0=    0 NMatD0=    1 NMtDS0=    0 NMtDT0=    0
 Symmetry not used in FoFCou.
 Two-electron integral symmetry not used.
          MDV=   12884901888 using IRadAn=       1.
          Solving linear equations simultaneously, MaxMat=       0.
          There are    45 degrees of freedom in the 1st order CPHF.  IDoFFX=6 NUNeed=     3.
     42 vectors produced by pass  0 Test12= 2.98D-15 2.22D-09 XBig12= 1.81D+01 1.53D+00.
 AX will form    42 AO Fock derivatives at one time.
     42 vectors produced by pass  1 Test12= 2.98D-15 2.22D-09 XBig12= 5.41D-01 2.24D-01.
     42 vectors produced by pass  2 Test12= 2.98D-15 2.22D-09 XBig12= 2.31D-03 1.25D-02.
     42 vectors produced by pass  3 Test12= 2.98D-15 2.22D-09 XBig12= 9.30D-06 5.77D-04.
     42 vectors produced by pass  4 Test12= 2.98D-15 2.22D-09 XBig12= 2.96D-08 2.66D-05.
     41 vectors produced by pass  5 Test12= 2.98D-15 2.22D-09 XBig12= 7.80D-11 1.48D-06.
      6 vectors produced by pass  6 Test12= 2.98D-15 2.22D-09 XBig12= 1.56D-13 5.99D-08.
      2 vectors produced by pass  7 Test12= 2.98D-15 2.22D-09 XBig12= 3.31D-16 2.98D-09.
 InvSVY:  IOpt=1 It=  1 EMax= 6.22D-15
 Solved reduced A of dimension   259 with    45 vectors.
 FullF1:  Do perturbations      1 to       3.
 Isotropic polarizability for W=    0.000000       46.70 Bohr**3.
 End of Minotr F.D. properties file   721 does not exist.
 End of Minotr F.D. properties file   722 does not exist.
 End of Minotr F.D. properties file   788 does not exist.
 Leave Link 1002 at Wed Aug 12 19:11:17 2026, MaxMem= 12884901888 cpu:             304.3 elap:               6.4
 (Enter /home/falbo/g16/l601.exe)
 Copying SCF densities to generalized density rwf, IOpCl= 0 IROHF=0.

 **********************************************************************

            Population analysis using the SCF Density.

 **********************************************************************

 Orbital symmetries:
       Occupied  (A) (A) (A) (A) (A) (A) (A) (A) (A) (A) (A) (A)
                 (A) (A) (A) (A) (A)
       Virtual   (A) (A) (A) (A) (A) (A) (A) (A) (A) (A) (A) (A)
                 (A) (A) (A) (A) (A) (A) (A) (A) (A) (A) (A) (A)
                 (A) (A) (A) (A) (A) (A) (A) (A) (A) (A) (A) (A)
                 (A) (A) (A) (A) (A) (A) (A) (A) (A) (A) (A) (A)
                 (A) (A) (A) (A) (A) (A) (A) (A) (A) (A) (A) (A)
                 (A) (A) (A) (A) (A) (A) (A) (A) (A) (A) (A) (A)
                 (A) (A) (A) (A) (A) (A) (A)
 The electronic state is 1-A.
 Alpha  occ. eigenvalues --  -10.56307 -10.56269 -10.55465 -10.55463  -0.90576
 Alpha  occ. eigenvalues --   -0.82380  -0.73568  -0.65525  -0.53617  -0.53386
 Alpha  occ. eigenvalues --   -0.49179  -0.45304  -0.45074  -0.42678  -0.39048
 Alpha  occ. eigenvalues --   -0.38339  -0.38228
 Alpha virt. eigenvalues --    0.05412   0.06961   0.07290   0.07764   0.10458
 Alpha virt. eigenvalues --    0.11177   0.11345   0.11840   0.12138   0.14574
 Alpha virt. eigenvalues --    0.14999   0.15860   0.16151   0.16666   0.20309
 Alpha virt. eigenvalues --    0.21961   0.24477   0.26923   0.27548   0.29007
 Alpha virt. eigenvalues --    0.30776   0.31210   0.32828   0.34909   0.35869
 Alpha virt. eigenvalues --    0.37212   0.39936   0.40966   0.46707   0.65339
 Alpha virt. eigenvalues --    0.67879   0.68722   0.70541   0.71789   0.75509
 Alpha virt. eigenvalues --    0.77812   0.79293   0.80064   0.83283   0.94228
 Alpha virt. eigenvalues --    0.97904   1.01548   1.04643   1.07019   1.08161
 Alpha virt. eigenvalues --    1.10655   1.12151   1.14786   1.20394   1.21931
 Alpha virt. eigenvalues --    1.24350   1.25089   1.35407   1.52865   1.53603
 Alpha virt. eigenvalues --    1.66255   1.66493   1.77564   1.82087   1.96250
 Alpha virt. eigenvalues --    2.04216   2.06681   2.08281   2.12842   2.22639
 Alpha virt. eigenvalues --    2.24194   2.38053   2.42607   2.42872   2.45954
 Alpha virt. eigenvalues --    2.52076   2.54037   2.69790   2.72900   2.79550
 Alpha virt. eigenvalues --    4.23179   4.33308   4.48684   4.57983
          Condensed to atoms (all electrons):
               1          2          3          4          5          6
     1  C    5.529389   0.399511   0.414659   0.411458   0.114556  -0.059833
     2  H    0.399511   0.493332  -0.025910  -0.025850  -0.064211  -0.002516
     3  H    0.414659  -0.025910   0.499842  -0.030749  -0.054239  -0.004820
     4  H    0.411458  -0.025850  -0.030749   0.495389  -0.056513   0.004347
     5  C    0.114556  -0.064211  -0.054239  -0.056513   5.652811   0.421852
     6  H   -0.059833  -0.002516  -0.004820   0.004347   0.421852   0.513223
     7  H   -0.043959  -0.003722   0.004388  -0.004041   0.414129  -0.030203
     8  C   -0.098981   0.019635  -0.020621  -0.005548   0.200248  -0.048035
     9  H   -0.009984  -0.000007  -0.000179   0.003500  -0.048045   0.004544
    10  H    0.014386  -0.000117  -0.000048   0.000025  -0.068271  -0.002966
    11  C   -0.027128  -0.000824   0.008251  -0.004894  -0.098988  -0.009967
    12  H   -0.000827   0.000001  -0.000002  -0.000017   0.019648  -0.000007
    13  H   -0.004890  -0.000017   0.000066   0.000065  -0.005572   0.003498
    14  H    0.008266  -0.000002  -0.000676   0.000066  -0.020619  -0.000180
               7          8          9         10         11         12
     1  C   -0.043959  -0.098981  -0.009984   0.014386  -0.027128  -0.000827
     2  H   -0.003722   0.019635  -0.000007  -0.000117  -0.000824   0.000001
     3  H    0.004388  -0.020621  -0.000179  -0.000048   0.008251  -0.000002
     4  H   -0.004041  -0.005548   0.003500   0.000025  -0.004894  -0.000017
     5  C    0.414129   0.200248  -0.048045  -0.068271  -0.098988   0.019648
     6  H   -0.030203  -0.048035   0.004544  -0.002966  -0.009967  -0.000007
     7  H    0.515587  -0.068275  -0.002967  -0.004050   0.014387  -0.000117
     8  C   -0.068275   5.652880   0.421863   0.414129   0.114519  -0.064246
     9  H   -0.002967   0.421863   0.513233  -0.030205  -0.059828  -0.002524
    10  H   -0.004050   0.414129  -0.030205   0.515585  -0.043961  -0.003716
    11  C    0.014387   0.114519  -0.059828  -0.043961   5.529387   0.399522
    12  H   -0.000117  -0.064246  -0.002524  -0.003716   0.399522   0.493347
    13  H    0.000025  -0.056512   0.004348  -0.004049   0.411476  -0.025851
    14  H   -0.000048  -0.054236  -0.004813   0.004388   0.414632  -0.025903
              13         14
     1  C   -0.004890   0.008266
     2  H   -0.000017  -0.000002
     3  H    0.000066  -0.000676
     4  H    0.000065   0.000066
     5  C   -0.005572  -0.020619
     6  H    0.003498  -0.000180
     7  H    0.000025  -0.000048
     8  C   -0.056512  -0.054236
     9  H    0.004348  -0.004813
    10  H   -0.004049   0.004388
    11  C    0.411476   0.414632
    12  H   -0.025851  -0.025903
    13  H    0.495405  -0.030741
    14  H   -0.030741   0.499844
 Mulliken charges:
               1
     1  C   -0.646624
     2  H    0.210695
     3  H    0.210038
     4  H    0.212760
     5  C   -0.406786
     6  H    0.211064
     7  H    0.208865
     8  C   -0.406821
     9  H    0.211063
    10  H    0.208870
    11  C   -0.646584
    12  H    0.210691
    13  H    0.212749
    14  H    0.210021
 Sum of Mulliken charges =  -0.00000
 Mulliken charges with hydrogens summed into heavy atoms:
               1
     1  C   -0.013132
     5  C    0.013143
     8  C    0.013112
    11  C   -0.013123
 APT charges:
               1
     1  C    0.043111
     2  H   -0.022349
     3  H   -0.012486
     4  H   -0.019236
     5  C    0.114192
     6  H   -0.048311
     7  H   -0.054927
     8  C    0.114189
     9  H   -0.048320
    10  H   -0.054920
    11  C    0.043172
    12  H   -0.022366
    13  H   -0.019268
    14  H   -0.012482
 Sum of APT charges =  -0.00000
 APT charges with hydrogens summed into heavy atoms:
               1
     1  C   -0.010960
     5  C    0.010954
     8  C    0.010949
    11  C   -0.010943
 Electronic spatial extent (au):  <R**2>=            377.4904
 Charge=             -0.0000 electrons
 Dipole moment (field-independent basis, Debye):
    X=             -0.0000    Y=              0.0986    Z=             -0.0001  Tot=              0.0986
 Quadrupole moment (field-independent basis, Debye-Ang):
   XX=            -28.8401   YY=            -28.8537   ZZ=            -28.3485
   XY=              0.0004   XZ=             -0.0397   YZ=              0.0001
 Traceless Quadrupole moment (field-independent basis, Debye-Ang):
   XX=             -0.1594   YY=             -0.1730   ZZ=              0.3323
   XY=              0.0004   XZ=             -0.0397   YZ=              0.0001
 Octapole moment (field-independent basis, Debye-Ang**2):
  XXX=             -0.0020  YYY=              0.5366  ZZZ=             -0.0004  XYY=             -0.0007
  XXY=              1.6043  XXZ=             -0.0007  XZZ=              0.0007  YZZ=              0.0037
  YYZ=              0.0001  XYZ=              0.5407
 Hexadecapole moment (field-independent basis, Debye-Ang**3):
 XXXX=           -330.2551 YYYY=           -125.7746 ZZZZ=            -69.8594 XXXY=              0.0010
 XXXZ=             -4.5826 YYYX=              0.0018 YYYZ=             -0.0014 ZZZX=              1.7372
 ZZZY=              0.0015 XXYY=            -79.8042 XXZZ=            -68.0672 YYZZ=            -35.0964
 XXYZ=              0.0012 YYXZ=              0.1791 ZZXY=              0.0012
 N-N= 1.330775480411D+02 E-N=-6.314334182909D+02  KE= 1.569251572540D+02
  Exact polarizability:  50.506   0.000  45.446  -0.164   0.000  44.143
 Approx polarizability:  49.287   0.001  48.857  -0.073   0.000  49.742
 No NMR shielding tensors so no spin-rotation constants.
 Leave Link  601 at Wed Aug 12 19:11:17 2026, MaxMem= 12884901888 cpu:               5.0 elap:               0.1
 (Enter /home/falbo/g16/l701.exe)
 ... and contract with generalized density number  0.
 Compute integral second derivatives.
 Leave Link  701 at Wed Aug 12 19:11:18 2026, MaxMem= 12884901888 cpu:               9.3 elap:               0.2
 (Enter /home/falbo/g16/l702.exe)
 L702 exits ... SP integral derivatives will be done elsewhere.
 Leave Link  702 at Wed Aug 12 19:11:18 2026, MaxMem= 12884901888 cpu:               0.8 elap:               0.0
 (Enter /home/falbo/g16/l703.exe)
 Integral derivatives from FoFJK, PRISM(SPDF).
 Compute integral second derivatives, UseDBF=F ICtDFT=           0.
 Calling FoFJK, ICntrl=    100127 FMM=F ISym2X=0 I1Cent= 0 IOpClX= 0 NMat=1 NMatS=1 NMatT=0.
 FoFJK:  IHMeth= 1 ICntrl=  100127 DoSepK=F KAlg= 0 I1Cent=           0 FoldK=F
 IRaf=         0 NMat=       1 IRICut=       1 DoRegI=T DoRafI=F ISym2E= 0 IDoP0=0 IntGTp=1.
 FoFCou: FMM=F IPFlag=           0 FMFlag=      100000 FMFlg1=         800
         NFxFlg=           0 DoJE=F BraDBF=F KetDBF=F FulRan=T
         wScrn=  0.000000 ICntrl=    100127 IOpCl=  0 I1Cent=           0 NGrid=           0
         NMat0=    1 NMatS0=      1 NMatT0=    0 NMatD0=    1 NMtDS0=    0 NMtDT0=    0
 Symmetry not used in FoFCou.
 Leave Link  703 at Wed Aug 12 19:11:22 2026, MaxMem= 12884901888 cpu:             206.2 elap:               4.3
 (Enter /home/falbo/g16/l716.exe)
 Dipole        =-9.96767661D-06 3.87747468D-02-2.16525067D-05
 Polarizability= 5.05060883D+01 2.69161156D-04 4.54462095D+01
                -1.63618392D-01 1.84012048D-04 4.41431649D+01
 ***** Axes restored to original set *****
 -------------------------------------------------------------------
 Center     Atomic                   Forces (Hartrees/Bohr)
 Number     Number              X              Y              Z
 -------------------------------------------------------------------
      1        6          -0.003208273   -0.000931263    0.000495475
      2        1           0.002025871   -0.002636649    0.000217565
      3        1           0.002339682    0.000569754    0.002775030
      4        1           0.002796993    0.001390517   -0.001960835
      5        6           0.000625030    0.001908391   -0.002790293
      6        1          -0.001984176   -0.001143625    0.000112259
      7        1          -0.001155276   -0.001371105    0.000100875
      8        6          -0.002352113   -0.002249375    0.001091711
      9        1          -0.000116587    0.000744692   -0.002174549
     10        1          -0.000177871    0.001119392   -0.001392404
     11        6           0.000262182    0.000361187   -0.003297373
     12        1          -0.000263388    0.002956876    0.001497064
     13        1          -0.001595905   -0.001141511    0.003062373
     14        1           0.002803832    0.000422719    0.002263102
 -------------------------------------------------------------------
 Cartesian Forces:  Max     0.003297373 RMS     0.001817445
 FormGI is forming the generalized inverse of G from B-inverse, IUseBI=4.
 Leave Link  716 at Wed Aug 12 19:11:22 2026, MaxMem= 12884901888 cpu:               1.2 elap:               0.0
 (Enter /home/falbo/g16/l103.exe)

 GradGradGradGradGradGradGradGradGradGradGradGradGradGradGradGradGradGrad
 Berny optimization.
 Red2BG is reusing G-inverse.
 Internal  Forces:  Max     0.004416384 RMS     0.001518708
 Search for a local minimum.
 Step number   1 out of a maximum of   74
 All quantities printed in internal units (Hartrees-Bohrs-Radians)
 RMS Force = .15187D-02 SwitMx=.10000D-02 MixMth= 1
 Mixed Optimization -- RFO/linear search
 Second derivative matrix not updated -- analytic derivatives used.
 ITU=  0
     Eigenvalues ---    0.00126   0.00214   0.00370   0.03525   0.04030
     Eigenvalues ---    0.04066   0.04233   0.04746   0.04823   0.04853
     Eigenvalues ---    0.04980   0.07219   0.07396   0.10308   0.11388
     Eigenvalues ---    0.12895   0.13015   0.13894   0.14923   0.16235
     Eigenvalues ---    0.16667   0.22535   0.22815   0.30400   0.31573
     Eigenvalues ---    0.33128   0.34355   0.34396   0.35199   0.35718
     Eigenvalues ---    0.35809   0.35868   0.35907   0.36386   0.36936
     Eigenvalues ---    0.37101
 RFO step:  Lambda=-7.07863230D-04 EMin= 1.25735903D-03
 Linear search not attempted -- first point.
 Iteration  1 RMS(Cart)=  0.04258283 RMS(Int)=  0.00080558
 Iteration  2 RMS(Cart)=  0.00096384 RMS(Int)=  0.00002611
 Iteration  3 RMS(Cart)=  0.00000049 RMS(Int)=  0.00002611
 ITry= 1 IFail=0 DXMaxC= 1.29D-01 DCOld= 1.00D+10 DXMaxT= 7.00D-02 DXLimC= 3.00D+00 Rises=F
 Variable       Old X    -DE/DX   Delta X   Delta X   Delta X     New X
                                 (Linear)    (Quad)   (Total)
    R1        2.05554   0.00288   0.00000   0.00784   0.00784   2.06339
    R2        2.05362   0.00337   0.00000   0.00915   0.00915   2.06276
    R3        2.05610   0.00358   0.00000   0.01069   0.01069   2.06679
    R4        2.88053   0.00440   0.00000   0.00924   0.00924   2.88977
    R5        2.06469   0.00169   0.00000   0.00544   0.00544   2.07013
    R6        2.06527   0.00075   0.00000   0.00207   0.00207   2.06734
    R7        2.88963   0.00244   0.00000   0.00423   0.00423   2.89385
    R8        2.06466   0.00171   0.00000   0.00547   0.00547   2.07013
    R9        2.06526   0.00075   0.00000   0.00208   0.00208   2.06734
   R10        2.88049   0.00442   0.00000   0.00927   0.00927   2.88976
   R11        2.05559   0.00287   0.00000   0.00780   0.00780   2.06339
   R12        2.05626   0.00352   0.00000   0.01054   0.01054   2.06680
   R13        2.05374   0.00332   0.00000   0.00902   0.00902   2.06277
    A1        1.88634  -0.00162   0.00000  -0.00865  -0.00873   1.87761
    A2        1.89097  -0.00122   0.00000  -0.00767  -0.00770   1.88328
    A3        1.92535   0.00195   0.00000   0.01291   0.01285   1.93821
    A4        1.89354  -0.00125   0.00000  -0.01055  -0.01056   1.88298
    A5        1.93869   0.00150   0.00000   0.00948   0.00944   1.94812
    A6        1.92763   0.00050   0.00000   0.00345   0.00344   1.93107
    A7        1.90911   0.00027   0.00000   0.00207   0.00208   1.91119
    A8        1.89882   0.00021   0.00000   0.00581   0.00576   1.90458
    A9        1.97509   0.00017   0.00000   0.00380   0.00377   1.97886
   A10        1.87740  -0.00080   0.00000  -0.01671  -0.01669   1.86071
   A11        1.90567  -0.00032   0.00000  -0.00179  -0.00179   1.90388
   A12        1.89523   0.00042   0.00000   0.00571   0.00566   1.90089
   A13        1.90563  -0.00032   0.00000  -0.00176  -0.00176   1.90387
   A14        1.89527   0.00042   0.00000   0.00568   0.00563   1.90090
   A15        1.97512   0.00017   0.00000   0.00378   0.00374   1.97887
   A16        1.87738  -0.00080   0.00000  -0.01669  -0.01667   1.86071
   A17        1.90909   0.00027   0.00000   0.00210   0.00210   1.91119
   A18        1.89884   0.00021   0.00000   0.00579   0.00574   1.90458
   A19        1.92524   0.00196   0.00000   0.01303   0.01297   1.93821
   A20        1.92753   0.00052   0.00000   0.00356   0.00354   1.93107
   A21        1.93877   0.00149   0.00000   0.00940   0.00935   1.94812
   A22        1.89095  -0.00123   0.00000  -0.00764  -0.00767   1.88328
   A23        1.88645  -0.00163   0.00000  -0.00876  -0.00884   1.87761
   A24        1.89360  -0.00126   0.00000  -0.01061  -0.01061   1.88298
    D1        1.08507  -0.00015   0.00000   0.01339   0.01340   1.09847
    D2       -0.96116   0.00054   0.00000   0.02896   0.02899  -0.93217
    D3       -3.06931  -0.00025   0.00000   0.01518   0.01519  -3.05413
    D4       -1.00626  -0.00037   0.00000   0.00960   0.00958  -0.99668
    D5       -3.05249   0.00033   0.00000   0.02518   0.02517  -3.02732
    D6        1.12254  -0.00047   0.00000   0.01140   0.01137   1.13391
    D7       -3.10812  -0.00011   0.00000   0.01433   0.01434  -3.09379
    D8        1.12883   0.00059   0.00000   0.02991   0.02993   1.15876
    D9       -0.97932  -0.00021   0.00000   0.01613   0.01613  -0.96319
   D10        0.95285   0.00073   0.00000   0.07688   0.07689   1.02974
   D11        2.99510  -0.00017   0.00000   0.05914   0.05914   3.05424
   D12       -1.17784   0.00050   0.00000   0.07290   0.07292  -1.10492
   D13        3.08358   0.00096   0.00000   0.08082   0.08082  -3.11879
   D14       -1.15736   0.00006   0.00000   0.06309   0.06308  -1.09428
   D15        0.95289   0.00073   0.00000   0.07684   0.07685   1.02974
   D16       -1.15734   0.00006   0.00000   0.06306   0.06305  -1.09428
   D17        0.88491  -0.00084   0.00000   0.04533   0.04531   0.93022
   D18        2.99516  -0.00017   0.00000   0.05908   0.05908   3.05425
   D19       -3.07011  -0.00025   0.00000   0.01572   0.01573  -3.05438
   D20       -0.98029  -0.00020   0.00000   0.01684   0.01684  -0.96345
   D21        1.12163  -0.00046   0.00000   0.01205   0.01203   1.13366
   D22        1.08432  -0.00016   0.00000   0.01389   0.01390   1.09822
   D23       -3.10904  -0.00010   0.00000   0.01500   0.01501  -3.09404
   D24       -1.00712  -0.00036   0.00000   0.01022   0.01019  -0.99693
   D25       -0.96188   0.00054   0.00000   0.02944   0.02946  -0.93242
   D26        1.12794   0.00059   0.00000   0.03055   0.03057   1.15851
   D27       -3.05332   0.00033   0.00000   0.02577   0.02576  -3.02757
         Item               Value     Threshold  Converged?
 Maximum Force            0.004416     0.000015     NO 
 RMS     Force            0.001519     0.000010     NO 
 Maximum Displacement     0.129453     0.000060     NO 
 RMS     Displacement     0.042762     0.000040     NO 
 Predicted change in Energy=-3.717465D-04
 Lowest energy point so far.  Saving SCF results.
 GradGradGradGradGradGradGradGradGradGradGradGradGradGradGradGradGradGrad

 Leave Link  103 at Wed Aug 12 19:11:22 2026, MaxMem= 12884901888 cpu:               1.9 elap:               0.1
 (Enter /home/falbo/g16/l202.exe)
                          Input orientation:                          
 ---------------------------------------------------------------------
 Center     Atomic      Atomic             Coordinates (Angstroms)
 Number     Number       Type             X           Y           Z
 ---------------------------------------------------------------------
      1          6           0       -0.540508    0.815236    1.488007
      2          1           0       -0.355246   -0.256060    1.386786
      3          1           0       -0.255514    1.104816    2.501141
      4          1           0        0.120293    1.338082    0.790758
      5          6           0       -2.004114    1.149466    1.197153
      6          1           0       -2.645646    0.655808    1.935245
      7          1           0       -2.278149    0.739498    0.220607
      8          6           0       -2.297274    2.652486    1.204493
      9          1           0       -1.672498    3.142949    0.450078
     10          1           0       -3.336391    2.812576    0.902138
     11          6           0       -2.064651    3.309497    2.565618
     12          1           0       -2.367756    4.358391    2.551762
     13          1           0       -2.643796    2.802391    3.342549
     14          1           0       -1.012663    3.274115    2.854743
 ---------------------------------------------------------------------
                    Distance matrix (angstroms):
                    1          2          3          4          5
     1  C    0.000000
     2  H    1.091898   0.000000
     3  H    1.091567   1.761737   0.000000
     4  H    1.093701   1.767109   1.766650   0.000000
     5  C    1.529199   2.174908   2.181737   2.171137   0.000000
     6  H    2.158019   2.525518   2.496913   3.070141   1.095463
     7  H    2.152077   2.459403   3.070072   2.536908   1.093988
     8  C    2.557752   3.502048   2.871474   2.782708   1.531361
     9  H    2.788717   3.763752   3.220044   2.566653   2.154545
    10  H    3.485624   4.305651   3.868469   3.759681   2.151263
    11  C    3.115381   4.126125   2.852675   3.436653   2.557753
    12  H    4.126059   5.167255   3.879417   4.291129   3.502057
    13  H    3.436849   4.291455   3.048544   4.036833   2.782818
    14  H    2.852540   3.879333   2.324686   3.048253   2.871361
                    6          7          8          9         10
     6  H    0.000000
     7  H    1.755574   0.000000
     8  C    2.154549   2.151260   0.000000
     9  H    3.055913   2.489185   1.095464   0.000000
    10  H    2.489194   2.425286   1.093989   1.755575   0.000000
    11  C    2.788726   3.485621   1.529196   2.158016   2.152073
    12  H    3.763833   4.305659   2.174905   2.525422   2.459483
    13  H    2.566773   3.759753   2.171136   3.070144   2.536808
    14  H    3.219882   3.868386   2.181736   2.496998   3.070081
                   11         12         13         14
    11  C    0.000000
    12  H    1.091899   0.000000
    13  H    1.093703   1.767111   0.000000
    14  H    1.091569   1.761740   1.766656   0.000000
 Stoichiometry    C4H10
 Framework group  C1[X(C4H10)]
 Deg. of freedom    36
 Full point group                 C1      NOp   1
 RotChk:  IX=2 Diff= 1.63D-02
 Largest Abelian subgroup         C1      NOp   1
 Largest concise Abelian subgroup C1      NOp   1
                         Standard orientation:                         
 ---------------------------------------------------------------------
 Center     Atomic      Atomic             Coordinates (Angstroms)
 Number     Number       Type             X           Y           Z
 ---------------------------------------------------------------------
      1          6           0       -1.552660   -0.563477   -0.125090
      2          1           0       -2.570365   -0.480299    0.261691
      3          1           0       -1.137670   -1.505273    0.238670
      4          1           0       -1.611124   -0.621141   -1.215704
      5          6           0       -0.701559    0.631349    0.306727
      6          1           0       -0.615043    0.643158    1.398705
      7          1           0       -1.212413    1.556335    0.023460
      8          6           0        0.701559    0.631346   -0.306728
      9          1           0        0.615037    0.643146   -1.398706
     10          1           0        1.212419    1.556332   -0.023470
     11          6           0        1.552659   -0.563476    0.125092
     12          1           0        2.570293   -0.480426   -0.261905
     13          1           0        1.611340   -0.620984    1.215705
     14          1           0        1.137527   -1.505297   -0.238450
 ---------------------------------------------------------------------
 Rotational constants (GHZ):          13.1232399           4.8424837           4.1002526
 Leave Link  202 at Wed Aug 12 19:11:22 2026, MaxMem= 12884901888 cpu:               0.2 elap:               0.0
 (Enter /home/falbo/g16/l301.exe)
 Standard basis: 6-31+G(d) (6D, 7F)
 Ernie: Thresh=  0.10000D-02 Tol=  0.10000D-05 Strict=F.
 There are    96 symmetry adapted cartesian basis functions of A   symmetry.
 There are    96 symmetry adapted basis functions of A   symmetry.
    96 basis functions,   168 primitive gaussians,    96 cartesian basis functions
    17 alpha electrons       17 beta electrons
       nuclear repulsion energy       132.7221136778 Hartrees.
 IExCor= 3428 DFT=T Ex+Corr=M052X ExCW=0 ScaHFX=  0.560000
 ScaDFX=  0.440000  0.440000  1.000000  1.000000 ScalE2=  1.000000  1.000000
 IRadAn=      5 IRanWt=     -1 IRanGd=            0 ICorTp=0 IEmpDi=  4
 NAtoms=   14 NActive=   14 NUniq=   14 SFac= 1.00D+00 NAtFMM=   60 NAOKFM=F Big=F
 Integral buffers will be    131072 words long.
 Raffenetti 2 integral format.
 Two-electron integral symmetry is turned on.
 Leave Link  301 at Wed Aug 12 19:11:22 2026, MaxMem= 12884901888 cpu:               2.2 elap:               0.1
 (Enter /home/falbo/g16/l302.exe)
 NPDir=0 NMtPBC=     1 NCelOv=     1 NCel=       1 NClECP=     1 NCelD=      1
         NCelK=      1 NCelE2=     1 NClLst=     1 CellRange=     0.0.
 One-electron integrals computed using PRISM.
 One-electron integral symmetry used in STVInt
 NBasis=    96 RedAO= T EigKep=  1.68D-04  NBF=    96
 NBsUse=    96 1.00D-06 EigRej= -1.00D+00 NBFU=    96
 Precomputing XC quadrature grid using
 IXCGrd= 4 IRadAn=           5 IRanWt=          -1 IRanGd=           0 AccXCQ= 0.00D+00.
 Generated NRdTot=       0 NPtTot=           0 NUsed=           0 NTot=          32
 NSgBfM=    96    96    96    96    96 MxSgAt=    14 MxSgA2=    14.
 Leave Link  302 at Wed Aug 12 19:11:22 2026, MaxMem= 12884901888 cpu:               6.1 elap:               0.1
 (Enter /home/falbo/g16/l303.exe)
 DipDrv:  MaxL=1.
 Leave Link  303 at Wed Aug 12 19:11:22 2026, MaxMem= 12884901888 cpu:               0.9 elap:               0.0
 (Enter /home/falbo/g16/l401.exe)
 Initial guess from the checkpoint file:  "02_conf_010.chk"
 B after Tr=     0.000000    0.000000   -0.000000
         Rot=    0.999993   -0.000033    0.003871   -0.000006 Ang=  -0.44 deg.
 Guess basis will be translated and rotated to current coordinates.
 JPrj=2 DoOrth=T DoCkMO=T.
 Generating alternative initial guess.
 ExpMin= 4.38D-02 ExpMax= 3.05D+03 ExpMxC= 4.57D+02 IAcc=3 IRadAn=         5 AccDes= 0.00D+00
 Harris functional with IExCor= 1009 and IRadAn=       5 diagonalized for initial guess.
 HarFok:  IExCor= 1009 AccDes= 0.00D+00 IRadAn=         5 IDoV= 1 UseB2=F ITyADJ=14
 ICtDFT=  3500011 ScaDFX=  1.000000  1.000000  1.000000  1.000000
 FoFCou: FMM=F IPFlag=           0 FMFlag=      100000 FMFlg1=           0
         NFxFlg=           0 DoJE=T BraDBF=F KetDBF=T FulRan=T
         wScrn=  0.000000 ICntrl=       500 IOpCl=  0 I1Cent=   200000004 NGrid=           0
         NMat0=    1 NMatS0=      1 NMatT0=    0 NMatD0=    1 NMtDS0=    0 NMtDT0=    0
 Petite list used in FoFCou.
 Harris En= -158.377208553545    
 Leave Link  401 at Wed Aug 12 19:11:23 2026, MaxMem= 12884901888 cpu:              13.4 elap:               0.3
 (Enter /home/falbo/g16/l502.exe)
 Integral symmetry usage will be decided dynamically.
 Closed shell SCF:
 Using DIIS extrapolation, IDIIS=  1040.
 NGot= 12884901888 LenX= 12884877536 LenY= 12884867879
 Requested convergence on RMS density matrix=1.00D-08 within 128 cycles.
 Requested convergence on MAX density matrix=1.00D-06.
 Requested convergence on             energy=1.00D-06.
 No special actions if energy rises.
 Fock matrices will be formed incrementally for  20 cycles.

 Cycle   1  Pass 1  IDiag  1:
 FoFJK:  IHMeth= 1 ICntrl=       0 DoSepK=F KAlg= 0 I1Cent=           0 FoldK=F
 IRaf= 990000000 NMat=       1 IRICut=       1 DoRegI=T DoRafI=F ISym2E= 0 IDoP0=0 IntGTp=1.
 FoFCou: FMM=F IPFlag=           0 FMFlag=      100000 FMFlg1=           0
         NFxFlg=           0 DoJE=F BraDBF=F KetDBF=F FulRan=T
         wScrn=  0.000000 ICntrl=         0 IOpCl=  0 I1Cent=           0 NGrid=           0
         NMat0=    1 NMatS0=      1 NMatT0=    0 NMatD0=    1 NMtDS0=    0 NMtDT0=    0
 Symmetry not used in FoFCou.
 E= -158.415996439417    
 DIIS: error= 3.14D-03 at cycle   1 NSaved=   1.
 NSaved= 1 IEnMin= 1 EnMin= -158.415996439417     IErMin= 1 ErrMin= 3.14D-03
 ErrMax= 3.14D-03  0.00D+00 EMaxC= 1.00D-01 BMatC= 8.97D-04 BMatP= 8.97D-04
 IDIUse=3 WtCom= 9.69D-01 WtEn= 3.14D-02
 Coeff-Com:  0.100D+01
 Coeff-En:   0.100D+01
 Coeff:      0.100D+01
 Gap=     0.756 Goal=   None    Shift=    0.000
 GapD=    0.756 DampG=2.000 DampE=1.000 DampFc=2.0000 IDamp=-1.
 RMSDP=5.01D-04 MaxDP=5.28D-03              OVMax= 1.12D-02

 Cycle   2  Pass 1  IDiag  1:
 RMSU=  5.01D-04    CP:  1.00D+00
 E= -158.417671823927     Delta-E=       -0.001675384510 Rises=F Damp=F
 DIIS: error= 9.66D-04 at cycle   2 NSaved=   2.
 NSaved= 2 IEnMin= 2 EnMin= -158.417671823927     IErMin= 2 ErrMin= 9.66D-04
 ErrMax= 9.66D-04  0.00D+00 EMaxC= 1.00D-01 BMatC= 4.80D-05 BMatP= 8.97D-04
 IDIUse=3 WtCom= 9.90D-01 WtEn= 9.66D-03
 Coeff-Com: -0.145D+00 0.114D+01
 Coeff-En:   0.000D+00 0.100D+01
 Coeff:     -0.143D+00 0.114D+01
 Gap=     0.439 Goal=   None    Shift=    0.000
 RMSDP=1.73D-04 MaxDP=1.99D-03 DE=-1.68D-03 OVMax= 3.33D-03

 Cycle   3  Pass 1  IDiag  1:
 RMSU=  1.34D-04    CP:  1.00D+00  1.22D+00
 E= -158.417748465515     Delta-E=       -0.000076641588 Rises=F Damp=F
 DIIS: error= 4.89D-04 at cycle   3 NSaved=   3.
 NSaved= 3 IEnMin= 3 EnMin= -158.417748465515     IErMin= 3 ErrMin= 4.89D-04
 ErrMax= 4.89D-04  0.00D+00 EMaxC= 1.00D-01 BMatC= 2.05D-05 BMatP= 4.80D-05
 IDIUse=3 WtCom= 9.95D-01 WtEn= 4.89D-03
 Coeff-Com: -0.102D+00 0.510D+00 0.592D+00
 Coeff-En:   0.000D+00 0.000D+00 0.100D+01
 Coeff:     -0.101D+00 0.507D+00 0.594D+00
 Gap=     0.438 Goal=   None    Shift=    0.000
 RMSDP=4.90D-05 MaxDP=7.41D-04 DE=-7.66D-05 OVMax= 1.00D-03

 Cycle   4  Pass 1  IDiag  1:
 RMSU=  4.07D-05    CP:  1.00D+00  1.24D+00  8.14D-01
 E= -158.417769485033     Delta-E=       -0.000021019518 Rises=F Damp=F
 DIIS: error= 3.08D-05 at cycle   4 NSaved=   4.
 NSaved= 4 IEnMin= 4 EnMin= -158.417769485033     IErMin= 4 ErrMin= 3.08D-05
 ErrMax= 3.08D-05  0.00D+00 EMaxC= 1.00D-01 BMatC= 1.14D-07 BMatP= 2.05D-05
 IDIUse=1 WtCom= 1.00D+00 WtEn= 0.00D+00
 Coeff-Com:  0.461D-02-0.463D-01 0.975D-02 0.103D+01
 Coeff:      0.461D-02-0.463D-01 0.975D-02 0.103D+01
 Gap=     0.438 Goal=   None    Shift=    0.000
 RMSDP=1.54D-05 MaxDP=2.52D-04 DE=-2.10D-05 OVMax= 1.53D-04

 Cycle   5  Pass 1  IDiag  1:
 RMSU=  8.81D-06    CP:  1.00D+00  1.25D+00  8.85D-01  1.15D+00
 E= -158.417769713911     Delta-E=       -0.000000228878 Rises=F Damp=F
 DIIS: error= 5.00D-06 at cycle   5 NSaved=   5.
 NSaved= 5 IEnMin= 5 EnMin= -158.417769713911     IErMin= 5 ErrMin= 5.00D-06
 ErrMax= 5.00D-06  0.00D+00 EMaxC= 1.00D-01 BMatC= 3.86D-09 BMatP= 1.14D-07
 IDIUse=1 WtCom= 1.00D+00 WtEn= 0.00D+00
 Coeff-Com:  0.299D-02-0.190D-01-0.132D-01 0.146D+00 0.884D+00
 Coeff:      0.299D-02-0.190D-01-0.132D-01 0.146D+00 0.884D+00
 Gap=     0.438 Goal=   None    Shift=    0.000
 RMSDP=3.04D-06 MaxDP=4.77D-05 DE=-2.29D-07 OVMax= 2.52D-05

 Cycle   6  Pass 1  IDiag  1:
 RMSU=  1.44D-06    CP:  1.00D+00  1.25D+00  8.91D-01  1.17D+00  1.23D+00
 E= -158.417769718912     Delta-E=       -0.000000005001 Rises=F Damp=F
 DIIS: error= 2.34D-06 at cycle   6 NSaved=   6.
 NSaved= 6 IEnMin= 6 EnMin= -158.417769718912     IErMin= 6 ErrMin= 2.34D-06
 ErrMax= 2.34D-06  0.00D+00 EMaxC= 1.00D-01 BMatC= 9.05D-10 BMatP= 3.86D-09
 IDIUse=1 WtCom= 1.00D+00 WtEn= 0.00D+00
 Coeff-Com:  0.950D-03-0.533D-02-0.561D-02 0.922D-02 0.356D+00 0.645D+00
 Coeff:      0.950D-03-0.533D-02-0.561D-02 0.922D-02 0.356D+00 0.645D+00
 Gap=     0.438 Goal=   None    Shift=    0.000
 RMSDP=7.65D-07 MaxDP=1.25D-05 DE=-5.00D-09 OVMax= 6.93D-06

 Cycle   7  Pass 1  IDiag  1:
 RMSU=  3.64D-07    CP:  1.00D+00  1.25D+00  8.93D-01  1.18D+00  1.30D+00
                    CP:  1.01D+00
 E= -158.417769719827     Delta-E=       -0.000000000915 Rises=F Damp=F
 DIIS: error= 3.65D-07 at cycle   7 NSaved=   7.
 NSaved= 7 IEnMin= 7 EnMin= -158.417769719827     IErMin= 7 ErrMin= 3.65D-07
 ErrMax= 3.65D-07  0.00D+00 EMaxC= 1.00D-01 BMatC= 2.13D-11 BMatP= 9.05D-10
 IDIUse=1 WtCom= 1.00D+00 WtEn= 0.00D+00
 Coeff-Com: -0.967D-04 0.726D-03 0.175D-03-0.116D-01-0.847D-02 0.118D+00
 Coeff-Com:  0.901D+00
 Coeff:     -0.967D-04 0.726D-03 0.175D-03-0.116D-01-0.847D-02 0.118D+00
 Coeff:      0.901D+00
 Gap=     0.438 Goal=   None    Shift=    0.000
 RMSDP=2.94D-07 MaxDP=4.86D-06 DE=-9.15D-10 OVMax= 2.02D-06

 Cycle   8  Pass 1  IDiag  1:
 RMSU=  4.94D-08    CP:  1.00D+00  1.25D+00  8.93D-01  1.18D+00  1.32D+00
                    CP:  1.08D+00  1.04D+00
 E= -158.417769719853     Delta-E=       -0.000000000027 Rises=F Damp=F
 DIIS: error= 4.42D-08 at cycle   8 NSaved=   8.
 NSaved= 8 IEnMin= 8 EnMin= -158.417769719853     IErMin= 8 ErrMin= 4.42D-08
 ErrMax= 4.42D-08  0.00D+00 EMaxC= 1.00D-01 BMatC= 2.30D-13 BMatP= 2.13D-11
 IDIUse=1 WtCom= 1.00D+00 WtEn= 0.00D+00
 Coeff-Com: -0.340D-04 0.210D-03 0.168D-03-0.114D-02-0.107D-01-0.105D-01
 Coeff-Com:  0.448D-01 0.977D+00
 Coeff:     -0.340D-04 0.210D-03 0.168D-03-0.114D-02-0.107D-01-0.105D-01
 Coeff:      0.448D-01 0.977D+00
 Gap=     0.438 Goal=   None    Shift=    0.000
 RMSDP=5.11D-08 MaxDP=7.13D-07 DE=-2.66D-11 OVMax= 3.91D-07

 Cycle   9  Pass 1  IDiag  1:
 RMSU=  1.11D-08    CP:  1.00D+00  1.25D+00  8.93D-01  1.18D+00  1.33D+00
                    CP:  1.10D+00  1.07D+00  1.19D+00
 E= -158.417769719854     Delta-E=       -0.000000000000 Rises=F Damp=F
 DIIS: error= 8.08D-09 at cycle   9 NSaved=   9.
 NSaved= 9 IEnMin= 9 EnMin= -158.417769719854     IErMin= 9 ErrMin= 8.08D-09
 ErrMax= 8.08D-09  0.00D+00 EMaxC= 1.00D-01 BMatC= 5.08D-15 BMatP= 2.30D-13
 IDIUse=1 WtCom= 1.00D+00 WtEn= 0.00D+00
 Coeff-Com:  0.208D-05-0.165D-04-0.408D-05 0.302D-03 0.196D-03-0.298D-02
 Coeff-Com: -0.233D-01-0.421D-02 0.103D+01
 Coeff:      0.208D-05-0.165D-04-0.408D-05 0.302D-03 0.196D-03-0.298D-02
 Coeff:     -0.233D-01-0.421D-02 0.103D+01
 Gap=     0.438 Goal=   None    Shift=    0.000
 RMSDP=6.54D-09 MaxDP=1.10D-07 DE=-3.41D-13 OVMax= 7.47D-08

 SCF Done:  E(RM052X) =  -158.417769720     A.U. after    9 cycles
            NFock=  9  Conv=0.65D-08     -V/T= 2.0100
 KE= 1.568467057298D+02 PE=-6.306612545194D+02 EE= 1.826746653919D+02
 Leave Link  502 at Wed Aug 12 19:11:25 2026, MaxMem= 12884901888 cpu:             112.6 elap:               2.4
 (Enter /home/falbo/g16/l801.exe)
 DoSCS=F DFT=T ScalE2(SS,OS)=  1.000000  1.000000
 Range of M.O.s used for correlation:     1    96
 NBasis=    96 NAE=    17 NBE=    17 NFC=     0 NFV=     0
 NROrb=     96 NOA=    17 NOB=    17 NVA=    79 NVB=    79

 **** Warning!!: The largest alpha MO coefficient is  0.23300801D+02

 Leave Link  801 at Wed Aug 12 19:11:25 2026, MaxMem= 12884901888 cpu:               0.8 elap:               0.0
 (Enter /home/falbo/g16/l1101.exe)
 Using compressed storage, NAtomX=    14.
 Will process     15 centers per pass.
 Leave Link 1101 at Wed Aug 12 19:11:25 2026, MaxMem= 12884901888 cpu:               6.2 elap:               0.2
 (Enter /home/falbo/g16/l1102.exe)
 Symmetrizing basis deriv contribution to polar:
 IMax=3 JMax=2 DiffMx= 0.00D+00
 Leave Link 1102 at Wed Aug 12 19:11:26 2026, MaxMem= 12884901888 cpu:               0.9 elap:               0.0
 (Enter /home/falbo/g16/l1110.exe)
 Forming Gx(P) for the SCF density, NAtomX=    14.
 Integral derivatives from FoFJK, PRISM(SPDF).
 Do as many integral derivatives as possible in FoFJK.
 G2DrvN: MDV=   12884900632.
 G2DrvN: will do    15 centers at a time, making    1 passes.
 Calling FoFCou, ICntrl=  3107 FMM=F I1Cent=   0 AccDes= 0.00D+00.
 FoFJK:  IHMeth= 1 ICntrl=    3107 DoSepK=F KAlg= 0 I1Cent=           0 FoldK=F
 IRaf=         0 NMat=       1 IRICut=       1 DoRegI=T DoRafI=F ISym2E= 0 IDoP0=0 IntGTp=1.
 FoFCou: FMM=F IPFlag=           0 FMFlag=      100000 FMFlg1=           0
         NFxFlg=           0 DoJE=F BraDBF=F KetDBF=F FulRan=T
         wScrn=  0.000000 ICntrl=      3107 IOpCl=  0 I1Cent=           0 NGrid=           0
         NMat0=    1 NMatS0=      1 NMatT0=    0 NMatD0=    1 NMtDS0=    0 NMtDT0=    0
 Symmetry not used in FoFCou.
 End of G2Drv F.D. properties file   721 does not exist.
 End of G2Drv F.D. properties file   722 does not exist.
 End of G2Drv F.D. properties file   788 does not exist.
 Leave Link 1110 at Wed Aug 12 19:11:30 2026, MaxMem= 12884901888 cpu:             217.5 elap:               4.6
 (Enter /home/falbo/g16/l1002.exe)
 Minotr:  Closed shell wavefunction.
          IDoAtm=11111111111111
          Direct CPHF calculation.
          Differentiating once with respect to electric field.
                with respect to dipole field.
          Differentiating once with respect to nuclear coordinates.
          Requested convergence is 1.0D-08 RMS, and 1.0D-07 maximum.
          Secondary convergence is 1.0D-12 RMS, and 1.0D-12 maximum.
          NewPWx=T KeepS1=F KeepF1=F KeepIn=T MapXYZ=F SortEE=F KeepMc=T.
         4271 words used for storage of precomputed grid.
 Keep R1 ints in memory in canonical form, NReq=55003831.
 FoFCou: FMM=F IPFlag=           0 FMFlag=           0 FMFlg1=           0
         NFxFlg=           0 DoJE=F BraDBF=F KetDBF=F FulRan=T
         wScrn=  0.000000 ICntrl=       600 IOpCl=  0 I1Cent=           0 NGrid=           0
         NMat0=    1 NMatS0=   4656 NMatT0=    0 NMatD0=    1 NMtDS0=    0 NMtDT0=    0
 Symmetry not used in FoFCou.
 Two-electron integral symmetry not used.
          MDV=   12884901888 using IRadAn=       1.
          Solving linear equations simultaneously, MaxMat=       0.
          There are    45 degrees of freedom in the 1st order CPHF.  IDoFFX=6 NUNeed=     3.
     42 vectors produced by pass  0 Test12= 2.98D-15 2.22D-09 XBig12= 1.83D+01 1.53D+00.
 AX will form    42 AO Fock derivatives at one time.
     42 vectors produced by pass  1 Test12= 2.98D-15 2.22D-09 XBig12= 5.50D-01 2.16D-01.
     42 vectors produced by pass  2 Test12= 2.98D-15 2.22D-09 XBig12= 2.27D-03 1.27D-02.
     42 vectors produced by pass  3 Test12= 2.98D-15 2.22D-09 XBig12= 9.30D-06 5.93D-04.
     42 vectors produced by pass  4 Test12= 2.98D-15 2.22D-09 XBig12= 2.95D-08 2.75D-05.
     41 vectors produced by pass  5 Test12= 2.98D-15 2.22D-09 XBig12= 7.82D-11 1.44D-06.
      6 vectors produced by pass  6 Test12= 2.98D-15 2.22D-09 XBig12= 1.64D-13 5.92D-08.
      2 vectors produced by pass  7 Test12= 2.98D-15 2.22D-09 XBig12= 3.44D-16 2.95D-09.
 InvSVY:  IOpt=1 It=  1 EMax= 7.11D-15
 Solved reduced A of dimension   259 with    45 vectors.
 FullF1:  Do perturbations      1 to       3.
 Isotropic polarizability for W=    0.000000       47.09 Bohr**3.
 End of Minotr F.D. properties file   721 does not exist.
 End of Minotr F.D. properties file   722 does not exist.
 End of Minotr F.D. properties file   788 does not exist.
 Leave Link 1002 at Wed Aug 12 19:11:37 2026, MaxMem= 12884901888 cpu:             305.5 elap:               6.5
 (Enter /home/falbo/g16/l701.exe)
 ... and contract with generalized density number  0.
 Compute integral second derivatives.
 Leave Link  701 at Wed Aug 12 19:11:37 2026, MaxMem= 12884901888 cpu:               9.2 elap:               0.2
 (Enter /home/falbo/g16/l702.exe)
 L702 exits ... SP integral derivatives will be done elsewhere.
 Leave Link  702 at Wed Aug 12 19:11:37 2026, MaxMem= 12884901888 cpu:               1.1 elap:               0.1
 (Enter /home/falbo/g16/l703.exe)
 Integral derivatives from FoFJK, PRISM(SPDF).
 Compute integral second derivatives, UseDBF=F ICtDFT=           0.
 Calling FoFJK, ICntrl=    100127 FMM=F ISym2X=0 I1Cent= 0 IOpClX= 0 NMat=1 NMatS=1 NMatT=0.
 FoFJK:  IHMeth= 1 ICntrl=  100127 DoSepK=F KAlg= 0 I1Cent=           0 FoldK=F
 IRaf=         0 NMat=       1 IRICut=       1 DoRegI=T DoRafI=F ISym2E= 0 IDoP0=0 IntGTp=1.
 FoFCou: FMM=F IPFlag=           0 FMFlag=      100000 FMFlg1=         800
         NFxFlg=           0 DoJE=F BraDBF=F KetDBF=F FulRan=T
         wScrn=  0.000000 ICntrl=    100127 IOpCl=  0 I1Cent=           0 NGrid=           0
         NMat0=    1 NMatS0=      1 NMatT0=    0 NMatD0=    1 NMtDS0=    0 NMtDT0=    0
 Symmetry not used in FoFCou.
 Leave Link  703 at Wed Aug 12 19:11:41 2026, MaxMem= 12884901888 cpu:             205.2 elap:               4.3
 (Enter /home/falbo/g16/l716.exe)
 Dipole        =-3.22817626D-06 3.78904342D-02 9.71727112D-07
 Polarizability= 5.08773634D+01-2.97934458D-05 4.59564009D+01
                -1.63677706D-01 2.59157943D-05 4.44230723D+01
 ***** Axes restored to original set *****
 -------------------------------------------------------------------
 Center     Atomic                   Forces (Hartrees/Bohr)
 Number     Number              X              Y              Z
 -------------------------------------------------------------------
      1        6          -0.000073236   -0.000076782    0.000042586
      2        1           0.000036438   -0.000031661   -0.000015302
      3        1           0.000027043    0.000032925    0.000055668
      4        1           0.000059654    0.000044870   -0.000010730
      5        6           0.000000810    0.000000437   -0.000069661
      6        1          -0.000041766   -0.000029485   -0.000037370
      7        1           0.000030104   -0.000045336    0.000014801
      8        6          -0.000068063   -0.000013396    0.000003857
      9        1          -0.000042294    0.000013038   -0.000044816
     10        1           0.000006288    0.000052721    0.000020125
     11        6           0.000025854    0.000067531   -0.000085873
     12        1          -0.000021225    0.000034115    0.000030884
     13        1           0.000000443   -0.000033454    0.000066369
     14        1           0.000059950   -0.000015522    0.000029461
 -------------------------------------------------------------------
 Cartesian Forces:  Max     0.000085873 RMS     0.000042454
 FormGI is forming the generalized inverse of G from B-inverse, IUseBI=4.
 Leave Link  716 at Wed Aug 12 19:11:41 2026, MaxMem= 12884901888 cpu:               1.3 elap:               0.1
 (Enter /home/falbo/g16/l103.exe)

 GradGradGradGradGradGradGradGradGradGradGradGradGradGradGradGradGradGrad
 Berny optimization.
 Using GEDIIS/GDIIS optimizer.
 Red2BG is reusing G-inverse.
 Internal  Forces:  Max     0.000112457 RMS     0.000035145
 Search for a local minimum.
 Step number   2 out of a maximum of   74
 All quantities printed in internal units (Hartrees-Bohrs-Radians)
 RMS Force = .35145D-04 SwitMx=.10000D-02 MixMth= 2
 Mixed Optimization -- En-DIIS/RFO-DIIS
 Second derivative matrix not updated -- analytic derivatives used.
 DE= -3.73D-04 DEPred=-3.72D-04 R= 1.00D+00
 TightC=F SS=  1.41D+00  RLast= 2.24D-01 DXNew= 1.1773D-01 6.7300D-01
 Trust test= 1.00D+00 RLast= 2.24D-01 DXMaxT set to 1.18D-01
 ITU=  1  0
 Use linear search instead of GDIIS.
     Eigenvalues ---    0.00159   0.00205   0.00362   0.03405   0.03898
     Eigenvalues ---    0.04047   0.04228   0.04705   0.04765   0.04793
     Eigenvalues ---    0.04959   0.07229   0.07414   0.10239   0.11340
     Eigenvalues ---    0.12617   0.12738   0.13757   0.14818   0.16043
     Eigenvalues ---    0.16469   0.22172   0.22854   0.29780   0.30687
     Eigenvalues ---    0.32465   0.33893   0.33962   0.34703   0.34740
     Eigenvalues ---    0.34836   0.34991   0.35084   0.35700   0.36005
     Eigenvalues ---    0.36155
 RFO step:  Lambda=-6.48048682D-06 EMin= 1.58560232D-03
 Quintic linear search produced a step of  0.05586.
 Iteration  1 RMS(Cart)=  0.01363908 RMS(Int)=  0.00008649
 Iteration  2 RMS(Cart)=  0.00009880 RMS(Int)=  0.00000146
 Iteration  3 RMS(Cart)=  0.00000000 RMS(Int)=  0.00000146
 ITry= 1 IFail=0 DXMaxC= 4.53D-02 DCOld= 1.00D+10 DXMaxT= 1.18D-01 DXLimC= 3.00D+00 Rises=F
 Variable       Old X    -DE/DX   Delta X   Delta X   Delta X     New X
                                 (Linear)    (Quad)   (Total)
    R1        2.06339   0.00004   0.00044  -0.00037   0.00007   2.06346
    R2        2.06276   0.00007   0.00051  -0.00036   0.00015   2.06291
    R3        2.06679   0.00006   0.00060  -0.00030   0.00030   2.06709
    R4        2.88977   0.00007   0.00052  -0.00034   0.00018   2.88995
    R5        2.07013   0.00001   0.00030  -0.00027   0.00003   2.07016
    R6        2.06734  -0.00000   0.00012  -0.00012  -0.00001   2.06733
    R7        2.89385   0.00011   0.00024  -0.00006   0.00018   2.89403
    R8        2.07013   0.00001   0.00031  -0.00027   0.00003   2.07016
    R9        2.06734  -0.00000   0.00012  -0.00012  -0.00001   2.06733
   R10        2.88976   0.00007   0.00052  -0.00033   0.00018   2.88995
   R11        2.06339   0.00004   0.00044  -0.00037   0.00007   2.06346
   R12        2.06680   0.00006   0.00059  -0.00030   0.00029   2.06709
   R13        2.06277   0.00007   0.00050  -0.00036   0.00014   2.06291
    A1        1.87761  -0.00001  -0.00049   0.00068   0.00019   1.87780
    A2        1.88328  -0.00002  -0.00043   0.00037  -0.00006   1.88322
    A3        1.93821   0.00004   0.00072  -0.00051   0.00020   1.93841
    A4        1.88298  -0.00003  -0.00059   0.00013  -0.00046   1.88253
    A5        1.94812  -0.00001   0.00053  -0.00075  -0.00023   1.94790
    A6        1.93107   0.00002   0.00019   0.00014   0.00034   1.93141
    A7        1.91119  -0.00001   0.00012  -0.00045  -0.00034   1.91086
    A8        1.90458   0.00001   0.00032   0.00007   0.00039   1.90497
    A9        1.97886  -0.00003   0.00021  -0.00019   0.00002   1.97889
   A10        1.86071  -0.00002  -0.00093   0.00056  -0.00037   1.86034
   A11        1.90388   0.00002  -0.00010   0.00024   0.00014   1.90402
   A12        1.90089   0.00004   0.00032  -0.00018   0.00013   1.90102
   A13        1.90387   0.00002  -0.00010   0.00025   0.00015   1.90402
   A14        1.90090   0.00004   0.00031  -0.00019   0.00012   1.90102
   A15        1.97887  -0.00003   0.00021  -0.00019   0.00002   1.97889
   A16        1.86071  -0.00002  -0.00093   0.00056  -0.00037   1.86034
   A17        1.91119  -0.00001   0.00012  -0.00045  -0.00034   1.91086
   A18        1.90458   0.00001   0.00032   0.00007   0.00039   1.90497
   A19        1.93821   0.00004   0.00072  -0.00052   0.00020   1.93841
   A20        1.93107   0.00002   0.00020   0.00014   0.00034   1.93141
   A21        1.94812  -0.00001   0.00052  -0.00075  -0.00023   1.94790
   A22        1.88328  -0.00002  -0.00043   0.00037  -0.00006   1.88322
   A23        1.87761  -0.00001  -0.00049   0.00069   0.00019   1.87780
   A24        1.88298  -0.00003  -0.00059   0.00013  -0.00046   1.88253
    D1        1.09847  -0.00000   0.00075   0.00794   0.00869   1.10715
    D2       -0.93217   0.00003   0.00162   0.00748   0.00910  -0.92307
    D3       -3.05413  -0.00001   0.00085   0.00779   0.00864  -3.04549
    D4       -0.99668  -0.00001   0.00053   0.00793   0.00846  -0.98822
    D5       -3.02732   0.00002   0.00141   0.00747   0.00888  -3.01844
    D6        1.13391  -0.00002   0.00064   0.00778   0.00842   1.14233
    D7       -3.09379   0.00001   0.00080   0.00816   0.00896  -3.08482
    D8        1.15876   0.00004   0.00167   0.00770   0.00938   1.16814
    D9       -0.96319   0.00000   0.00090   0.00801   0.00892  -0.95428
   D10        1.02974   0.00005   0.00429   0.01497   0.01926   1.04900
   D11        3.05424   0.00005   0.00330   0.01567   0.01897   3.07321
   D12       -1.10492   0.00007   0.00407   0.01550   0.01957  -1.08535
   D13       -3.11879   0.00003   0.00451   0.01443   0.01895  -3.09984
   D14       -1.09428   0.00003   0.00352   0.01513   0.01866  -1.07562
   D15        1.02974   0.00005   0.00429   0.01497   0.01926   1.04900
   D16       -1.09428   0.00003   0.00352   0.01514   0.01866  -1.07562
   D17        0.93022   0.00003   0.00253   0.01584   0.01837   0.94859
   D18        3.05425   0.00005   0.00330   0.01567   0.01897   3.07321
   D19       -3.05438  -0.00001   0.00088   0.00802   0.00890  -3.04548
   D20       -0.96345   0.00001   0.00094   0.00824   0.00918  -0.95427
   D21        1.13366  -0.00002   0.00067   0.00800   0.00868   1.14233
   D22        1.09822  -0.00000   0.00078   0.00816   0.00894   1.10716
   D23       -3.09404   0.00001   0.00084   0.00838   0.00922  -3.08482
   D24       -0.99693  -0.00001   0.00057   0.00815   0.00872  -0.98821
   D25       -0.93242   0.00003   0.00165   0.00771   0.00935  -0.92306
   D26        1.15851   0.00004   0.00171   0.00792   0.00963   1.16814
   D27       -3.02757   0.00002   0.00144   0.00769   0.00913  -3.01844
         Item               Value     Threshold  Converged?
 Maximum Force            0.000112     0.000015     NO 
 RMS     Force            0.000035     0.000010     NO 
 Maximum Displacement     0.045330     0.000060     NO 
 RMS     Displacement     0.013645     0.000040     NO 
 Predicted change in Energy=-4.144493D-06
 Lowest energy point so far.  Saving SCF results.
 GradGradGradGradGradGradGradGradGradGradGradGradGradGradGradGradGradGrad

 Leave Link  103 at Wed Aug 12 19:11:42 2026, MaxMem= 12884901888 cpu:               2.9 elap:               0.1
 (Enter /home/falbo/g16/l202.exe)
                          Input orientation:                          
 ---------------------------------------------------------------------
 Center     Atomic      Atomic             Coordinates (Angstroms)
 Number     Number       Type             X           Y           Z
 ---------------------------------------------------------------------
      1          6           0       -0.544314    0.816190    1.496032
      2          1           0       -0.354082   -0.253211    1.384171
      3          1           0       -0.271762    1.094865    2.515710
      4          1           0        0.122835    1.349635    0.812750
      5          6           0       -2.005805    1.149121    1.192818
      6          1           0       -2.653042    0.651582    1.923308
      7          1           0       -2.270614    0.742061    0.212522
      8          6           0       -2.301579    2.651710    1.202954
      9          1           0       -1.685022    3.143413    0.442583
     10          1           0       -3.343736    2.810090    0.910334
     11          6           0       -2.056623    3.309332    2.561729
     12          1           0       -2.369991    4.355303    2.553670
     13          1           0       -2.619809    2.795663    3.346262
     14          1           0       -1.000371    3.283497    2.836233
 ---------------------------------------------------------------------
                    Distance matrix (angstroms):
                    1          2          3          4          5
     1  C    0.000000
     2  H    1.091934   0.000000
     3  H    1.091644   1.761950   0.000000
     4  H    1.093858   1.767226   1.766547   0.000000
     5  C    1.529294   2.175165   2.181718   2.171581   0.000000
     6  H    2.157868   2.528742   2.493578   3.070197   1.095481
     7  H    2.152443   2.456914   3.069944   2.541264   1.093984
     8  C    2.557931   3.502022   2.875283   2.779468   1.531457
     9  H    2.797666   3.767631   3.239090   2.573520   2.154751
    10  H    3.486466   4.306549   3.867331   3.762920   2.151435
    11  C    3.104600   4.120316   2.844592   3.413118   2.557931
    12  H    4.120317   5.164303   3.877429   4.275397   3.502021
    13  H    3.413113   4.275390   3.015933   4.003970   2.779465
    14  H    2.844596   3.877432   2.328887   3.015940   2.875286
                    6          7          8          9         10
     6  H    0.000000
     7  H    1.755343   0.000000
     8  C    2.154751   2.151436   0.000000
     9  H    3.055950   2.482405   1.095481   0.000000
    10  H    2.482404   2.432134   1.093984   1.755343   0.000000
    11  C    2.797665   3.486466   1.529293   2.157868   2.152442
    12  H    3.767628   4.306549   2.175164   2.528744   2.456911
    13  H    2.573517   3.762917   2.171581   3.070197   2.541264
    14  H    3.239094   3.867334   2.181718   2.493577   3.069944
                   11         12         13         14
    11  C    0.000000
    12  H    1.091935   0.000000
    13  H    1.093858   1.767226   0.000000
    14  H    1.091644   1.761950   1.766547   0.000000
 Stoichiometry    C4H10
 Framework group  C1[X(C4H10)]
 Deg. of freedom    36
 Full point group                 C1      NOp   1
 RotChk:  IX=2 Diff= 5.47D-03
 Largest Abelian subgroup         C1      NOp   1
 Largest concise Abelian subgroup C1      NOp   1
                         Standard orientation:                         
 ---------------------------------------------------------------------
 Center     Atomic      Atomic             Coordinates (Angstroms)
 Number     Number       Type             X           Y           Z
 ---------------------------------------------------------------------
      1          6           0       -1.547322   -0.566826   -0.124214
      2          1           0       -2.570223   -0.480092    0.247906
      3          1           0       -1.135532   -1.502849    0.257857
      4          1           0       -1.591347   -0.640057   -1.214729
      5          6           0       -0.703546    0.635213    0.302262
      6          1           0       -0.624219    0.656824    1.394653
      7          1           0       -1.216040    1.555854    0.008031
      8          6           0        0.703546    0.635213   -0.302262
      9          1           0        0.624220    0.656824   -1.394653
     10          1           0        1.216041    1.555853   -0.008030
     11          6           0        1.547322   -0.566827    0.124214
     12          1           0        2.570224   -0.480089   -0.247901
     13          1           0        1.591342   -0.640059    1.214729
     14          1           0        1.135535   -1.502849   -0.257861
 ---------------------------------------------------------------------
 Rotational constants (GHZ):          13.0621885           4.8668454           4.1053943
 Leave Link  202 at Wed Aug 12 19:11:42 2026, MaxMem= 12884901888 cpu:               0.2 elap:               0.0
 (Enter /home/falbo/g16/l301.exe)
 Standard basis: 6-31+G(d) (6D, 7F)
 Ernie: Thresh=  0.10000D-02 Tol=  0.10000D-05 Strict=F.
 There are    96 symmetry adapted cartesian basis functions of A   symmetry.
 There are    96 symmetry adapted basis functions of A   symmetry.
    96 basis functions,   168 primitive gaussians,    96 cartesian basis functions
    17 alpha electrons       17 beta electrons
       nuclear repulsion energy       132.7522853188 Hartrees.
 IExCor= 3428 DFT=T Ex+Corr=M052X ExCW=0 ScaHFX=  0.560000
 ScaDFX=  0.440000  0.440000  1.000000  1.000000 ScalE2=  1.000000  1.000000
 IRadAn=      5 IRanWt=     -1 IRanGd=            0 ICorTp=0 IEmpDi=  4
 NAtoms=   14 NActive=   14 NUniq=   14 SFac= 1.00D+00 NAtFMM=   60 NAOKFM=F Big=F
 Integral buffers will be    131072 words long.
 Raffenetti 2 integral format.
 Two-electron integral symmetry is turned on.
 Leave Link  301 at Wed Aug 12 19:11:42 2026, MaxMem= 12884901888 cpu:               2.2 elap:               0.1
 (Enter /home/falbo/g16/l302.exe)
 NPDir=0 NMtPBC=     1 NCelOv=     1 NCel=       1 NClECP=     1 NCelD=      1
         NCelK=      1 NCelE2=     1 NClLst=     1 CellRange=     0.0.
 One-electron integrals computed using PRISM.
 One-electron integral symmetry used in STVInt
 NBasis=    96 RedAO= T EigKep=  1.66D-04  NBF=    96
 NBsUse=    96 1.00D-06 EigRej= -1.00D+00 NBFU=    96
 Precomputing XC quadrature grid using
 IXCGrd= 4 IRadAn=           5 IRanWt=          -1 IRanGd=           0 AccXCQ= 0.00D+00.
 Generated NRdTot=       0 NPtTot=           0 NUsed=           0 NTot=          32
 NSgBfM=    96    96    96    96    96 MxSgAt=    14 MxSgA2=    14.
 Leave Link  302 at Wed Aug 12 19:11:42 2026, MaxMem= 12884901888 cpu:               9.1 elap:               0.2
 (Enter /home/falbo/g16/l303.exe)
 DipDrv:  MaxL=1.
 Leave Link  303 at Wed Aug 12 19:11:42 2026, MaxMem= 12884901888 cpu:               0.9 elap:               0.0
 (Enter /home/falbo/g16/l401.exe)
 Initial guess from the checkpoint file:  "02_conf_010.chk"
 B after Tr=     0.000000   -0.000000    0.000000
         Rot=    0.999999   -0.000009    0.001302   -0.000002 Ang=  -0.15 deg.
 Guess basis will be translated and rotated to current coordinates.
 JPrj=2 DoOrth=T DoCkMO=T.
 Generating alternative initial guess.
 ExpMin= 4.38D-02 ExpMax= 3.05D+03 ExpMxC= 4.57D+02 IAcc=3 IRadAn=         5 AccDes= 0.00D+00
 Harris functional with IExCor= 1009 and IRadAn=       5 diagonalized for initial guess.
 HarFok:  IExCor= 1009 AccDes= 0.00D+00 IRadAn=         5 IDoV= 1 UseB2=F ITyADJ=14
 ICtDFT=  3500011 ScaDFX=  1.000000  1.000000  1.000000  1.000000
 FoFCou: FMM=F IPFlag=           0 FMFlag=      100000 FMFlg1=           0
         NFxFlg=           0 DoJE=T BraDBF=F KetDBF=T FulRan=T
         wScrn=  0.000000 ICntrl=       500 IOpCl=  0 I1Cent=   200000004 NGrid=           0
         NMat0=    1 NMatS0=      1 NMatT0=    0 NMatD0=    1 NMtDS0=    0 NMtDT0=    0
 Petite list used in FoFCou.
 Harris En= -158.377131407889    
 Leave Link  401 at Wed Aug 12 19:11:42 2026, MaxMem= 12884901888 cpu:              13.9 elap:               0.3
 (Enter /home/falbo/g16/l502.exe)
 Integral symmetry usage will be decided dynamically.
 Closed shell SCF:
 Using DIIS extrapolation, IDIIS=  1040.
 NGot= 12884901888 LenX= 12884877536 LenY= 12884867879
 Requested convergence on RMS density matrix=1.00D-08 within 128 cycles.
 Requested convergence on MAX density matrix=1.00D-06.
 Requested convergence on             energy=1.00D-06.
 No special actions if energy rises.
 Fock matrices will be formed incrementally for  20 cycles.

 Cycle   1  Pass 1  IDiag  1:
 FoFJK:  IHMeth= 1 ICntrl=       0 DoSepK=F KAlg= 0 I1Cent=           0 FoldK=F
 IRaf= 990000000 NMat=       1 IRICut=       1 DoRegI=T DoRafI=F ISym2E= 0 IDoP0=0 IntGTp=1.
 FoFCou: FMM=F IPFlag=           0 FMFlag=      100000 FMFlg1=           0
         NFxFlg=           0 DoJE=F BraDBF=F KetDBF=F FulRan=T
         wScrn=  0.000000 ICntrl=         0 IOpCl=  0 I1Cent=           0 NGrid=           0
         NMat0=    1 NMatS0=      1 NMatT0=    0 NMatD0=    1 NMtDS0=    0 NMtDT0=    0
 Symmetry not used in FoFCou.
 E= -158.417590425932    
 DIIS: error= 9.75D-04 at cycle   1 NSaved=   1.
 NSaved= 1 IEnMin= 1 EnMin= -158.417590425932     IErMin= 1 ErrMin= 9.75D-04
 ErrMax= 9.75D-04  0.00D+00 EMaxC= 1.00D-01 BMatC= 9.03D-05 BMatP= 9.03D-05
 IDIUse=3 WtCom= 9.90D-01 WtEn= 9.75D-03
 Coeff-Com:  0.100D+01
 Coeff-En:   0.100D+01
 Coeff:      0.100D+01
 Gap=     0.755 Goal=   None    Shift=    0.000
 RMSDP=1.51D-04 MaxDP=2.13D-03              OVMax= 3.60D-03

 Cycle   2  Pass 1  IDiag  1:
 RMSU=  1.51D-04    CP:  1.00D+00
 E= -158.417764926264     Delta-E=       -0.000174500333 Rises=F Damp=F
 DIIS: error= 2.30D-04 at cycle   2 NSaved=   2.
 NSaved= 2 IEnMin= 2 EnMin= -158.417764926264     IErMin= 2 ErrMin= 2.30D-04
 ErrMax= 2.30D-04  0.00D+00 EMaxC= 1.00D-01 BMatC= 3.54D-06 BMatP= 9.03D-05
 IDIUse=3 WtCom= 9.98D-01 WtEn= 2.30D-03
 Coeff-Com: -0.223D+00 0.122D+01
 Coeff-En:   0.000D+00 0.100D+01
 Coeff:     -0.223D+00 0.122D+01
 Gap=     0.438 Goal=   None    Shift=    0.000
 RMSDP=4.69D-05 MaxDP=5.74D-04 DE=-1.75D-04 OVMax= 1.01D-03

 Cycle   3  Pass 1  IDiag  1:
 RMSU=  2.67D-05    CP:  1.00D+00  1.26D+00
 E= -158.417773836537     Delta-E=       -0.000008910273 Rises=F Damp=F
 DIIS: error= 2.31D-05 at cycle   3 NSaved=   3.
 NSaved= 3 IEnMin= 3 EnMin= -158.417773836537     IErMin= 3 ErrMin= 2.31D-05
 ErrMax= 2.31D-05  0.00D+00 EMaxC= 1.00D-01 BMatC= 4.41D-08 BMatP= 3.54D-06
 IDIUse=1 WtCom= 1.00D+00 WtEn= 0.00D+00
 Coeff-Com: -0.151D-01 0.464D-01 0.969D+00
 Coeff:     -0.151D-01 0.464D-01 0.969D+00
 Gap=     0.438 Goal=   None    Shift=    0.000
 RMSDP=7.77D-06 MaxDP=1.07D-04 DE=-8.91D-06 OVMax= 1.06D-04

 Cycle   4  Pass 1  IDiag  1:
 RMSU=  5.18D-06    CP:  1.00D+00  1.28D+00  1.16D+00
 E= -158.417773903652     Delta-E=       -0.000000067115 Rises=F Damp=F
 DIIS: error= 1.39D-05 at cycle   4 NSaved=   4.
 NSaved= 4 IEnMin= 4 EnMin= -158.417773903652     IErMin= 4 ErrMin= 1.39D-05
 ErrMax= 1.39D-05  0.00D+00 EMaxC= 1.00D-01 BMatC= 1.75D-08 BMatP= 4.41D-08
 IDIUse=1 WtCom= 1.00D+00 WtEn= 0.00D+00
 Coeff-Com:  0.922D-02-0.671D-01 0.391D+00 0.666D+00
 Coeff:      0.922D-02-0.671D-01 0.391D+00 0.666D+00
 Gap=     0.438 Goal=   None    Shift=    0.000
 RMSDP=2.72D-06 MaxDP=4.47D-05 DE=-6.71D-08 OVMax= 3.20D-05

 Cycle   5  Pass 1  IDiag  1:
 RMSU=  2.06D-06    CP:  1.00D+00  1.29D+00  1.20D+00  1.06D+00
 E= -158.417773922642     Delta-E=       -0.000000018990 Rises=F Damp=F
 DIIS: error= 1.65D-06 at cycle   5 NSaved=   5.
 NSaved= 5 IEnMin= 5 EnMin= -158.417773922642     IErMin= 5 ErrMin= 1.65D-06
 ErrMax= 1.65D-06  0.00D+00 EMaxC= 1.00D-01 BMatC= 2.74D-10 BMatP= 1.75D-08
 IDIUse=1 WtCom= 1.00D+00 WtEn= 0.00D+00
 Coeff-Com:  0.226D-02-0.135D-01 0.178D-02 0.114D+00 0.896D+00
 Coeff:      0.226D-02-0.135D-01 0.178D-02 0.114D+00 0.896D+00
 Gap=     0.438 Goal=   None    Shift=    0.000
 RMSDP=8.41D-07 MaxDP=1.35D-05 DE=-1.90D-08 OVMax= 6.01D-06

 Cycle   6  Pass 1  IDiag  1:
 RMSU=  2.67D-07    CP:  1.00D+00  1.29D+00  1.21D+00  1.17D+00  1.15D+00
 E= -158.417773923028     Delta-E=       -0.000000000386 Rises=F Damp=F
 DIIS: error= 1.72D-07 at cycle   6 NSaved=   6.
 NSaved= 6 IEnMin= 6 EnMin= -158.417773923028     IErMin= 6 ErrMin= 1.72D-07
 ErrMax= 1.72D-07  0.00D+00 EMaxC= 1.00D-01 BMatC= 3.94D-12 BMatP= 2.74D-10
 IDIUse=1 WtCom= 1.00D+00 WtEn= 0.00D+00
 Coeff-Com:  0.278D-04 0.335D-04-0.709D-02-0.489D-03 0.883D-01 0.919D+00
 Coeff:      0.278D-04 0.335D-04-0.709D-02-0.489D-03 0.883D-01 0.919D+00
 Gap=     0.438 Goal=   None    Shift=    0.000
 RMSDP=1.68D-07 MaxDP=2.92D-06 DE=-3.86D-10 OVMax= 1.11D-06

 Cycle   7  Pass 1  IDiag  1:
 RMSU=  3.57D-08    CP:  1.00D+00  1.29D+00  1.21D+00  1.19D+00  1.20D+00
                    CP:  1.07D+00
 E= -158.417773923033     Delta-E=       -0.000000000005 Rises=F Damp=F
 DIIS: error= 9.07D-08 at cycle   7 NSaved=   7.
 NSaved= 7 IEnMin= 7 EnMin= -158.417773923033     IErMin= 7 ErrMin= 9.07D-08
 ErrMax= 9.07D-08  0.00D+00 EMaxC= 1.00D-01 BMatC= 1.45D-12 BMatP= 3.94D-12
 IDIUse=1 WtCom= 1.00D+00 WtEn= 0.00D+00
 Coeff-Com: -0.171D-03 0.111D-02-0.357D-02-0.918D-02-0.286D-01 0.399D+00
 Coeff-Com:  0.641D+00
 Coeff:     -0.171D-03 0.111D-02-0.357D-02-0.918D-02-0.286D-01 0.399D+00
 Coeff:      0.641D+00
 Gap=     0.438 Goal=   None    Shift=    0.000
 RMSDP=3.43D-08 MaxDP=4.93D-07 DE=-5.23D-12 OVMax= 2.94D-07

 Cycle   8  Pass 1  IDiag  1:
 RMSU=  1.04D-08    CP:  1.00D+00  1.29D+00  1.21D+00  1.20D+00  1.21D+00
                    CP:  1.11D+00  8.98D-01
 E= -158.417773923032     Delta-E=        0.000000000001 Rises=F Damp=F
 DIIS: error= 1.27D-08 at cycle   8 NSaved=   8.
 NSaved= 8 IEnMin= 7 EnMin= -158.417773923033     IErMin= 8 ErrMin= 1.27D-08
 ErrMax= 1.27D-08  0.00D+00 EMaxC= 1.00D-01 BMatC= 1.31D-14 BMatP= 1.45D-12
 IDIUse=1 WtCom= 1.00D+00 WtEn= 0.00D+00
 Coeff-Com: -0.221D-04 0.133D-03-0.345D-04-0.999D-03-0.800D-02-0.121D-01
 Coeff-Com:  0.546D-01 0.967D+00
 Coeff:     -0.221D-04 0.133D-03-0.345D-04-0.999D-03-0.800D-02-0.121D-01
 Coeff:      0.546D-01 0.967D+00
 Gap=     0.438 Goal=   None    Shift=    0.000
 RMSDP=9.63D-09 MaxDP=1.56D-07 DE= 9.66D-13 OVMax= 8.88D-08

 SCF Done:  E(RM052X) =  -158.417773923     A.U. after    8 cycles
            NFock=  8  Conv=0.96D-08     -V/T= 2.0100
 KE= 1.568453232925D+02 PE=-6.307207923442D+02 EE= 1.827054098099D+02
 Leave Link  502 at Wed Aug 12 19:11:44 2026, MaxMem= 12884901888 cpu:              96.6 elap:               2.1
 (Enter /home/falbo/g16/l801.exe)
 DoSCS=F DFT=T ScalE2(SS,OS)=  1.000000  1.000000
 Range of M.O.s used for correlation:     1    96
 NBasis=    96 NAE=    17 NBE=    17 NFC=     0 NFV=     0
 NROrb=     96 NOA=    17 NOB=    17 NVA=    79 NVB=    79

 **** Warning!!: The largest alpha MO coefficient is  0.22805521D+02

 Leave Link  801 at Wed Aug 12 19:11:45 2026, MaxMem= 12884901888 cpu:               0.8 elap:               0.0
 (Enter /home/falbo/g16/l1101.exe)
 Using compressed storage, NAtomX=    14.
 Will process     15 centers per pass.
 Leave Link 1101 at Wed Aug 12 19:11:45 2026, MaxMem= 12884901888 cpu:               6.3 elap:               0.2
 (Enter /home/falbo/g16/l1102.exe)
 Symmetrizing basis deriv contribution to polar:
 IMax=3 JMax=2 DiffMx= 0.00D+00
 Leave Link 1102 at Wed Aug 12 19:11:45 2026, MaxMem= 12884901888 cpu:               0.9 elap:               0.0
 (Enter /home/falbo/g16/l1110.exe)
 Forming Gx(P) for the SCF density, NAtomX=    14.
 Integral derivatives from FoFJK, PRISM(SPDF).
 Do as many integral derivatives as possible in FoFJK.
 G2DrvN: MDV=   12884900632.
 G2DrvN: will do    15 centers at a time, making    1 passes.
 Calling FoFCou, ICntrl=  3107 FMM=F I1Cent=   0 AccDes= 0.00D+00.
 FoFJK:  IHMeth= 1 ICntrl=    3107 DoSepK=F KAlg= 0 I1Cent=           0 FoldK=F
 IRaf=         0 NMat=       1 IRICut=       1 DoRegI=T DoRafI=F ISym2E= 0 IDoP0=0 IntGTp=1.
 FoFCou: FMM=F IPFlag=           0 FMFlag=      100000 FMFlg1=           0
         NFxFlg=           0 DoJE=F BraDBF=F KetDBF=F FulRan=T
         wScrn=  0.000000 ICntrl=      3107 IOpCl=  0 I1Cent=           0 NGrid=           0
         NMat0=    1 NMatS0=      1 NMatT0=    0 NMatD0=    1 NMtDS0=    0 NMtDT0=    0
 Symmetry not used in FoFCou.
 End of G2Drv F.D. properties file   721 does not exist.
 End of G2Drv F.D. properties file   722 does not exist.
 End of G2Drv F.D. properties file   788 does not exist.
 Leave Link 1110 at Wed Aug 12 19:11:49 2026, MaxMem= 12884901888 cpu:             218.3 elap:               4.6
 (Enter /home/falbo/g16/l1002.exe)
 Minotr:  Closed shell wavefunction.
          IDoAtm=11111111111111
          Direct CPHF calculation.
          Differentiating once with respect to electric field.
                with respect to dipole field.
          Differentiating once with respect to nuclear coordinates.
          Requested convergence is 1.0D-08 RMS, and 1.0D-07 maximum.
          Secondary convergence is 1.0D-12 RMS, and 1.0D-12 maximum.
          NewPWx=T KeepS1=F KeepF1=F KeepIn=T MapXYZ=F SortEE=F KeepMc=T.
         4271 words used for storage of precomputed grid.
 Keep R1 ints in memory in canonical form, NReq=55003831.
 FoFCou: FMM=F IPFlag=           0 FMFlag=           0 FMFlg1=           0
         NFxFlg=           0 DoJE=F BraDBF=F KetDBF=F FulRan=T
         wScrn=  0.000000 ICntrl=       600 IOpCl=  0 I1Cent=           0 NGrid=           0
         NMat0=    1 NMatS0=   4656 NMatT0=    0 NMatD0=    1 NMtDS0=    0 NMtDT0=    0
 Symmetry not used in FoFCou.
 Two-electron integral symmetry not used.
          MDV=   12884901888 using IRadAn=       1.
          Solving linear equations simultaneously, MaxMat=       0.
          There are    45 degrees of freedom in the 1st order CPHF.  IDoFFX=6 NUNeed=     3.
     42 vectors produced by pass  0 Test12= 2.98D-15 2.22D-09 XBig12= 1.84D+01 1.51D+00.
 AX will form    42 AO Fock derivatives at one time.
     42 vectors produced by pass  1 Test12= 2.98D-15 2.22D-09 XBig12= 5.52D-01 2.15D-01.
     42 vectors produced by pass  2 Test12= 2.98D-15 2.22D-09 XBig12= 2.26D-03 1.27D-02.
     42 vectors produced by pass  3 Test12= 2.98D-15 2.22D-09 XBig12= 9.26D-06 5.94D-04.
     42 vectors produced by pass  4 Test12= 2.98D-15 2.22D-09 XBig12= 2.95D-08 2.78D-05.
     40 vectors produced by pass  5 Test12= 2.98D-15 2.22D-09 XBig12= 7.76D-11 1.42D-06.
      6 vectors produced by pass  6 Test12= 2.98D-15 2.22D-09 XBig12= 1.64D-13 5.96D-08.
      2 vectors produced by pass  7 Test12= 2.98D-15 2.22D-09 XBig12= 3.42D-16 2.82D-09.
 InvSVY:  IOpt=1 It=  1 EMax= 7.11D-15
 Solved reduced A of dimension   258 with    45 vectors.
 FullF1:  Do perturbations      1 to       3.
 Isotropic polarizability for W=    0.000000       47.10 Bohr**3.
 End of Minotr F.D. properties file   721 does not exist.
 End of Minotr F.D. properties file   722 does not exist.
 End of Minotr F.D. properties file   788 does not exist.
 Leave Link 1002 at Wed Aug 12 19:11:56 2026, MaxMem= 12884901888 cpu:             308.9 elap:               6.5
 (Enter /home/falbo/g16/l701.exe)
 ... and contract with generalized density number  0.
 Compute integral second derivatives.
 Leave Link  701 at Wed Aug 12 19:11:56 2026, MaxMem= 12884901888 cpu:               9.1 elap:               0.2
 (Enter /home/falbo/g16/l702.exe)
 L702 exits ... SP integral derivatives will be done elsewhere.
 Leave Link  702 at Wed Aug 12 19:11:56 2026, MaxMem= 12884901888 cpu:               1.1 elap:               0.1
 (Enter /home/falbo/g16/l703.exe)
 Integral derivatives from FoFJK, PRISM(SPDF).
 Compute integral second derivatives, UseDBF=F ICtDFT=           0.
 Calling FoFJK, ICntrl=    100127 FMM=F ISym2X=0 I1Cent= 0 IOpClX= 0 NMat=1 NMatS=1 NMatT=0.
 FoFJK:  IHMeth= 1 ICntrl=  100127 DoSepK=F KAlg= 0 I1Cent=           0 FoldK=F
 IRaf=         0 NMat=       1 IRICut=       1 DoRegI=T DoRafI=F ISym2E= 0 IDoP0=0 IntGTp=1.
 FoFCou: FMM=F IPFlag=           0 FMFlag=      100000 FMFlg1=         800
         NFxFlg=           0 DoJE=F BraDBF=F KetDBF=F FulRan=T
         wScrn=  0.000000 ICntrl=    100127 IOpCl=  0 I1Cent=           0 NGrid=           0
         NMat0=    1 NMatS0=      1 NMatT0=    0 NMatD0=    1 NMtDS0=    0 NMtDT0=    0
 Symmetry not used in FoFCou.
 Leave Link  703 at Wed Aug 12 19:12:01 2026, MaxMem= 12884901888 cpu:             205.1 elap:               4.3
 (Enter /home/falbo/g16/l716.exe)
 Dipole        = 1.73792349D-07 3.76192357D-02-6.96078758D-09
 Polarizability= 5.08760710D+01 1.76549869D-06 4.60050937D+01
                -1.64798837D-01 2.06221095D-06 4.44089516D+01
 ***** Axes restored to original set *****
 -------------------------------------------------------------------
 Center     Atomic                   Forces (Hartrees/Bohr)
 Number     Number              X              Y              Z
 -------------------------------------------------------------------
      1        6           0.000002055   -0.000004914   -0.000006675
      2        1           0.000001171   -0.000000566    0.000001303
      3        1          -0.000000066    0.000007971    0.000003111
      4        1           0.000003802    0.000000569   -0.000001495
      5        6          -0.000001142   -0.000005513   -0.000004123
      6        1           0.000003179   -0.000003672   -0.000001083
      7        1          -0.000000669   -0.000002529    0.000002108
      8        6          -0.000005086    0.000004305   -0.000002027
      9        1          -0.000001768    0.000003930    0.000002471
     10        1           0.000001595    0.000002694   -0.000001262
     11        6          -0.000007557    0.000003929    0.000001546
     12        1           0.000001221    0.000000979    0.000000992
     13        1          -0.000001246   -0.000000021    0.000003882
     14        1           0.000004510   -0.000007163    0.000001252
 -------------------------------------------------------------------
 Cartesian Forces:  Max     0.000007971 RMS     0.000003464
 FormGI is forming the generalized inverse of G from B-inverse, IUseBI=4.
 Leave Link  716 at Wed Aug 12 19:12:01 2026, MaxMem= 12884901888 cpu:               1.3 elap:               0.1
 (Enter /home/falbo/g16/l103.exe)

 GradGradGradGradGradGradGradGradGradGradGradGradGradGradGradGradGradGrad
 Berny optimization.
 Using GEDIIS/GDIIS optimizer.
 Red2BG is reusing G-inverse.
 Internal  Forces:  Max     0.000011799 RMS     0.000003655
 Search for a local minimum.
 Step number   3 out of a maximum of   74
 All quantities printed in internal units (Hartrees-Bohrs-Radians)
 RMS Force = .36547D-05 SwitMx=.10000D-02 MixMth= 2
 Mixed Optimization -- En-DIIS/RFO-DIIS
 Swapping is turned off.
 Second derivative matrix not updated -- analytic derivatives used.
 DE= -4.20D-06 DEPred=-4.14D-06 R= 1.01D+00
 TightC=F SS=  1.41D+00  RLast= 6.84D-02 DXNew= 1.9799D-01 2.0533D-01
 Trust test= 1.01D+00 RLast= 6.84D-02 DXMaxT set to 1.98D-01
 ITU=  1  1  0
     Eigenvalues ---    0.00177   0.00209   0.00361   0.03403   0.03889
     Eigenvalues ---    0.04046   0.04230   0.04707   0.04767   0.04794
     Eigenvalues ---    0.04966   0.07225   0.07416   0.10234   0.11350
     Eigenvalues ---    0.12613   0.12733   0.13759   0.14834   0.16045
     Eigenvalues ---    0.16456   0.22161   0.22936   0.29783   0.30677
     Eigenvalues ---    0.32453   0.33886   0.33960   0.34680   0.34717
     Eigenvalues ---    0.34836   0.34982   0.35079   0.35698   0.35994
     Eigenvalues ---    0.36138
 En-DIIS/RFO-DIIS/Sim-DIIS IScMMF=       -3 using points:     3    2
 RFO step:  Lambda=-4.26779070D-08.
 NNeg= 0 NGDIIS= 2 SimSw=  2.50D-03 Rises=F DC= -4.20D-06 SmlDif=  1.00D-05
 NRisDI= 0 DoIntr=F SqrtH=F CThrHd= 10.0 CDAdj=  3.0
 RMS Error=  0.5725153814D-03 NUsed= 2 OKEnD=F EnDIS=F
 InvSVX:  RCond= 4.76D-03 Info=           0 Equed=N FErr=  9.53D-16 BErr=  5.63D-17
 DidBck=F Rises=F RFO-DIIS coefs:    0.93502    0.06498
 Iteration  1 RMS(Cart)=  0.00085693 RMS(Int)=  0.00000043
 Iteration  2 RMS(Cart)=  0.00000046 RMS(Int)=  0.00000000
 ITry= 1 IFail=0 DXMaxC= 2.90D-03 DCOld= 1.00D+10 DXMaxT= 1.98D-01 DXLimC= 3.00D+00 Rises=F
 Variable       Old X    -DE/DX   Delta X   Delta X   Delta X     New X
                                 (Linear)    (Quad)   (Total)
    R1        2.06346   0.00000  -0.00000   0.00001   0.00000   2.06346
    R2        2.06291   0.00001  -0.00001   0.00002   0.00001   2.06292
    R3        2.06709   0.00000  -0.00002   0.00002   0.00000   2.06709
    R4        2.88995   0.00000  -0.00001   0.00003   0.00001   2.88996
    R5        2.07016  -0.00000  -0.00000   0.00000   0.00000   2.07016
    R6        2.06733  -0.00000   0.00000  -0.00000  -0.00000   2.06733
    R7        2.89403   0.00001  -0.00001   0.00006   0.00005   2.89408
    R8        2.07016  -0.00000  -0.00000   0.00000   0.00000   2.07016
    R9        2.06733  -0.00000   0.00000  -0.00000  -0.00000   2.06733
   R10        2.88995   0.00000  -0.00001   0.00003   0.00001   2.88996
   R11        2.06346   0.00000  -0.00000   0.00001   0.00000   2.06346
   R12        2.06709   0.00000  -0.00002   0.00002   0.00000   2.06709
   R13        2.06291   0.00001  -0.00001   0.00002   0.00001   2.06292
    A1        1.87780   0.00000  -0.00001   0.00002   0.00000   1.87780
    A2        1.88322  -0.00000   0.00000   0.00000   0.00001   1.88322
    A3        1.93841   0.00000  -0.00001   0.00003   0.00001   1.93842
    A4        1.88253  -0.00000   0.00003  -0.00004  -0.00001   1.88251
    A5        1.94790  -0.00001   0.00001  -0.00004  -0.00003   1.94787
    A6        1.93141   0.00000  -0.00002   0.00004   0.00002   1.93143
    A7        1.91086   0.00000   0.00002  -0.00004  -0.00002   1.91084
    A8        1.90497   0.00000  -0.00003   0.00000  -0.00002   1.90495
    A9        1.97889  -0.00001  -0.00000  -0.00001  -0.00001   1.97888
   A10        1.86034  -0.00000   0.00002  -0.00004  -0.00002   1.86032
   A11        1.90402   0.00000  -0.00001   0.00002   0.00001   1.90403
   A12        1.90102   0.00001  -0.00001   0.00007   0.00006   1.90108
   A13        1.90402   0.00000  -0.00001   0.00002   0.00001   1.90403
   A14        1.90102   0.00001  -0.00001   0.00007   0.00006   1.90108
   A15        1.97889  -0.00001  -0.00000  -0.00001  -0.00001   1.97888
   A16        1.86034  -0.00000   0.00002  -0.00004  -0.00002   1.86032
   A17        1.91086   0.00000   0.00002  -0.00004  -0.00002   1.91084
   A18        1.90497   0.00000  -0.00003   0.00000  -0.00002   1.90495
   A19        1.93841   0.00000  -0.00001   0.00003   0.00001   1.93842
   A20        1.93141   0.00000  -0.00002   0.00004   0.00002   1.93143
   A21        1.94790  -0.00001   0.00001  -0.00004  -0.00003   1.94787
   A22        1.88322  -0.00000   0.00000   0.00000   0.00001   1.88322
   A23        1.87780   0.00000  -0.00001   0.00002   0.00000   1.87780
   A24        1.88253  -0.00000   0.00003  -0.00004  -0.00001   1.88251
    D1        1.10715  -0.00000  -0.00056  -0.00038  -0.00095   1.10621
    D2       -0.92307  -0.00000  -0.00059  -0.00031  -0.00090  -0.92397
    D3       -3.04549  -0.00000  -0.00056  -0.00039  -0.00096  -3.04644
    D4       -0.98822  -0.00000  -0.00055  -0.00039  -0.00094  -0.98916
    D5       -3.01844  -0.00000  -0.00058  -0.00032  -0.00089  -3.01934
    D6        1.14233  -0.00000  -0.00055  -0.00040  -0.00095   1.14138
    D7       -3.08482  -0.00000  -0.00058  -0.00033  -0.00092  -3.08574
    D8        1.16814   0.00000  -0.00061  -0.00026  -0.00087   1.16727
    D9       -0.95428  -0.00000  -0.00058  -0.00035  -0.00092  -0.95520
   D10        1.04900  -0.00000  -0.00125   0.00034  -0.00092   1.04808
   D11        3.07321   0.00000  -0.00123   0.00033  -0.00090   3.07231
   D12       -1.08535   0.00000  -0.00127   0.00038  -0.00089  -1.08624
   D13       -3.09984  -0.00000  -0.00123   0.00029  -0.00094  -3.10078
   D14       -1.07562  -0.00000  -0.00121   0.00029  -0.00093  -1.07655
   D15        1.04900  -0.00000  -0.00125   0.00034  -0.00092   1.04808
   D16       -1.07562  -0.00000  -0.00121   0.00029  -0.00093  -1.07655
   D17        0.94859  -0.00000  -0.00119   0.00028  -0.00091   0.94768
   D18        3.07321   0.00000  -0.00123   0.00033  -0.00090   3.07231
   D19       -3.04548  -0.00000  -0.00058  -0.00038  -0.00096  -3.04644
   D20       -0.95427  -0.00000  -0.00060  -0.00033  -0.00093  -0.95520
   D21        1.14233  -0.00000  -0.00056  -0.00039  -0.00095   1.14138
   D22        1.10716  -0.00000  -0.00058  -0.00037  -0.00095   1.10621
   D23       -3.08482  -0.00000  -0.00060  -0.00032  -0.00092  -3.08574
   D24       -0.98821  -0.00000  -0.00057  -0.00038  -0.00094  -0.98916
   D25       -0.92306  -0.00000  -0.00061  -0.00030  -0.00091  -0.92397
   D26        1.16814   0.00000  -0.00063  -0.00025  -0.00088   1.16727
   D27       -3.01844  -0.00000  -0.00059  -0.00031  -0.00090  -3.01934
         Item               Value     Threshold  Converged?
 Maximum Force            0.000012     0.000015     YES
 RMS     Force            0.000004     0.000010     YES
 Maximum Displacement     0.002897     0.000060     NO 
 RMS     Displacement     0.000857     0.000040     NO 
 Predicted change in Energy=-2.128978D-08
 Lowest energy point so far.  Saving SCF results.
 GradGradGradGradGradGradGradGradGradGradGradGradGradGradGradGradGradGrad

 Leave Link  103 at Wed Aug 12 19:12:01 2026, MaxMem= 12884901888 cpu:               2.4 elap:               0.1
 (Enter /home/falbo/g16/l202.exe)
                          Input orientation:                          
 ---------------------------------------------------------------------
 Center     Atomic      Atomic             Coordinates (Angstroms)
 Number     Number       Type             X           Y           Z
 ---------------------------------------------------------------------
      1          6           0       -0.544081    0.816204    1.495581
      2          1           0       -0.354129   -0.253352    1.384704
      3          1           0       -0.270849    1.095879    2.514810
      4          1           0        0.122759    1.348820    0.811352
      5          6           0       -2.005705    1.149127    1.192958
      6          1           0       -2.652619    0.651685    1.923802
      7          1           0       -2.270939    0.741901    0.212849
      8          6           0       -2.301440    2.651750    1.203048
      9          1           0       -1.684516    3.143485    0.442996
     10          1           0       -3.343449    2.810242    0.909971
     11          6           0       -2.057061    3.309280    2.561979
     12          1           0       -2.369490    4.355531    2.553571
     13          1           0       -2.621341    2.796178    3.346097
     14          1           0       -1.001054    3.282523    2.837359
 ---------------------------------------------------------------------
                    Distance matrix (angstroms):
                    1          2          3          4          5
     1  C    0.000000
     2  H    1.091936   0.000000
     3  H    1.091651   1.761958   0.000000
     4  H    1.093858   1.767232   1.766543   0.000000
     5  C    1.529301   2.175182   2.181709   2.171602   0.000000
     6  H    2.157862   2.528393   2.493878   3.070222   1.095481
     7  H    2.152432   2.457221   3.069966   2.540934   1.093982
     8  C    2.557952   3.502090   2.874849   2.779891   1.531482
     9  H    2.797279   3.767658   3.237833   2.573471   2.154779
    10  H    3.486487   4.306624   3.867224   3.762988   2.151499
    11  C    3.105116   4.120473   2.844631   3.414633   2.557952
    12  H    4.120473   5.164274   3.877000   4.276324   3.502090
    13  H    3.414633   4.276324   3.017759   4.006228   2.779891
    14  H    2.844631   3.877000   2.327799   3.017759   2.874849
                    6          7          8          9         10
     6  H    0.000000
     7  H    1.755328   0.000000
     8  C    2.154779   2.151499   0.000000
     9  H    3.055990   2.482834   1.095481   0.000000
    10  H    2.482834   2.431931   1.093982   1.755328   0.000000
    11  C    2.797279   3.486487   1.529301   2.157862   2.152432
    12  H    3.767658   4.306624   2.175182   2.528393   2.457222
    13  H    2.573471   3.762988   2.171602   3.070222   2.540934
    14  H    3.237833   3.867224   2.181709   2.493878   3.069966
                   11         12         13         14
    11  C    0.000000
    12  H    1.091936   0.000000
    13  H    1.093858   1.767232   0.000000
    14  H    1.091651   1.761958   1.766543   0.000000
 Stoichiometry    C4H10
 Framework group  C1[X(C4H10)]
 Deg. of freedom    36
 Full point group                 C1      NOp   1
 RotChk:  IX=2 Diff= 3.48D-04
 Largest Abelian subgroup         C1      NOp   1
 Largest concise Abelian subgroup C1      NOp   1
                         Standard orientation:                         
 ---------------------------------------------------------------------
 Center     Atomic      Atomic             Coordinates (Angstroms)
 Number     Number       Type             X           Y           Z
 ---------------------------------------------------------------------
      1          6           0       -1.547577   -0.566674   -0.124265
      2          1           0       -2.570104   -0.480401    0.248988
      3          1           0       -1.135280   -1.503005    0.256521
      4          1           0       -1.592710   -0.638919   -1.214801
      5          6           0       -0.703471    0.635051    0.302470
      6          1           0       -0.623833    0.656176    1.394848
      7          1           0       -1.215934    1.555887    0.008805
      8          6           0        0.703471    0.635051   -0.302470
      9          1           0        0.623833    0.656176   -1.394848
     10          1           0        1.215934    1.555888   -0.008805
     11          6           0        1.547577   -0.566674    0.124265
     12          1           0        2.570104   -0.480401   -0.248988
     13          1           0        1.592710   -0.638919    1.214801
     14          1           0        1.135279   -1.503005   -0.256521
 ---------------------------------------------------------------------
 Rotational constants (GHZ):          13.0647095           4.8656403           4.1050853
 Leave Link  202 at Wed Aug 12 19:12:01 2026, MaxMem= 12884901888 cpu:               0.2 elap:               0.0
 (Enter /home/falbo/g16/l301.exe)
 Standard basis: 6-31+G(d) (6D, 7F)
 Ernie: Thresh=  0.10000D-02 Tol=  0.10000D-05 Strict=F.
 There are    96 symmetry adapted cartesian basis functions of A   symmetry.
 There are    96 symmetry adapted basis functions of A   symmetry.
    96 basis functions,   168 primitive gaussians,    96 cartesian basis functions
    17 alpha electrons       17 beta electrons
       nuclear repulsion energy       132.7498515579 Hartrees.
 IExCor= 3428 DFT=T Ex+Corr=M052X ExCW=0 ScaHFX=  0.560000
 ScaDFX=  0.440000  0.440000  1.000000  1.000000 ScalE2=  1.000000  1.000000
 IRadAn=      5 IRanWt=     -1 IRanGd=            0 ICorTp=0 IEmpDi=  4
 NAtoms=   14 NActive=   14 NUniq=   14 SFac= 1.00D+00 NAtFMM=   60 NAOKFM=F Big=F
 Integral buffers will be    131072 words long.
 Raffenetti 2 integral format.
 Two-electron integral symmetry is turned on.
 Leave Link  301 at Wed Aug 12 19:12:01 2026, MaxMem= 12884901888 cpu:               2.2 elap:               0.1
 (Enter /home/falbo/g16/l302.exe)
 NPDir=0 NMtPBC=     1 NCelOv=     1 NCel=       1 NClECP=     1 NCelD=      1
         NCelK=      1 NCelE2=     1 NClLst=     1 CellRange=     0.0.
 One-electron integrals computed using PRISM.
 One-electron integral symmetry used in STVInt
 NBasis=    96 RedAO= T EigKep=  1.66D-04  NBF=    96
 NBsUse=    96 1.00D-06 EigRej= -1.00D+00 NBFU=    96
 Precomputing XC quadrature grid using
 IXCGrd= 4 IRadAn=           5 IRanWt=          -1 IRanGd=           0 AccXCQ= 0.00D+00.
 Generated NRdTot=       0 NPtTot=           0 NUsed=           0 NTot=          32
 NSgBfM=    96    96    96    96    96 MxSgAt=    14 MxSgA2=    14.
 Leave Link  302 at Wed Aug 12 19:12:01 2026, MaxMem= 12884901888 cpu:               7.7 elap:               0.2
 (Enter /home/falbo/g16/l303.exe)
 DipDrv:  MaxL=1.
 Leave Link  303 at Wed Aug 12 19:12:01 2026, MaxMem= 12884901888 cpu:               0.9 elap:               0.0
 (Enter /home/falbo/g16/l401.exe)
 Initial guess from the checkpoint file:  "02_conf_010.chk"
 B after Tr=    -0.000000    0.000000    0.000000
         Rot=    1.000000    0.000000   -0.000077    0.000000 Ang=   0.01 deg.
 Guess basis will be translated and rotated to current coordinates.
 JPrj=2 DoOrth=T DoCkMO=T.
 Leave Link  401 at Wed Aug 12 19:12:01 2026, MaxMem= 12884901888 cpu:               4.1 elap:               0.1
 (Enter /home/falbo/g16/l502.exe)
 Integral symmetry usage will be decided dynamically.
 Closed shell SCF:
 Using DIIS extrapolation, IDIIS=  1040.
 NGot= 12884901888 LenX= 12884877536 LenY= 12884867879
 Requested convergence on RMS density matrix=1.00D-08 within 128 cycles.
 Requested convergence on MAX density matrix=1.00D-06.
 Requested convergence on             energy=1.00D-06.
 No special actions if energy rises.
 Fock matrices will be formed incrementally for  20 cycles.

 Cycle   1  Pass 1  IDiag  1:
 FoFJK:  IHMeth= 1 ICntrl=       0 DoSepK=F KAlg= 0 I1Cent=           0 FoldK=F
 IRaf= 990000000 NMat=       1 IRICut=       1 DoRegI=T DoRafI=F ISym2E= 0 IDoP0=0 IntGTp=1.
 FoFCou: FMM=F IPFlag=           0 FMFlag=      100000 FMFlg1=           0
         NFxFlg=           0 DoJE=F BraDBF=F KetDBF=F FulRan=T
         wScrn=  0.000000 ICntrl=         0 IOpCl=  0 I1Cent=           0 NGrid=           0
         NMat0=    1 NMatS0=      1 NMatT0=    0 NMatD0=    1 NMtDS0=    0 NMtDT0=    0
 Symmetry not used in FoFCou.
 E= -158.417773136975    
 DIIS: error= 6.65D-05 at cycle   1 NSaved=   1.
 NSaved= 1 IEnMin= 1 EnMin= -158.417773136975     IErMin= 1 ErrMin= 6.65D-05
 ErrMax= 6.65D-05  0.00D+00 EMaxC= 1.00D-01 BMatC= 3.89D-07 BMatP= 3.89D-07
 IDIUse=1 WtCom= 1.00D+00 WtEn= 0.00D+00
 Coeff-Com:  0.100D+01
 Coeff:      0.100D+01
 Gap=     0.755 Goal=   None    Shift=    0.000
 RMSDP=9.53D-06 MaxDP=1.37D-04              OVMax= 2.34D-04

 Cycle   2  Pass 1  IDiag  1:
 RMSU=  9.52D-06    CP:  1.00D+00
 E= -158.417773893874     Delta-E=       -0.000000756899 Rises=F Damp=F
 DIIS: error= 1.24D-05 at cycle   2 NSaved=   2.
 NSaved= 2 IEnMin= 2 EnMin= -158.417773893874     IErMin= 2 ErrMin= 1.24D-05
 ErrMax= 1.24D-05  0.00D+00 EMaxC= 1.00D-01 BMatC= 1.55D-08 BMatP= 3.89D-07
 IDIUse=1 WtCom= 1.00D+00 WtEn= 0.00D+00
 Coeff-Com: -0.230D+00 0.123D+01
 Coeff:     -0.230D+00 0.123D+01
 Gap=     0.438 Goal=   None    Shift=    0.000
 RMSDP=3.21D-06 MaxDP=4.19D-05 DE=-7.57D-07 OVMax= 6.97D-05

 Cycle   3  Pass 1  IDiag  1:
 RMSU=  1.73D-06    CP:  1.00D+00  1.28D+00
 E= -158.417773933785     Delta-E=       -0.000000039911 Rises=F Damp=F
 DIIS: error= 6.16D-07 at cycle   3 NSaved=   3.
 NSaved= 3 IEnMin= 3 EnMin= -158.417773933785     IErMin= 3 ErrMin= 6.16D-07
 ErrMax= 6.16D-07  0.00D+00 EMaxC= 1.00D-01 BMatC= 8.46D-11 BMatP= 1.55D-08
 IDIUse=1 WtCom= 1.00D+00 WtEn= 0.00D+00
 Coeff-Com:  0.158D-01-0.119D+00 0.110D+01
 Coeff:      0.158D-01-0.119D+00 0.110D+01
 Gap=     0.438 Goal=   None    Shift=    0.000
 RMSDP=5.87D-07 MaxDP=9.09D-06 DE=-3.99D-08 OVMax= 6.09D-06

 Cycle   4  Pass 1  IDiag  1:
 RMSU=  3.13D-07    CP:  1.00D+00  1.32D+00  1.21D+00
 E= -158.417773934041     Delta-E=       -0.000000000257 Rises=F Damp=F
 DIIS: error= 2.55D-07 at cycle   4 NSaved=   4.
 NSaved= 4 IEnMin= 4 EnMin= -158.417773934041     IErMin= 4 ErrMin= 2.55D-07
 ErrMax= 2.55D-07  0.00D+00 EMaxC= 1.00D-01 BMatC= 6.88D-12 BMatP= 8.46D-11
 IDIUse=1 WtCom= 1.00D+00 WtEn= 0.00D+00
 Coeff-Com:  0.898D-02-0.563D-01 0.224D+00 0.823D+00
 Coeff:      0.898D-02-0.563D-01 0.224D+00 0.823D+00
 Gap=     0.438 Goal=   None    Shift=    0.000
 RMSDP=1.24D-07 MaxDP=2.21D-06 DE=-2.57D-10 OVMax= 8.79D-07

 Cycle   5  Pass 1  IDiag  1:
 RMSU=  8.22D-08    CP:  1.00D+00  1.33D+00  1.24D+00  1.17D+00
 E= -158.417773934050     Delta-E=       -0.000000000009 Rises=F Damp=F
 DIIS: error= 8.90D-08 at cycle   5 NSaved=   5.
 NSaved= 5 IEnMin= 5 EnMin= -158.417773934050     IErMin= 5 ErrMin= 8.90D-08
 ErrMax= 8.90D-08  0.00D+00 EMaxC= 1.00D-01 BMatC= 9.33D-13 BMatP= 6.88D-12
 IDIUse=1 WtCom= 1.00D+00 WtEn= 0.00D+00
 Coeff-Com:  0.259D-02-0.155D-01 0.336D-01 0.305D+00 0.674D+00
 Coeff:      0.259D-02-0.155D-01 0.336D-01 0.305D+00 0.674D+00
 Gap=     0.438 Goal=   None    Shift=    0.000
 RMSDP=2.51D-08 MaxDP=3.79D-07 DE=-9.21D-12 OVMax= 2.32D-07

 Cycle   6  Pass 1  IDiag  1:
 RMSU=  1.02D-08    CP:  1.00D+00  1.33D+00  1.24D+00  1.22D+00  1.04D+00
 E= -158.417773934051     Delta-E=       -0.000000000000 Rises=F Damp=F
 DIIS: error= 1.56D-08 at cycle   6 NSaved=   6.
 NSaved= 6 IEnMin= 6 EnMin= -158.417773934051     IErMin= 6 ErrMin= 1.56D-08
 ErrMax= 1.56D-08  0.00D+00 EMaxC= 1.00D-01 BMatC= 2.82D-14 BMatP= 9.33D-13
 IDIUse=1 WtCom= 1.00D+00 WtEn= 0.00D+00
 Coeff-Com:  0.142D-04 0.730D-04-0.734D-02 0.217D-01 0.164D+00 0.822D+00
 Coeff:      0.142D-04 0.730D-04-0.734D-02 0.217D-01 0.164D+00 0.822D+00
 Gap=     0.438 Goal=   None    Shift=    0.000
 RMSDP=9.22D-09 MaxDP=1.47D-07 DE=-3.98D-13 OVMax= 5.65D-08

 SCF Done:  E(RM052X) =  -158.417773934     A.U. after    6 cycles
            NFock=  6  Conv=0.92D-08     -V/T= 2.0100
 KE= 1.568452383092D+02 PE=-6.307158381264D+02 EE= 1.827029743253D+02
 Leave Link  502 at Wed Aug 12 19:12:03 2026, MaxMem= 12884901888 cpu:              74.2 elap:               1.6
 (Enter /home/falbo/g16/l801.exe)
 DoSCS=F DFT=T ScalE2(SS,OS)=  1.000000  1.000000
 Range of M.O.s used for correlation:     1    96
 NBasis=    96 NAE=    17 NBE=    17 NFC=     0 NFV=     0
 NROrb=     96 NOA=    17 NOB=    17 NVA=    79 NVB=    79

 **** Warning!!: The largest alpha MO coefficient is  0.22810374D+02

 Leave Link  801 at Wed Aug 12 19:12:03 2026, MaxMem= 12884901888 cpu:               0.8 elap:               0.0
 (Enter /home/falbo/g16/l1101.exe)
 Using compressed storage, NAtomX=    14.
 Will process     15 centers per pass.
 Leave Link 1101 at Wed Aug 12 19:12:03 2026, MaxMem= 12884901888 cpu:               6.1 elap:               0.2
 (Enter /home/falbo/g16/l1102.exe)
 Symmetrizing basis deriv contribution to polar:
 IMax=3 JMax=2 DiffMx= 0.00D+00
 Leave Link 1102 at Wed Aug 12 19:12:03 2026, MaxMem= 12884901888 cpu:               0.9 elap:               0.0
 (Enter /home/falbo/g16/l1110.exe)
 Forming Gx(P) for the SCF density, NAtomX=    14.
 Integral derivatives from FoFJK, PRISM(SPDF).
 Do as many integral derivatives as possible in FoFJK.
 G2DrvN: MDV=   12884900632.
 G2DrvN: will do    15 centers at a time, making    1 passes.
 Calling FoFCou, ICntrl=  3107 FMM=F I1Cent=   0 AccDes= 0.00D+00.
 FoFJK:  IHMeth= 1 ICntrl=    3107 DoSepK=F KAlg= 0 I1Cent=           0 FoldK=F
 IRaf=         0 NMat=       1 IRICut=       1 DoRegI=T DoRafI=F ISym2E= 0 IDoP0=0 IntGTp=1.
 FoFCou: FMM=F IPFlag=           0 FMFlag=      100000 FMFlg1=           0
         NFxFlg=           0 DoJE=F BraDBF=F KetDBF=F FulRan=T
         wScrn=  0.000000 ICntrl=      3107 IOpCl=  0 I1Cent=           0 NGrid=           0
         NMat0=    1 NMatS0=      1 NMatT0=    0 NMatD0=    1 NMtDS0=    0 NMtDT0=    0
 Symmetry not used in FoFCou.
 End of G2Drv F.D. properties file   721 does not exist.
 End of G2Drv F.D. properties file   722 does not exist.
 End of G2Drv F.D. properties file   788 does not exist.
 Leave Link 1110 at Wed Aug 12 19:12:08 2026, MaxMem= 12884901888 cpu:             217.4 elap:               4.6
 (Enter /home/falbo/g16/l1002.exe)
 Minotr:  Closed shell wavefunction.
          IDoAtm=11111111111111
          Direct CPHF calculation.
          Differentiating once with respect to electric field.
                with respect to dipole field.
          Differentiating once with respect to nuclear coordinates.
          Requested convergence is 1.0D-08 RMS, and 1.0D-07 maximum.
          Secondary convergence is 1.0D-12 RMS, and 1.0D-12 maximum.
          NewPWx=T KeepS1=F KeepF1=F KeepIn=T MapXYZ=F SortEE=F KeepMc=T.
         4271 words used for storage of precomputed grid.
 Keep R1 ints in memory in canonical form, NReq=55003831.
 FoFCou: FMM=F IPFlag=           0 FMFlag=           0 FMFlg1=           0
         NFxFlg=           0 DoJE=F BraDBF=F KetDBF=F FulRan=T
         wScrn=  0.000000 ICntrl=       600 IOpCl=  0 I1Cent=           0 NGrid=           0
         NMat0=    1 NMatS0=   4656 NMatT0=    0 NMatD0=    1 NMtDS0=    0 NMtDT0=    0
 Symmetry not used in FoFCou.
 Two-electron integral symmetry not used.
          MDV=   12884901888 using IRadAn=       1.
          Solving linear equations simultaneously, MaxMat=       0.
          There are    45 degrees of freedom in the 1st order CPHF.  IDoFFX=6 NUNeed=     3.
     42 vectors produced by pass  0 Test12= 2.98D-15 2.22D-09 XBig12= 1.84D+01 1.51D+00.
 AX will form    42 AO Fock derivatives at one time.
     42 vectors produced by pass  1 Test12= 2.98D-15 2.22D-09 XBig12= 5.52D-01 2.15D-01.
     42 vectors produced by pass  2 Test12= 2.98D-15 2.22D-09 XBig12= 2.26D-03 1.27D-02.
     42 vectors produced by pass  3 Test12= 2.98D-15 2.22D-09 XBig12= 9.27D-06 5.94D-04.
     42 vectors produced by pass  4 Test12= 2.98D-15 2.22D-09 XBig12= 2.95D-08 2.78D-05.
     40 vectors produced by pass  5 Test12= 2.98D-15 2.22D-09 XBig12= 7.77D-11 1.42D-06.
      6 vectors produced by pass  6 Test12= 2.98D-15 2.22D-09 XBig12= 1.64D-13 5.96D-08.
      2 vectors produced by pass  7 Test12= 2.98D-15 2.22D-09 XBig12= 3.42D-16 2.83D-09.
 InvSVY:  IOpt=1 It=  1 EMax= 9.77D-15
 Solved reduced A of dimension   258 with    45 vectors.
 FullF1:  Do perturbations      1 to       3.
 Isotropic polarizability for W=    0.000000       47.10 Bohr**3.
 End of Minotr F.D. properties file   721 does not exist.
 End of Minotr F.D. properties file   722 does not exist.
 End of Minotr F.D. properties file   788 does not exist.
 Leave Link 1002 at Wed Aug 12 19:12:14 2026, MaxMem= 12884901888 cpu:             302.6 elap:               6.4
 (Enter /home/falbo/g16/l701.exe)
 ... and contract with generalized density number  0.
 Compute integral second derivatives.
 Leave Link  701 at Wed Aug 12 19:12:15 2026, MaxMem= 12884901888 cpu:               8.8 elap:               0.2
 (Enter /home/falbo/g16/l702.exe)
 L702 exits ... SP integral derivatives will be done elsewhere.
 Leave Link  702 at Wed Aug 12 19:12:15 2026, MaxMem= 12884901888 cpu:               0.8 elap:               0.0
 (Enter /home/falbo/g16/l703.exe)
 Integral derivatives from FoFJK, PRISM(SPDF).
 Compute integral second derivatives, UseDBF=F ICtDFT=           0.
 Calling FoFJK, ICntrl=    100127 FMM=F ISym2X=0 I1Cent= 0 IOpClX= 0 NMat=1 NMatS=1 NMatT=0.
 FoFJK:  IHMeth= 1 ICntrl=  100127 DoSepK=F KAlg= 0 I1Cent=           0 FoldK=F
 IRaf=         0 NMat=       1 IRICut=       1 DoRegI=T DoRafI=F ISym2E= 0 IDoP0=0 IntGTp=1.
 FoFCou: FMM=F IPFlag=           0 FMFlag=      100000 FMFlg1=         800
         NFxFlg=           0 DoJE=F BraDBF=F KetDBF=F FulRan=T
         wScrn=  0.000000 ICntrl=    100127 IOpCl=  0 I1Cent=           0 NGrid=           0
         NMat0=    1 NMatS0=      1 NMatT0=    0 NMatD0=    1 NMtDS0=    0 NMtDT0=    0
 Symmetry not used in FoFCou.
 Leave Link  703 at Wed Aug 12 19:12:19 2026, MaxMem= 12884901888 cpu:             204.3 elap:               4.3
 (Enter /home/falbo/g16/l716.exe)
 Dipole        =-3.69456452D-09 3.76327522D-02 6.40800846D-09
 Polarizability= 5.08774263D+01-1.25795778D-07 4.60027286D+01
                -1.64709690D-01 1.56942334D-08 4.44103514D+01
 ***** Axes restored to original set *****
 -------------------------------------------------------------------
 Center     Atomic                   Forces (Hartrees/Bohr)
 Number     Number              X              Y              Z
 -------------------------------------------------------------------
      1        6           0.000000368    0.000000512   -0.000000315
      2        1           0.000000833    0.000000648   -0.000001100
      3        1           0.000000475   -0.000000060   -0.000000541
      4        1           0.000000158    0.000001206   -0.000000345
      5        6           0.000000290    0.000000340   -0.000000331
      6        1           0.000000484   -0.000000455   -0.000000443
      7        1           0.000000410    0.000000482   -0.000000548
      8        6          -0.000000256   -0.000000335    0.000000369
      9        1          -0.000000517    0.000000450    0.000000410
     10        1          -0.000000443   -0.000000487    0.000000517
     11        6          -0.000000207   -0.000000478    0.000000468
     12        1          -0.000000948   -0.000000672    0.000000985
     13        1          -0.000000106   -0.000001198    0.000000395
     14        1          -0.000000540    0.000000048    0.000000479
 -------------------------------------------------------------------
 Cartesian Forces:  Max     0.000001206 RMS     0.000000560
 FormGI is forming the generalized inverse of G from B-inverse, IUseBI=4.
 Leave Link  716 at Wed Aug 12 19:12:19 2026, MaxMem= 12884901888 cpu:               1.3 elap:               0.1
 (Enter /home/falbo/g16/l103.exe)

 GradGradGradGradGradGradGradGradGradGradGradGradGradGradGradGradGradGrad
 Berny optimization.
 Using GEDIIS/GDIIS optimizer.
 Red2BG is reusing G-inverse.
 Internal  Forces:  Max     0.000000530 RMS     0.000000158
 Search for a local minimum.
 Step number   4 out of a maximum of   74
 All quantities printed in internal units (Hartrees-Bohrs-Radians)
 RMS Force = .15755D-06 SwitMx=.10000D-02 MixMth= 2
 Mixed Optimization -- En-DIIS/RFO-DIIS
 Swapping is turned off.
 Second derivative matrix not updated -- analytic derivatives used.
 DE= -1.10D-08 DEPred=-2.13D-08 R= 5.18D-01
 Trust test= 5.18D-01 RLast= 4.79D-03 DXMaxT set to 1.98D-01
 ITU=  0  1  1  0
     Eigenvalues ---    0.00176   0.00209   0.00361   0.03403   0.03890
     Eigenvalues ---    0.04046   0.04230   0.04707   0.04766   0.04793
     Eigenvalues ---    0.04967   0.07225   0.07415   0.10234   0.11349
     Eigenvalues ---    0.12613   0.12733   0.13758   0.14835   0.16045
     Eigenvalues ---    0.16458   0.22161   0.22941   0.29780   0.30675
     Eigenvalues ---    0.32458   0.33886   0.33960   0.34679   0.34716
     Eigenvalues ---    0.34837   0.34981   0.35079   0.35700   0.35993
     Eigenvalues ---    0.36138
 En-DIIS/RFO-DIIS/Sim-DIIS IScMMF=       -3 using points:     4    3    2
 RFO step:  Lambda=-1.00344048D-11.
 NNeg= 0 NGDIIS= 3 SimSw=  2.50D-01 Rises=F DC= -1.10D-08 SmlDif=  1.00D-05
 NRisDI= 0 DoIntr=F SqrtH=F CThrHd= 10.0 CDAdj=  3.0
 RMS Error=  0.3154377089D-04 NUsed= 3 OKEnD=F EnDIS=F
 InvSVX:  RCond= 5.60D-07 Info=           0 Equed=N FErr=  1.89D-15 BErr=  7.13D-17
 DidBck=F Rises=F RFO-DIIS coefs:    0.96032    0.04064   -0.00095
 Iteration  1 RMS(Cart)=  0.00004728 RMS(Int)=  0.00000000
 Iteration  2 RMS(Cart)=  0.00000000 RMS(Int)=  0.00000000
 ITry= 1 IFail=0 DXMaxC= 1.60D-04 DCOld= 1.00D+10 DXMaxT= 1.98D-01 DXLimC= 3.00D+00 Rises=F
 Variable       Old X    -DE/DX   Delta X   Delta X   Delta X     New X
                                 (Linear)    (Quad)   (Total)
    R1        2.06346  -0.00000  -0.00000  -0.00000  -0.00000   2.06346
    R2        2.06292  -0.00000  -0.00000   0.00000  -0.00000   2.06292
    R3        2.06709   0.00000   0.00000   0.00000   0.00000   2.06709
    R4        2.88996  -0.00000  -0.00000   0.00000  -0.00000   2.88996
    R5        2.07016   0.00000   0.00000   0.00000   0.00000   2.07016
    R6        2.06733   0.00000   0.00000  -0.00000   0.00000   2.06733
    R7        2.89408  -0.00000  -0.00000  -0.00000  -0.00000   2.89408
    R8        2.07016   0.00000   0.00000   0.00000   0.00000   2.07016
    R9        2.06733   0.00000   0.00000  -0.00000   0.00000   2.06733
   R10        2.88996  -0.00000  -0.00000   0.00000  -0.00000   2.88996
   R11        2.06346  -0.00000  -0.00000  -0.00000  -0.00000   2.06346
   R12        2.06709   0.00000   0.00000   0.00000   0.00000   2.06709
   R13        2.06292  -0.00000  -0.00000   0.00000  -0.00000   2.06292
    A1        1.87780  -0.00000   0.00000  -0.00000   0.00000   1.87780
    A2        1.88322   0.00000  -0.00000   0.00000   0.00000   1.88322
    A3        1.93842  -0.00000  -0.00000  -0.00000  -0.00000   1.93842
    A4        1.88251  -0.00000   0.00000  -0.00000  -0.00000   1.88251
    A5        1.94787   0.00000   0.00000  -0.00000   0.00000   1.94787
    A6        1.93143  -0.00000  -0.00000   0.00000   0.00000   1.93143
    A7        1.91084  -0.00000   0.00000  -0.00000  -0.00000   1.91084
    A8        1.90495  -0.00000   0.00000   0.00000   0.00000   1.90495
    A9        1.97888   0.00000   0.00000   0.00000   0.00000   1.97888
   A10        1.86032   0.00000   0.00000   0.00000   0.00000   1.86032
   A11        1.90403  -0.00000  -0.00000   0.00000   0.00000   1.90403
   A12        1.90108  -0.00000  -0.00000  -0.00000  -0.00000   1.90108
   A13        1.90403  -0.00000  -0.00000   0.00000   0.00000   1.90403
   A14        1.90108  -0.00000  -0.00000  -0.00000  -0.00000   1.90108
   A15        1.97888   0.00000   0.00000   0.00000   0.00000   1.97888
   A16        1.86032   0.00000   0.00000  -0.00000   0.00000   1.86032
   A17        1.91084  -0.00000   0.00000  -0.00000  -0.00000   1.91084
   A18        1.90495  -0.00000   0.00000   0.00000   0.00000   1.90495
   A19        1.93842  -0.00000  -0.00000  -0.00000  -0.00000   1.93842
   A20        1.93143  -0.00000  -0.00000   0.00000   0.00000   1.93143
   A21        1.94787   0.00000   0.00000  -0.00000   0.00000   1.94787
   A22        1.88322   0.00000  -0.00000   0.00000   0.00000   1.88322
   A23        1.87780  -0.00000   0.00000  -0.00000   0.00000   1.87780
   A24        1.88251  -0.00000   0.00000  -0.00000  -0.00000   1.88251
    D1        1.10621   0.00000   0.00005  -0.00000   0.00005   1.10625
    D2       -0.92397   0.00000   0.00004  -0.00000   0.00004  -0.92393
    D3       -3.04644   0.00000   0.00005  -0.00000   0.00005  -3.04640
    D4       -0.98916   0.00000   0.00005   0.00000   0.00005  -0.98911
    D5       -3.01934   0.00000   0.00004   0.00000   0.00004  -3.01929
    D6        1.14138   0.00000   0.00005   0.00000   0.00005   1.14143
    D7       -3.08574   0.00000   0.00004   0.00000   0.00005  -3.08569
    D8        1.16727   0.00000   0.00004   0.00000   0.00004   1.16731
    D9       -0.95520   0.00000   0.00005   0.00000   0.00005  -0.95516
   D10        1.04808   0.00000   0.00005   0.00000   0.00005   1.04814
   D11        3.07231   0.00000   0.00005   0.00000   0.00005   3.07236
   D12       -1.08624   0.00000   0.00005   0.00000   0.00006  -1.08619
   D13       -3.10078   0.00000   0.00006  -0.00000   0.00005  -3.10072
   D14       -1.07655   0.00000   0.00005  -0.00000   0.00005  -1.07650
   D15        1.04808   0.00000   0.00005   0.00000   0.00006   1.04814
   D16       -1.07655   0.00000   0.00005  -0.00000   0.00005  -1.07650
   D17        0.94768  -0.00000   0.00005  -0.00000   0.00005   0.94773
   D18        3.07231   0.00000   0.00005   0.00000   0.00005   3.07236
   D19       -3.04644   0.00000   0.00005  -0.00000   0.00005  -3.04640
   D20       -0.95520   0.00000   0.00005   0.00000   0.00005  -0.95516
   D21        1.14138   0.00000   0.00005  -0.00000   0.00005   1.14143
   D22        1.10621   0.00000   0.00005  -0.00000   0.00005   1.10625
   D23       -3.08574   0.00000   0.00005   0.00000   0.00005  -3.08569
   D24       -0.98916   0.00000   0.00005  -0.00000   0.00005  -0.98911
   D25       -0.92397   0.00000   0.00004  -0.00000   0.00004  -0.92393
   D26        1.16727   0.00000   0.00004   0.00000   0.00004   1.16731
   D27       -3.01934   0.00000   0.00004   0.00000   0.00004  -3.01929
         Item               Value     Threshold  Converged?
 Maximum Force            0.000001     0.000015     YES
 RMS     Force            0.000000     0.000010     YES
 Maximum Displacement     0.000160     0.000060     NO 
 RMS     Displacement     0.000047     0.000040     NO 
 Predicted change in Energy=-5.992347D-11
 Lowest energy point so far.  Saving SCF results.
 GradGradGradGradGradGradGradGradGradGradGradGradGradGradGradGradGradGrad

 Leave Link  103 at Wed Aug 12 19:12:19 2026, MaxMem= 12884901888 cpu:               3.1 elap:               0.1
 (Enter /home/falbo/g16/l202.exe)
                          Input orientation:                          
 ---------------------------------------------------------------------
 Center     Atomic      Atomic             Coordinates (Angstroms)
 Number     Number       Type             X           Y           Z
 ---------------------------------------------------------------------
      1          6           0       -0.544094    0.816203    1.495607
      2          1           0       -0.354126   -0.253344    1.384680
      3          1           0       -0.270901    1.095828    2.514860
      4          1           0        0.122766    1.348863    0.811430
      5          6           0       -2.005710    1.149126    1.192948
      6          1           0       -2.652641    0.651676    1.923770
      7          1           0       -2.270919    0.741911    0.212827
      8          6           0       -2.301450    2.651747    1.203043
      9          1           0       -1.684549    3.143484    0.442973
     10          1           0       -3.343468    2.810232    0.909993
     11          6           0       -2.057037    3.309282    2.561966
     12          1           0       -2.369512    4.355520    2.553576
     13          1           0       -2.621257    2.796152    3.346108
     14          1           0       -1.001015    3.282572    2.837296
 ---------------------------------------------------------------------
                    Distance matrix (angstroms):
                    1          2          3          4          5
     1  C    0.000000
     2  H    1.091936   0.000000
     3  H    1.091651   1.761958   0.000000
     4  H    1.093858   1.767232   1.766543   0.000000
     5  C    1.529301   2.175181   2.181709   2.171603   0.000000
     6  H    2.157861   2.528409   2.493861   3.070221   1.095481
     7  H    2.152433   2.457207   3.069965   2.540953   1.093982
     8  C    2.557952   3.502088   2.874871   2.779873   1.531481
     9  H    2.797304   3.767662   3.237902   2.573482   2.154778
    10  H    3.486487   4.306622   3.867228   3.762990   2.151496
    11  C    3.105086   4.120462   2.844623   3.414551   2.557952
    12  H    4.120462   5.164273   3.877017   4.276272   3.502088
    13  H    3.414551   4.276272   3.017656   4.006108   2.779873
    14  H    2.844623   3.877017   2.327849   3.017656   2.874871
                    6          7          8          9         10
     6  H    0.000000
     7  H    1.755329   0.000000
     8  C    2.154778   2.151496   0.000000
     9  H    3.055989   2.482811   1.095481   0.000000
    10  H    2.482811   2.431945   1.093982   1.755329   0.000000
    11  C    2.797304   3.486487   1.529301   2.157861   2.152433
    12  H    3.767662   4.306622   2.175181   2.528409   2.457207
    13  H    2.573482   3.762990   2.171603   3.070221   2.540953
    14  H    3.237902   3.867228   2.181709   2.493861   3.069965
                   11         12         13         14
    11  C    0.000000
    12  H    1.091936   0.000000
    13  H    1.093858   1.767232   0.000000
    14  H    1.091651   1.761958   1.766543   0.000000
 Stoichiometry    C4H10
 Framework group  C2[X(C4H10)]
 Deg. of freedom    19
 Full point group                 C2      NOp   2
 Omega: Change in point group or standard orientation.

 Old FWG=C01  [X(C4H10)]
 New FWG=C02  [X(C4H10)]
 RotChk:  IX=0 Diff= 2.26D+00
 Largest Abelian subgroup         C2      NOp   2
 Largest concise Abelian subgroup C2      NOp   2
                         Standard orientation:                         
 ---------------------------------------------------------------------
 Center     Atomic      Atomic             Coordinates (Angstroms)
 Number     Number       Type             X           Y           Z
 ---------------------------------------------------------------------
      1          6           0       -0.587308    1.437171   -0.566684
      2          1           0       -1.381698    2.181362   -0.480388
      3          1           0       -0.741196    0.897412   -1.502996
      4          1           0        0.365594    1.969407   -0.638984
      5          6           0       -0.587308    0.491353    0.635061
      6          1           0       -1.526272   -0.072542    0.656215
      7          1           0       -0.556405    1.081204    1.555886
      8          6           0        0.587308   -0.491353    0.635061
      9          1           0        1.526272    0.072542    0.656215
     10          1           0        0.556405   -1.081204    1.555886
     11          6           0        0.587308   -1.437171   -0.566684
     12          1           0        1.381698   -2.181362   -0.480388
     13          1           0       -0.365594   -1.969407   -0.638984
     14          1           0        0.741196   -0.897412   -1.502996
 ---------------------------------------------------------------------
 Rotational constants (GHZ):          13.0645538           4.8657083           4.1050998
 Leave Link  202 at Wed Aug 12 19:12:19 2026, MaxMem= 12884901888 cpu:               0.9 elap:               0.0
 (Enter /home/falbo/g16/l301.exe)
 Standard basis: 6-31+G(d) (6D, 7F)
 Ernie: Thresh=  0.10000D-02 Tol=  0.10000D-05 Strict=F.
 There are    48 symmetry adapted cartesian basis functions of A   symmetry.
 There are    48 symmetry adapted cartesian basis functions of B   symmetry.
 There are    48 symmetry adapted basis functions of A   symmetry.
 There are    48 symmetry adapted basis functions of B   symmetry.
    96 basis functions,   168 primitive gaussians,    96 cartesian basis functions
    17 alpha electrons       17 beta electrons
       nuclear repulsion energy       132.7499602925 Hartrees.
 IExCor= 3428 DFT=T Ex+Corr=M052X ExCW=0 ScaHFX=  0.560000
 ScaDFX=  0.440000  0.440000  1.000000  1.000000 ScalE2=  1.000000  1.000000
 IRadAn=      5 IRanWt=     -1 IRanGd=            0 ICorTp=0 IEmpDi=  4
 NAtoms=   14 NActive=   14 NUniq=    7 SFac= 4.00D+00 NAtFMM=   60 NAOKFM=F Big=F
 Integral buffers will be    131072 words long.
 Raffenetti 2 integral format.
 Two-electron integral symmetry is turned on.
 Leave Link  301 at Wed Aug 12 19:12:19 2026, MaxMem= 12884901888 cpu:               2.3 elap:               0.1
 (Enter /home/falbo/g16/l302.exe)
 NPDir=0 NMtPBC=     1 NCelOv=     1 NCel=       1 NClECP=     1 NCelD=      1
         NCelK=      1 NCelE2=     1 NClLst=     1 CellRange=     0.0.
 One-electron integrals computed using PRISM.
 One-electron integral symmetry used in STVInt
 NBasis=    96 RedAO= T EigKep=  1.66D-04  NBF=    48    48
 NBsUse=    96 1.00D-06 EigRej= -1.00D+00 NBFU=    48    48
 Precomputing XC quadrature grid using
 IXCGrd= 4 IRadAn=           5 IRanWt=          -1 IRanGd=           0 AccXCQ= 0.00D+00.
 Generated NRdTot=       0 NPtTot=           0 NUsed=           0 NTot=          32
 NSgBfM=    96    96    96    96    96 MxSgAt=    14 MxSgA2=    14.
 Leave Link  302 at Wed Aug 12 19:12:20 2026, MaxMem= 12884901888 cpu:               9.0 elap:               0.2
 (Enter /home/falbo/g16/l303.exe)
 DipDrv:  MaxL=1.
 Leave Link  303 at Wed Aug 12 19:12:20 2026, MaxMem= 12884901888 cpu:               0.9 elap:               0.0
 (Enter /home/falbo/g16/l401.exe)
 Initial guess from the checkpoint file:  "02_conf_010.chk"
 B after Tr=    -0.000000    0.000000   -0.000000
         Rot=    0.602320   -0.602320    0.370420    0.370420 Ang=-105.93 deg.
 Guess basis will be translated and rotated to current coordinates.
 JPrj=2 DoOrth=T DoCkMO=T.
 Initial guess orbital symmetries:
       Occupied  (A) (B) (B) (A) (A) (B) (A) (B) (B) (A) (A) (A)
                 (B) (B) (A) (B) (A)
       Virtual   (A) (A) (B) (B) (B) (B) (A) (A) (A) (A) (B) (B)
                 (A) (B) (B) (A) (A) (A) (B) (B) (A) (B) (B) (A)
                 (B) (A) (B) (B) (A) (A) (B) (A) (B) (A) (B) (A)
                 (B) (A) (B) (A) (B) (A) (B) (B) (A) (A) (B) (A)
                 (A) (B) (A) (B) (B) (B) (A) (A) (B) (B) (A) (A)
                 (B) (A) (B) (A) (A) (B) (A) (B) (A) (B) (B) (A)
                 (B) (A) (B) (A) (B) (A) (B)
 The electronic state of the initial guess is 1-A.
 Leave Link  401 at Wed Aug 12 19:12:20 2026, MaxMem= 12884901888 cpu:               4.3 elap:               0.1
 (Enter /home/falbo/g16/l502.exe)
 Integral symmetry usage will be decided dynamically.
 Closed shell SCF:
 Using DIIS extrapolation, IDIIS=  1040.
 NGot= 12884901888 LenX= 12884877300 LenY= 12884867643
 Requested convergence on RMS density matrix=1.00D-08 within 128 cycles.
 Requested convergence on MAX density matrix=1.00D-06.
 Requested convergence on             energy=1.00D-06.
 No special actions if energy rises.
 Fock matrices will be formed incrementally for  20 cycles.

 Cycle   1  Pass 1  IDiag  1:
 FoFJK:  IHMeth= 1 ICntrl=       0 DoSepK=F KAlg= 0 I1Cent=           0 FoldK=F
 IRaf= 990000000 NMat=       1 IRICut=       1 DoRegI=T DoRafI=F ISym2E= 1 IDoP0=0 IntGTp=1.
 FoFCou: FMM=F IPFlag=           0 FMFlag=      100000 FMFlg1=           0
         NFxFlg=           0 DoJE=F BraDBF=F KetDBF=F FulRan=T
         wScrn=  0.000000 ICntrl=         0 IOpCl=  0 I1Cent=           0 NGrid=           0
         NMat0=    1 NMatS0=      1 NMatT0=    0 NMatD0=    1 NMtDS0=    0 NMtDT0=    0
 Petite list used in FoFCou.
 E= -158.417763389063    
 DIIS: error= 3.27D-06 at cycle   1 NSaved=   1.
 NSaved= 1 IEnMin= 1 EnMin= -158.417763389063     IErMin= 1 ErrMin= 3.27D-06
 ErrMax= 3.27D-06  0.00D+00 EMaxC= 1.00D-01 BMatC= 1.60D-09 BMatP= 1.60D-09
 IDIUse=1 WtCom= 1.00D+00 WtEn= 0.00D+00
 Coeff-Com:  0.100D+01
 Coeff:      0.100D+01
 Gap=     0.438 Goal=   None    Shift=    0.000
 RMSDP=8.85D-07 MaxDP=7.66D-06              OVMax= 1.41D-05

 Cycle   2  Pass 1  IDiag  1:
 RMSU=  8.85D-07    CP:  1.00D+00
 E= -158.417763391918     Delta-E=       -0.000000002855 Rises=F Damp=F
 DIIS: error= 7.69D-07 at cycle   2 NSaved=   2.
 NSaved= 2 IEnMin= 2 EnMin= -158.417763391918     IErMin= 2 ErrMin= 7.69D-07
 ErrMax= 7.69D-07  0.00D+00 EMaxC= 1.00D-01 BMatC= 5.88D-11 BMatP= 1.60D-09
 IDIUse=1 WtCom= 1.00D+00 WtEn= 0.00D+00
 Coeff-Com: -0.158D+00 0.116D+01
 Coeff:     -0.158D+00 0.116D+01
 Gap=     0.438 Goal=   None    Shift=    0.000
 RMSDP=2.45D-07 MaxDP=3.66D-06 DE=-2.86D-09 OVMax= 3.71D-06

 Cycle   3  Pass 1  IDiag  1:
 RMSU=  1.85D-07    CP:  1.00D+00  1.18D+00
 E= -158.417763392047     Delta-E=       -0.000000000129 Rises=F Damp=F
 DIIS: error= 1.40D-07 at cycle   3 NSaved=   3.
 NSaved= 3 IEnMin= 3 EnMin= -158.417763392047     IErMin= 3 ErrMin= 1.40D-07
 ErrMax= 1.40D-07  0.00D+00 EMaxC= 1.00D-01 BMatC= 3.75D-12 BMatP= 5.88D-11
 IDIUse=1 WtCom= 1.00D+00 WtEn= 0.00D+00
 Coeff-Com: -0.466D-01 0.223D+00 0.824D+00
 Coeff:     -0.466D-01 0.223D+00 0.824D+00
 Gap=     0.438 Goal=   None    Shift=    0.000
 RMSDP=3.79D-08 MaxDP=3.15D-07 DE=-1.29D-10 OVMax= 5.65D-07

 Cycle   4  Pass 1  IDiag  1:
 RMSU=  3.49D-08    CP:  1.00D+00  1.20D+00  1.01D+00
 E= -158.417763392052     Delta-E=       -0.000000000005 Rises=F Damp=F
 DIIS: error= 6.80D-08 at cycle   4 NSaved=   4.
 NSaved= 4 IEnMin= 4 EnMin= -158.417763392052     IErMin= 4 ErrMin= 6.80D-08
 ErrMax= 6.80D-08  0.00D+00 EMaxC= 1.00D-01 BMatC= 3.96D-13 BMatP= 3.75D-12
 IDIUse=1 WtCom= 1.00D+00 WtEn= 0.00D+00
 Coeff-Com: -0.268D-02-0.122D-01 0.205D+00 0.810D+00
 Coeff:     -0.268D-02-0.122D-01 0.205D+00 0.810D+00
 Gap=     0.438 Goal=   None    Shift=    0.000
 RMSDP=1.35D-08 MaxDP=1.49D-07 DE=-4.95D-12 OVMax= 2.07D-07

 Cycle   5  Pass 1  IDiag  1:
 RMSU=  1.04D-08    CP:  1.00D+00  1.20D+00  1.06D+00  1.04D+00
 E= -158.417763392051     Delta-E=        0.000000000002 Rises=F Damp=F
 DIIS: error= 1.84D-08 at cycle   5 NSaved=   5.
 NSaved= 5 IEnMin= 4 EnMin= -158.417763392052     IErMin= 5 ErrMin= 1.84D-08
 ErrMax= 1.84D-08  0.00D+00 EMaxC= 1.00D-01 BMatC= 5.06D-14 BMatP= 3.96D-13
 IDIUse=1 WtCom= 1.00D+00 WtEn= 0.00D+00
 Coeff-Com:  0.240D-02-0.216D-01 0.518D-02 0.291D+00 0.723D+00
 Coeff:      0.240D-02-0.216D-01 0.518D-02 0.291D+00 0.723D+00
 Gap=     0.438 Goal=   None    Shift=    0.000
 RMSDP=5.73D-09 MaxDP=7.68D-08 DE= 1.65D-12 OVMax= 5.52D-08

 SCF Done:  E(RM052X) =  -158.417763392     A.U. after    5 cycles
            NFock=  5  Conv=0.57D-08     -V/T= 2.0100
 KE= 1.568452768412D+02 PE=-6.307161030323D+02 EE= 1.827031025066D+02
 Leave Link  502 at Wed Aug 12 19:12:21 2026, MaxMem= 12884901888 cpu:              49.3 elap:               1.1
 (Enter /home/falbo/g16/l801.exe)
 DoSCS=F DFT=T ScalE2(SS,OS)=  1.000000  1.000000
 Range of M.O.s used for correlation:     1    96
 NBasis=    96 NAE=    17 NBE=    17 NFC=     0 NFV=     0
 NROrb=     96 NOA=    17 NOB=    17 NVA=    79 NVB=    79

 **** Warning!!: The largest alpha MO coefficient is  0.22809889D+02

 Leave Link  801 at Wed Aug 12 19:12:21 2026, MaxMem= 12884901888 cpu:               0.8 elap:               0.0
 (Enter /home/falbo/g16/l1101.exe)
 Using compressed storage, NAtomX=    14.
 Will process     15 centers per pass.
 Leave Link 1101 at Wed Aug 12 19:12:21 2026, MaxMem= 12884901888 cpu:               6.1 elap:               0.2
 (Enter /home/falbo/g16/l1102.exe)
 Symmetrizing basis deriv contribution to polar:
 IMax=3 JMax=2 DiffMx= 0.00D+00
 Leave Link 1102 at Wed Aug 12 19:12:21 2026, MaxMem= 12884901888 cpu:               0.9 elap:               0.0
 (Enter /home/falbo/g16/l1110.exe)
 Forming Gx(P) for the SCF density, NAtomX=    14.
 Integral derivatives from FoFJK, PRISM(SPDF).
 Do as many integral derivatives as possible in FoFJK.
 G2DrvN: MDV=   12884900632.
 G2DrvN: will do    15 centers at a time, making    1 passes.
 Calling FoFCou, ICntrl=  3107 FMM=F I1Cent=   0 AccDes= 0.00D+00.
 FoFJK:  IHMeth= 1 ICntrl=    3107 DoSepK=F KAlg= 0 I1Cent=           0 FoldK=F
 IRaf=         0 NMat=       1 IRICut=       1 DoRegI=T DoRafI=F ISym2E= 1 IDoP0=0 IntGTp=1.
 FoFCou: FMM=F IPFlag=           0 FMFlag=      100000 FMFlg1=           0
         NFxFlg=           0 DoJE=F BraDBF=F KetDBF=F FulRan=T
         wScrn=  0.000000 ICntrl=      3107 IOpCl=  0 I1Cent=           0 NGrid=           0
         NMat0=    1 NMatS0=      1 NMatT0=    0 NMatD0=    1 NMtDS0=    0 NMtDT0=    0
 Petite list used in FoFCou.
 End of G2Drv F.D. properties file   721 does not exist.
 End of G2Drv F.D. properties file   722 does not exist.
 End of G2Drv F.D. properties file   788 does not exist.
 Leave Link 1110 at Wed Aug 12 19:12:24 2026, MaxMem= 12884901888 cpu:             136.7 elap:               2.9
 (Enter /home/falbo/g16/l1002.exe)
 Minotr:  Closed shell wavefunction.
          IDoAtm=11111111111111
          Direct CPHF calculation.
          Differentiating once with respect to electric field.
                with respect to dipole field.
          Differentiating once with respect to nuclear coordinates.
          Using symmetry in CPHF.
          Requested convergence is 1.0D-08 RMS, and 1.0D-07 maximum.
          Secondary convergence is 1.0D-12 RMS, and 1.0D-12 maximum.
          NewPWx=T KeepS1=F KeepF1=F KeepIn=T MapXYZ=F SortEE=F KeepMc=T.
         4271 words used for storage of precomputed grid.
 Keep R1 ints in memory in symmetry-blocked form, NReq=55014061.
 FoFCou: FMM=F IPFlag=           0 FMFlag=           0 FMFlg1=           0
         NFxFlg=           0 DoJE=F BraDBF=F KetDBF=F FulRan=T
         wScrn=  0.000000 ICntrl=       600 IOpCl=  0 I1Cent=           0 NGrid=           0
         NMat0=    1 NMatS0=   4656 NMatT0=    0 NMatD0=    1 NMtDS0=    0 NMtDT0=    0
 Petite list used in FoFCou.
          MDV=   12884901888 using IRadAn=       1.
          Solving linear equations simultaneously, MaxMat=       0.
          There are    24 degrees of freedom in the 1st order CPHF.  IDoFFX=4 NUNeed=    24.
     24 vectors produced by pass  0 Test12= 5.60D-15 4.17D-09 XBig12= 1.83D+01 1.51D+00.
 AX will form    24 AO Fock derivatives at one time.
     24 vectors produced by pass  1 Test12= 5.60D-15 4.17D-09 XBig12= 8.11D-01 2.64D-01.
     24 vectors produced by pass  2 Test12= 5.60D-15 4.17D-09 XBig12= 2.47D-02 2.84D-02.
     24 vectors produced by pass  3 Test12= 5.60D-15 4.17D-09 XBig12= 2.36D-04 2.85D-03.
     24 vectors produced by pass  4 Test12= 5.60D-15 4.17D-09 XBig12= 1.30D-06 1.53D-04.
     24 vectors produced by pass  5 Test12= 5.60D-15 4.17D-09 XBig12= 5.40D-09 1.17D-05.
     10 vectors produced by pass  6 Test12= 5.60D-15 4.17D-09 XBig12= 1.93D-11 6.18D-07.
      3 vectors produced by pass  7 Test12= 5.60D-15 4.17D-09 XBig12= 7.43D-14 3.40D-08.
 InvSVY:  IOpt=1 It=  1 EMax= 7.99D-15
 Solved reduced A of dimension   157 with    24 vectors.
 FullF1:  Do perturbations      1 to      24.
 Isotropic polarizability for W=    0.000000       47.06 Bohr**3.
 End of Minotr F.D. properties file   721 does not exist.
 End of Minotr F.D. properties file   722 does not exist.
 End of Minotr F.D. properties file   788 does not exist.
 Leave Link 1002 at Wed Aug 12 19:12:29 2026, MaxMem= 12884901888 cpu:             215.4 elap:               4.5
 (Enter /home/falbo/g16/l701.exe)
 ... and contract with generalized density number  0.
 Compute integral second derivatives.
 Leave Link  701 at Wed Aug 12 19:12:29 2026, MaxMem= 12884901888 cpu:              10.2 elap:               0.3
 (Enter /home/falbo/g16/l702.exe)
 L702 exits ... SP integral derivatives will be done elsewhere.
 Leave Link  702 at Wed Aug 12 19:12:29 2026, MaxMem= 12884901888 cpu:               0.8 elap:               0.0
 (Enter /home/falbo/g16/l703.exe)
 Integral derivatives from FoFJK, PRISM(SPDF).
 Compute integral second derivatives, UseDBF=F ICtDFT=           0.
 Calling FoFJK, ICntrl=    100127 FMM=F ISym2X=1 I1Cent= 0 IOpClX= 0 NMat=1 NMatS=1 NMatT=0.
 FoFJK:  IHMeth= 1 ICntrl=  100127 DoSepK=F KAlg= 0 I1Cent=           0 FoldK=F
 IRaf=         0 NMat=       1 IRICut=       1 DoRegI=T DoRafI=F ISym2E= 1 IDoP0=0 IntGTp=1.
 FoFCou: FMM=F IPFlag=           0 FMFlag=      100000 FMFlg1=         800
         NFxFlg=           0 DoJE=F BraDBF=F KetDBF=F FulRan=T
         wScrn=  0.000000 ICntrl=    100127 IOpCl=  0 I1Cent=           0 NGrid=           0
         NMat0=    1 NMatS0=      1 NMatT0=    0 NMatD0=    1 NMtDS0=    0 NMtDT0=    0
 Petite list used in FoFCou.
 Leave Link  703 at Wed Aug 12 19:12:32 2026, MaxMem= 12884901888 cpu:             131.6 elap:               2.8
 (Enter /home/falbo/g16/l716.exe)
 Dipole        =-3.56104035D-14 3.28903571D-14 3.76264043D-02
 Polarizability= 4.58209332D+01-2.73828555D+00 4.94134516D+01
                -1.65986646D-08-1.03927723D-07 4.59567653D+01
 ***** Axes restored to original set *****
 -------------------------------------------------------------------
 Center     Atomic                   Forces (Hartrees/Bohr)
 Number     Number              X              Y              Z
 -------------------------------------------------------------------
      1        6          -0.000018592   -0.000004805   -0.000009571
      2        1           0.000006047    0.000003408   -0.000004053
      3        1          -0.000003130    0.000017082    0.000002324
      4        1           0.000008516   -0.000013012    0.000004102
      5        6           0.000025682   -0.000016451    0.000020812
      6        1          -0.000014539   -0.000004019   -0.000006768
      7        1           0.000004305    0.000013432   -0.000014503
      8        6           0.000017468    0.000024661    0.000021214
      9        1          -0.000007525   -0.000000179   -0.000014721
     10        1          -0.000011625   -0.000014825    0.000007373
     11        6          -0.000010457   -0.000000722   -0.000018722
     12        1          -0.000003278   -0.000002881    0.000006750
     13        1           0.000001596    0.000014937    0.000005746
     14        1           0.000005532   -0.000016625    0.000000016
 -------------------------------------------------------------------
 Cartesian Forces:  Max     0.000025682 RMS     0.000012221
 FormGI is forming the generalized inverse of G from B-inverse, IUseBI=4.
 Leave Link  716 at Wed Aug 12 19:12:32 2026, MaxMem= 12884901888 cpu:               1.0 elap:               0.0
 (Enter /home/falbo/g16/l103.exe)

 GradGradGradGradGradGradGradGradGradGradGradGradGradGradGradGradGradGrad
 Berny optimization.
 Using GEDIIS/GDIIS optimizer.
 Red2BG is reusing G-inverse.
 Internal  Forces:  Max     0.000019938 RMS     0.000007580
 Search for a local minimum.
 Step number   5 out of a maximum of   74
 All quantities printed in internal units (Hartrees-Bohrs-Radians)
 RMS Force = .75804D-05 SwitMx=.10000D-02 MixMth= 2
 Mixed Optimization -- En-DIIS/RFO-DIIS
 Swapping is turned off.
 Second derivative matrix not updated -- analytic derivatives used.
 DE=  1.05D-05 DEPred=-5.99D-11 R=-1.76D+05
 Trust test=-1.76D+05 RLast= 2.52D-04 DXMaxT set to 9.90D-02
 ITU= -1  0  1  1  0
     Eigenvalues ---    0.00170   0.00201   0.00343   0.03376   0.03873
     Eigenvalues ---    0.04031   0.04208   0.04701   0.04772   0.04798
     Eigenvalues ---    0.04933   0.07197   0.07399   0.10203   0.11325
     Eigenvalues ---    0.12615   0.12736   0.13762   0.14792   0.16032
     Eigenvalues ---    0.16395   0.22157   0.22703   0.29768   0.30672
     Eigenvalues ---    0.32346   0.33856   0.33938   0.34699   0.34732
     Eigenvalues ---    0.34811   0.34978   0.35072   0.35643   0.35996
     Eigenvalues ---    0.36119
 En-DIIS/RFO-DIIS/Sim-DIIS IScMMF=       -3 using points:     5    4    3    2
 RFO step:  Lambda=-2.01044301D-07.
 NNeg= 0 NGDIIS= 4 SimSw=  2.50D-03 Rises=T DC=  1.05D-05 SmlDif=  1.00D-05
 NRisDI= 1 DoIntr=F SqrtH=F CThrHd= 10.0 CDAdj=  3.0
 RMS Error=  0.9047459371D-03 NUsed= 4 OKEnD=T EnDIS=T
 InvSVX:  RCond= 2.71D-08 Info=           0 Equed=N FErr=  1.63D-14 BErr=  1.11D-16
 DIIS inversion failure, remove point   4.
 InvSVX:  RCond= 2.71D-06 Info=           0 Equed=N FErr=  1.19D-15 BErr=  1.02D-16
 RFO-DIIS uses    3 points instead of    4
 EnCoef did   100 forward-backward iterations
 IWarn =    2
 Energies =   -158.417769720      -158.417773923      -158.417773934      -158.417763392    
 Point number   1 has energy  -0.1584177697D+03 and has been removed
 IWarn =    0
 DidBck=F Rises=T En-DIIS coefs:    1.00000    0.00000    0.00000    0.00000
 Iteration  1 RMS(Cart)=  0.00102712 RMS(Int)=  0.00000045
 Iteration  2 RMS(Cart)=  0.00000071 RMS(Int)=  0.00000001
 ITry= 1 IFail=0 DXMaxC= 2.97D-03 DCOld= 1.00D+10 DXMaxT= 9.90D-02 DXLimC= 3.00D+00 Rises=F
 ClnCor:  largest displacement from symmetrization is 5.58D-12 for atom    13.
 Variable       Old X    -DE/DX   Delta X   Delta X   Delta X     New X
                                 (Linear)    (Quad)   (Total)
    R1        2.06346  -0.00000   0.00000  -0.00001  -0.00001   2.06345
    R2        2.06292   0.00001   0.00000   0.00001   0.00001   2.06293
    R3        2.06709  -0.00000   0.00000  -0.00000  -0.00000   2.06709
    R4        2.88996  -0.00001   0.00000  -0.00008  -0.00008   2.88988
    R5        2.07016   0.00001   0.00000   0.00001   0.00001   2.07017
    R6        2.06733   0.00001   0.00000   0.00003   0.00003   2.06735
    R7        2.89408   0.00001   0.00000   0.00008   0.00008   2.89416
    R8        2.07016   0.00001   0.00000   0.00001   0.00001   2.07017
    R9        2.06733   0.00001   0.00000   0.00003   0.00003   2.06735
   R10        2.88996  -0.00001   0.00000  -0.00008  -0.00008   2.88988
   R11        2.06346  -0.00000   0.00000  -0.00001  -0.00001   2.06345
   R12        2.06709  -0.00000   0.00000  -0.00000  -0.00000   2.06709
   R13        2.06292   0.00001   0.00000   0.00001   0.00001   2.06293
    A1        1.87780   0.00001   0.00000   0.00007   0.00007   1.87787
    A2        1.88322  -0.00001   0.00000  -0.00010  -0.00010   1.88312
    A3        1.93842   0.00001   0.00000   0.00003   0.00003   1.93845
    A4        1.88251  -0.00000   0.00000  -0.00005  -0.00005   1.88246
    A5        1.94787  -0.00002   0.00000  -0.00009  -0.00009   1.94778
    A6        1.93143   0.00002   0.00000   0.00015   0.00015   1.93157
    A7        1.91084   0.00000   0.00000   0.00007   0.00007   1.91091
    A8        1.90495   0.00000   0.00000   0.00001   0.00001   1.90497
    A9        1.97888   0.00001   0.00000   0.00016   0.00016   1.97904
   A10        1.86032   0.00000   0.00000  -0.00000  -0.00000   1.86032
   A11        1.90403  -0.00000   0.00000  -0.00000  -0.00000   1.90403
   A12        1.90108  -0.00001   0.00000  -0.00026  -0.00026   1.90082
   A13        1.90403  -0.00000   0.00000  -0.00000  -0.00000   1.90403
   A14        1.90108  -0.00001   0.00000  -0.00026  -0.00026   1.90082
   A15        1.97888   0.00001   0.00000   0.00016   0.00016   1.97904
   A16        1.86032   0.00000   0.00000  -0.00000  -0.00000   1.86032
   A17        1.91084   0.00000   0.00000   0.00007   0.00007   1.91091
   A18        1.90495   0.00000   0.00000   0.00001   0.00001   1.90497
   A19        1.93842   0.00001   0.00000   0.00003   0.00003   1.93845
   A20        1.93143   0.00002   0.00000   0.00015   0.00015   1.93157
   A21        1.94787  -0.00002   0.00000  -0.00009  -0.00009   1.94778
   A22        1.88322  -0.00001   0.00000  -0.00010  -0.00010   1.88312
   A23        1.87780   0.00001   0.00000   0.00007   0.00007   1.87787
   A24        1.88251  -0.00000   0.00000  -0.00005  -0.00005   1.88246
    D1        1.10625  -0.00000   0.00000  -0.00089  -0.00089   1.10536
    D2       -0.92393  -0.00001   0.00000  -0.00094  -0.00094  -0.92487
    D3       -3.04640  -0.00000   0.00000  -0.00073  -0.00073  -3.04712
    D4       -0.98911  -0.00000   0.00000  -0.00093  -0.00093  -0.99004
    D5       -3.01929  -0.00001   0.00000  -0.00098  -0.00098  -3.02027
    D6        1.14143  -0.00000   0.00000  -0.00077  -0.00077   1.14066
    D7       -3.08569  -0.00000   0.00000  -0.00090  -0.00090  -3.08660
    D8        1.16731  -0.00001   0.00000  -0.00095  -0.00095   1.16636
    D9       -0.95516  -0.00000   0.00000  -0.00074  -0.00074  -0.95589
   D10        1.04814   0.00001   0.00000   0.00209   0.00209   1.05023
   D11        3.07236   0.00000   0.00000   0.00194   0.00194   3.07431
   D12       -1.08619   0.00001   0.00000   0.00188   0.00188  -1.08430
   D13       -3.10072   0.00001   0.00000   0.00229   0.00229  -3.09843
   D14       -1.07650   0.00001   0.00000   0.00215   0.00215  -1.07435
   D15        1.04814   0.00001   0.00000   0.00209   0.00209   1.05023
   D16       -1.07650   0.00001   0.00000   0.00215   0.00215  -1.07435
   D17        0.94773   0.00000   0.00000   0.00200   0.00200   0.94973
   D18        3.07236   0.00000   0.00000   0.00194   0.00194   3.07431
   D19       -3.04640  -0.00000   0.00000  -0.00073  -0.00073  -3.04712
   D20       -0.95516  -0.00000   0.00000  -0.00074  -0.00074  -0.95589
   D21        1.14143  -0.00000   0.00000  -0.00077  -0.00077   1.14066
   D22        1.10625  -0.00000   0.00000  -0.00089  -0.00089   1.10536
   D23       -3.08569  -0.00000   0.00000  -0.00090  -0.00090  -3.08660
   D24       -0.98911  -0.00000   0.00000  -0.00093  -0.00093  -0.99004
   D25       -0.92393  -0.00001   0.00000  -0.00094  -0.00094  -0.92487
   D26        1.16731  -0.00001   0.00000  -0.00095  -0.00095   1.16636
   D27       -3.01929  -0.00001   0.00000  -0.00098  -0.00098  -3.02027
         Item               Value     Threshold  Converged?
 Maximum Force            0.000020     0.000015     NO 
 RMS     Force            0.000008     0.000010     YES
 Maximum Displacement     0.002967     0.000060     NO 
 RMS     Displacement     0.001027     0.000040     NO 
 Predicted change in Energy=-1.005229D-07
 GradGradGradGradGradGradGradGradGradGradGradGradGradGradGradGradGradGrad

 Leave Link  103 at Wed Aug 12 19:12:32 2026, MaxMem= 12884901888 cpu:               1.7 elap:               0.1
 (Enter /home/falbo/g16/l202.exe)
                          Input orientation:                          
 ---------------------------------------------------------------------
 Center     Atomic      Atomic             Coordinates (Angstroms)
 Number     Number       Type             X           Y           Z
 ---------------------------------------------------------------------
      1          6           0       -0.544253    0.816319    1.496147
      2          1           0       -0.354125   -0.253223    1.385470
      3          1           0       -0.271857    1.096139    2.515566
      4          1           0        0.123173    1.348865    0.812438
      5          6           0       -2.005640    1.149122    1.192457
      6          1           0       -2.653167    0.651006    1.922306
      7          1           0       -2.269895    0.742619    0.211766
      8          6           0       -2.301933    2.651673    1.203132
      9          1           0       -1.686118    3.143755    0.442397
     10          1           0       -3.344366    2.809548    0.911178
     11          6           0       -2.056486    3.309241    2.561807
     12          1           0       -2.368714    4.355551    2.553565
     13          1           0       -2.620263    2.796416    3.346464
     14          1           0       -1.000271    3.282221    2.836385
 ---------------------------------------------------------------------
                    Distance matrix (angstroms):
                    1          2          3          4          5
     1  C    0.000000
     2  H    1.091933   0.000000
     3  H    1.091656   1.762005   0.000000
     4  H    1.093856   1.767163   1.766511   0.000000
     5  C    1.529260   2.175161   2.181612   2.171671   0.000000
     6  H    2.157883   2.528125   2.494141   3.070322   1.095487
     7  H    2.152419   2.457531   3.069955   2.540692   1.093997
     8  C    2.558089   3.502231   2.874609   2.780484   1.531524
     9  H    2.798430   3.768694   3.238966   2.575286   2.154819
    10  H    3.486515   4.306630   3.866542   3.763930   2.151353
    11  C    3.104374   4.119824   2.843389   3.413836   2.558089
    12  H    4.119824   5.163701   3.875825   4.275650   3.502231
    13  H    3.413836   4.275650   3.016016   4.005388   2.780484
    14  H    2.843389   3.875825   2.326471   3.016016   2.874609
                    6          7          8          9         10
     6  H    0.000000
     7  H    1.755345   0.000000
     8  C    2.154819   2.151353   0.000000
     9  H    3.055996   2.481822   1.095487   0.000000
    10  H    2.481822   2.432254   1.093997   1.755345   0.000000
    11  C    2.798430   3.486515   1.529260   2.157883   2.152419
    12  H    3.768694   4.306630   2.175161   2.528125   2.457531
    13  H    2.575286   3.763930   2.171671   3.070322   2.540692
    14  H    3.238966   3.866542   2.181612   2.494141   3.069955
                   11         12         13         14
    11  C    0.000000
    12  H    1.091933   0.000000
    13  H    1.093856   1.767163   0.000000
    14  H    1.091656   1.762005   1.766511   0.000000
 Stoichiometry    C4H10
 Framework group  C2[X(C4H10)]
 Deg. of freedom    19
 Full point group                 C2      NOp   2
 RotChk:  IX=0 Diff= 6.55D-04
 Largest Abelian subgroup         C2      NOp   2
 Largest concise Abelian subgroup C2      NOp   2
                         Standard orientation:                         
 ---------------------------------------------------------------------
 Center     Atomic      Atomic             Coordinates (Angstroms)
 Number     Number       Type             X           Y           Z
 ---------------------------------------------------------------------
      1          6           0       -0.586838    1.436978   -0.566964
      2          1           0       -1.380948    2.181498   -0.480955
      3          1           0       -0.741117    0.896584   -1.502852
      4          1           0        0.366163    1.968936   -0.639975
      5          6           0       -0.586838    0.491947    0.635348
      6          1           0       -1.526348   -0.071004    0.657687
      7          1           0       -0.554528    1.082342    1.555793
      8          6           0        0.586838   -0.491947    0.635348
      9          1           0        1.526348    0.071004    0.657687
     10          1           0        0.554528   -1.082342    1.555793
     11          6           0        0.586838   -1.436978   -0.566964
     12          1           0        1.380948   -2.181498   -0.480955
     13          1           0       -0.366163   -1.968936   -0.639975
     14          1           0        0.741117   -0.896584   -1.502852
 ---------------------------------------------------------------------
 Rotational constants (GHZ):          13.0604887           4.8673052           4.1051410
 Leave Link  202 at Wed Aug 12 19:12:32 2026, MaxMem= 12884901888 cpu:               0.2 elap:               0.0
 (Enter /home/falbo/g16/l301.exe)
 Standard basis: 6-31+G(d) (6D, 7F)
 Ernie: Thresh=  0.10000D-02 Tol=  0.10000D-05 Strict=F.
 There are    48 symmetry adapted cartesian basis functions of A   symmetry.
 There are    48 symmetry adapted cartesian basis functions of B   symmetry.
 There are    48 symmetry adapted basis functions of A   symmetry.
 There are    48 symmetry adapted basis functions of B   symmetry.
    96 basis functions,   168 primitive gaussians,    96 cartesian basis functions
    17 alpha electrons       17 beta electrons
       nuclear repulsion energy       132.7513812511 Hartrees.
 IExCor= 3428 DFT=T Ex+Corr=M052X ExCW=0 ScaHFX=  0.560000
 ScaDFX=  0.440000  0.440000  1.000000  1.000000 ScalE2=  1.000000  1.000000
 IRadAn=      5 IRanWt=     -1 IRanGd=            0 ICorTp=0 IEmpDi=  4
 NAtoms=   14 NActive=   14 NUniq=    7 SFac= 4.00D+00 NAtFMM=   60 NAOKFM=F Big=F
 Integral buffers will be    131072 words long.
 Raffenetti 2 integral format.
 Two-electron integral symmetry is turned on.
 Leave Link  301 at Wed Aug 12 19:12:32 2026, MaxMem= 12884901888 cpu:               2.2 elap:               0.1
 (Enter /home/falbo/g16/l302.exe)
 NPDir=0 NMtPBC=     1 NCelOv=     1 NCel=       1 NClECP=     1 NCelD=      1
         NCelK=      1 NCelE2=     1 NClLst=     1 CellRange=     0.0.
 One-electron integrals computed using PRISM.
 One-electron integral symmetry used in STVInt
 NBasis=    96 RedAO= T EigKep=  1.66D-04  NBF=    48    48
 NBsUse=    96 1.00D-06 EigRej= -1.00D+00 NBFU=    48    48
 Precomputing XC quadrature grid using
 IXCGrd= 4 IRadAn=           5 IRanWt=          -1 IRanGd=           0 AccXCQ= 0.00D+00.
 Generated NRdTot=       0 NPtTot=           0 NUsed=           0 NTot=          32
 NSgBfM=    96    96    96    96    96 MxSgAt=    14 MxSgA2=    14.
 Leave Link  302 at Wed Aug 12 19:12:32 2026, MaxMem= 12884901888 cpu:               6.7 elap:               0.2
 (Enter /home/falbo/g16/l303.exe)
 DipDrv:  MaxL=1.
 Leave Link  303 at Wed Aug 12 19:12:32 2026, MaxMem= 12884901888 cpu:               0.9 elap:               0.0
 (Enter /home/falbo/g16/l401.exe)
 Initial guess from the checkpoint file:  "02_conf_010.chk"
 B after Tr=     0.000000   -0.000000    0.000000
         Rot=    1.000000   -0.000000    0.000000    0.000213 Ang=   0.02 deg.
 Guess basis will be translated and rotated to current coordinates.
 JPrj=2 DoOrth=T DoCkMO=T.
 Initial guess orbital symmetries:
       Occupied  (A) (B) (B) (A) (A) (B) (A) (B) (B) (A) (A) (A)
                 (B) (B) (A) (B) (A)
       Virtual   (A) (A) (B) (B) (B) (B) (A) (A) (A) (A) (B) (B)
                 (A) (B) (B) (A) (A) (A) (B) (B) (A) (B) (B) (A)
                 (B) (A) (B) (B) (A) (A) (B) (A) (B) (A) (B) (A)
                 (B) (A) (B) (A) (B) (A) (B) (B) (A) (A) (B) (A)
                 (A) (B) (A) (B) (B) (B) (A) (A) (B) (B) (A) (A)
                 (B) (A) (B) (A) (A) (B) (A) (B) (A) (B) (B) (A)
                 (B) (A) (B) (A) (B) (A) (B)
 The electronic state of the initial guess is 1-A.
 Leave Link  401 at Wed Aug 12 19:12:33 2026, MaxMem= 12884901888 cpu:               4.3 elap:               0.1
 (Enter /home/falbo/g16/l502.exe)
 Integral symmetry usage will be decided dynamically.
 Closed shell SCF:
 Using DIIS extrapolation, IDIIS=  1040.
 NGot= 12884901888 LenX= 12884877300 LenY= 12884867643
 Requested convergence on RMS density matrix=1.00D-08 within 128 cycles.
 Requested convergence on MAX density matrix=1.00D-06.
 Requested convergence on             energy=1.00D-06.
 No special actions if energy rises.
 Fock matrices will be formed incrementally for  20 cycles.

 Cycle   1  Pass 1  IDiag  1:
 FoFJK:  IHMeth= 1 ICntrl=       0 DoSepK=F KAlg= 0 I1Cent=           0 FoldK=F
 IRaf= 990000000 NMat=       1 IRICut=       1 DoRegI=T DoRafI=F ISym2E= 1 IDoP0=0 IntGTp=1.
 FoFCou: FMM=F IPFlag=           0 FMFlag=      100000 FMFlg1=           0
         NFxFlg=           0 DoJE=F BraDBF=F KetDBF=F FulRan=T
         wScrn=  0.000000 ICntrl=         0 IOpCl=  0 I1Cent=           0 NGrid=           0
         NMat0=    1 NMatS0=      1 NMatT0=    0 NMatD0=    1 NMtDS0=    0 NMtDT0=    0
 Petite list used in FoFCou.
 E= -158.417762565990    
 DIIS: error= 6.84D-05 at cycle   1 NSaved=   1.
 NSaved= 1 IEnMin= 1 EnMin= -158.417762565990     IErMin= 1 ErrMin= 6.84D-05
 ErrMax= 6.84D-05  0.00D+00 EMaxC= 1.00D-01 BMatC= 4.65D-07 BMatP= 4.65D-07
 IDIUse=1 WtCom= 1.00D+00 WtEn= 0.00D+00
 Coeff-Com:  0.100D+01
 Coeff:      0.100D+01
 Gap=     0.438 Goal=   None    Shift=    0.000
 RMSDP=1.08D-05 MaxDP=1.21D-04              OVMax= 2.48D-04

 Cycle   2  Pass 1  IDiag  1:
 RMSU=  1.08D-05    CP:  1.00D+00
 E= -158.417763460318     Delta-E=       -0.000000894329 Rises=F Damp=F
 DIIS: error= 1.51D-05 at cycle   2 NSaved=   2.
 NSaved= 2 IEnMin= 2 EnMin= -158.417763460318     IErMin= 2 ErrMin= 1.51D-05
 ErrMax= 1.51D-05  0.00D+00 EMaxC= 1.00D-01 BMatC= 1.77D-08 BMatP= 4.65D-07
 IDIUse=1 WtCom= 1.00D+00 WtEn= 0.00D+00
 Coeff-Com: -0.205D+00 0.120D+01
 Coeff:     -0.205D+00 0.120D+01
 Gap=     0.438 Goal=   None    Shift=    0.000
 RMSDP=3.03D-06 MaxDP=3.37D-05 DE=-8.94D-07 OVMax= 7.18D-05

 Cycle   3  Pass 1  IDiag  1:
 RMSU=  1.98D-06    CP:  1.00D+00  1.21D+00
 E= -158.417763503360     Delta-E=       -0.000000043042 Rises=F Damp=F
 DIIS: error= 1.86D-06 at cycle   3 NSaved=   3.
 NSaved= 3 IEnMin= 3 EnMin= -158.417763503360     IErMin= 3 ErrMin= 1.86D-06
 ErrMax= 1.86D-06  0.00D+00 EMaxC= 1.00D-01 BMatC= 4.81D-10 BMatP= 1.77D-08
 IDIUse=1 WtCom= 1.00D+00 WtEn= 0.00D+00
 Coeff-Com: -0.387D-01 0.176D+00 0.863D+00
 Coeff:     -0.387D-01 0.176D+00 0.863D+00
 Gap=     0.438 Goal=   None    Shift=    0.000
 RMSDP=4.75D-07 MaxDP=4.51D-06 DE=-4.30D-08 OVMax= 9.55D-06

 Cycle   4  Pass 1  IDiag  1:
 RMSU=  4.22D-07    CP:  1.00D+00  1.22D+00  1.08D+00
 E= -158.417763503916     Delta-E=       -0.000000000556 Rises=F Damp=F
 DIIS: error= 1.06D-06 at cycle   4 NSaved=   4.
 NSaved= 4 IEnMin= 4 EnMin= -158.417763503916     IErMin= 4 ErrMin= 1.06D-06
 ErrMax= 1.06D-06  0.00D+00 EMaxC= 1.00D-01 BMatC= 1.29D-10 BMatP= 4.81D-10
 IDIUse=1 WtCom= 1.00D+00 WtEn= 0.00D+00
 Coeff-Com: -0.306D-03-0.197D-01 0.326D+00 0.694D+00
 Coeff:     -0.306D-03-0.197D-01 0.326D+00 0.694D+00
 Gap=     0.438 Goal=   None    Shift=    0.000
 RMSDP=2.14D-07 MaxDP=2.51D-06 DE=-5.56D-10 OVMax= 3.26D-06

 Cycle   5  Pass 1  IDiag  1:
 RMSU=  1.57D-07    CP:  1.00D+00  1.23D+00  1.14D+00  8.13D-01
 E= -158.417763504055     Delta-E=       -0.000000000139 Rises=F Damp=F
 DIIS: error= 1.88D-07 at cycle   5 NSaved=   5.
 NSaved= 5 IEnMin= 5 EnMin= -158.417763504055     IErMin= 5 ErrMin= 1.88D-07
 ErrMax= 1.88D-07  0.00D+00 EMaxC= 1.00D-01 BMatC= 4.15D-12 BMatP= 1.29D-10
 IDIUse=1 WtCom= 1.00D+00 WtEn= 0.00D+00
 Coeff-Com:  0.274D-02-0.173D-01-0.761D-02 0.144D+00 0.878D+00
 Coeff:      0.274D-02-0.173D-01-0.761D-02 0.144D+00 0.878D+00
 Gap=     0.438 Goal=   None    Shift=    0.000
 RMSDP=6.50D-08 MaxDP=9.17D-07 DE=-1.39D-10 OVMax= 9.45D-07

 Cycle   6  Pass 1  IDiag  1:
 RMSU=  5.04D-08    CP:  1.00D+00  1.23D+00  1.15D+00  8.48D-01  1.19D+00
 E= -158.417763504061     Delta-E=       -0.000000000006 Rises=F Damp=F
 DIIS: error= 3.23D-08 at cycle   6 NSaved=   6.
 NSaved= 6 IEnMin= 6 EnMin= -158.417763504061     IErMin= 6 ErrMin= 3.23D-08
 ErrMax= 3.23D-08  0.00D+00 EMaxC= 1.00D-01 BMatC= 8.67D-14 BMatP= 4.15D-12
 IDIUse=1 WtCom= 1.00D+00 WtEn= 0.00D+00
 Coeff-Com:  0.400D-03-0.207D-02-0.108D-01 0.382D-02 0.152D+00 0.856D+00
 Coeff:      0.400D-03-0.207D-02-0.108D-01 0.382D-02 0.152D+00 0.856D+00
 Gap=     0.438 Goal=   None    Shift=    0.000
 RMSDP=1.26D-08 MaxDP=1.66D-07 DE=-5.57D-12 OVMax= 1.72D-07

 Cycle   7  Pass 1  IDiag  1:
 RMSU=  5.47D-09    CP:  1.00D+00  1.23D+00  1.15D+00  8.56D-01  1.25D+00
                    CP:  1.07D+00
 E= -158.417763504062     Delta-E=       -0.000000000001 Rises=F Damp=F
 DIIS: error= 7.65D-09 at cycle   7 NSaved=   7.
 NSaved= 7 IEnMin= 7 EnMin= -158.417763504062     IErMin= 7 ErrMin= 7.65D-09
 ErrMax= 7.65D-09  0.00D+00 EMaxC= 1.00D-01 BMatC= 7.71D-15 BMatP= 8.67D-14
 IDIUse=1 WtCom= 1.00D+00 WtEn= 0.00D+00
 Coeff-Com: -0.504D-04 0.450D-03-0.267D-02-0.681D-02-0.550D-02 0.212D+00
 Coeff-Com:  0.803D+00
 Coeff:     -0.504D-04 0.450D-03-0.267D-02-0.681D-02-0.550D-02 0.212D+00
 Coeff:      0.803D+00
 Gap=     0.438 Goal=   None    Shift=    0.000
 RMSDP=3.77D-09 MaxDP=5.79D-08 DE=-1.36D-12 OVMax= 4.25D-08

 SCF Done:  E(RM052X) =  -158.417763504     A.U. after    7 cycles
            NFock=  7  Conv=0.38D-08     -V/T= 2.0100
 KE= 1.568452603242D+02 PE=-6.307189506744D+02 EE= 1.827045455950D+02
 Leave Link  502 at Wed Aug 12 19:12:34 2026, MaxMem= 12884901888 cpu:              61.2 elap:               1.3
 (Enter /home/falbo/g16/l801.exe)
 DoSCS=F DFT=T ScalE2(SS,OS)=  1.000000  1.000000
 Range of M.O.s used for correlation:     1    96
 NBasis=    96 NAE=    17 NBE=    17 NFC=     0 NFV=     0
 NROrb=     96 NOA=    17 NOB=    17 NVA=    79 NVB=    79

 **** Warning!!: The largest alpha MO coefficient is  0.22801395D+02

 Leave Link  801 at Wed Aug 12 19:12:34 2026, MaxMem= 12884901888 cpu:               0.8 elap:               0.0
 (Enter /home/falbo/g16/l1101.exe)
 Using compressed storage, NAtomX=    14.
 Will process     15 centers per pass.
 Leave Link 1101 at Wed Aug 12 19:12:34 2026, MaxMem= 12884901888 cpu:               6.3 elap:               0.2
 (Enter /home/falbo/g16/l1102.exe)
 Symmetrizing basis deriv contribution to polar:
 IMax=3 JMax=2 DiffMx= 0.00D+00
 Leave Link 1102 at Wed Aug 12 19:12:34 2026, MaxMem= 12884901888 cpu:               1.2 elap:               0.0
 (Enter /home/falbo/g16/l1110.exe)
 Forming Gx(P) for the SCF density, NAtomX=    14.
 Integral derivatives from FoFJK, PRISM(SPDF).
 Do as many integral derivatives as possible in FoFJK.
 G2DrvN: MDV=   12884900632.
 G2DrvN: will do    15 centers at a time, making    1 passes.
 Calling FoFCou, ICntrl=  3107 FMM=F I1Cent=   0 AccDes= 0.00D+00.
 FoFJK:  IHMeth= 1 ICntrl=    3107 DoSepK=F KAlg= 0 I1Cent=           0 FoldK=F
 IRaf=         0 NMat=       1 IRICut=       1 DoRegI=T DoRafI=F ISym2E= 1 IDoP0=0 IntGTp=1.
 FoFCou: FMM=F IPFlag=           0 FMFlag=      100000 FMFlg1=           0
         NFxFlg=           0 DoJE=F BraDBF=F KetDBF=F FulRan=T
         wScrn=  0.000000 ICntrl=      3107 IOpCl=  0 I1Cent=           0 NGrid=           0
         NMat0=    1 NMatS0=      1 NMatT0=    0 NMatD0=    1 NMtDS0=    0 NMtDT0=    0
 Petite list used in FoFCou.
 End of G2Drv F.D. properties file   721 does not exist.
 End of G2Drv F.D. properties file   722 does not exist.
 End of G2Drv F.D. properties file   788 does not exist.
 Leave Link 1110 at Wed Aug 12 19:12:37 2026, MaxMem= 12884901888 cpu:             136.6 elap:               2.9
 (Enter /home/falbo/g16/l1002.exe)
 Minotr:  Closed shell wavefunction.
          IDoAtm=11111111111111
          Direct CPHF calculation.
          Differentiating once with respect to electric field.
                with respect to dipole field.
          Differentiating once with respect to nuclear coordinates.
          Using symmetry in CPHF.
          Requested convergence is 1.0D-08 RMS, and 1.0D-07 maximum.
          Secondary convergence is 1.0D-12 RMS, and 1.0D-12 maximum.
          NewPWx=T KeepS1=F KeepF1=F KeepIn=T MapXYZ=F SortEE=F KeepMc=T.
         4271 words used for storage of precomputed grid.
 Keep R1 ints in memory in symmetry-blocked form, NReq=55014061.
 FoFCou: FMM=F IPFlag=           0 FMFlag=           0 FMFlg1=           0
         NFxFlg=           0 DoJE=F BraDBF=F KetDBF=F FulRan=T
         wScrn=  0.000000 ICntrl=       600 IOpCl=  0 I1Cent=           0 NGrid=           0
         NMat0=    1 NMatS0=   4656 NMatT0=    0 NMatD0=    1 NMtDS0=    0 NMtDT0=    0
 Petite list used in FoFCou.
          MDV=   12884901888 using IRadAn=       1.
          Solving linear equations simultaneously, MaxMat=       0.
          There are    24 degrees of freedom in the 1st order CPHF.  IDoFFX=4 NUNeed=    24.
     24 vectors produced by pass  0 Test12= 5.60D-15 4.17D-09 XBig12= 1.83D+01 1.51D+00.
 AX will form    24 AO Fock derivatives at one time.
     24 vectors produced by pass  1 Test12= 5.60D-15 4.17D-09 XBig12= 8.11D-01 2.64D-01.
     24 vectors produced by pass  2 Test12= 5.60D-15 4.17D-09 XBig12= 2.47D-02 2.84D-02.
     24 vectors produced by pass  3 Test12= 5.60D-15 4.17D-09 XBig12= 2.36D-04 2.85D-03.
     24 vectors produced by pass  4 Test12= 5.60D-15 4.17D-09 XBig12= 1.30D-06 1.53D-04.
     24 vectors produced by pass  5 Test12= 5.60D-15 4.17D-09 XBig12= 5.40D-09 1.17D-05.
     10 vectors produced by pass  6 Test12= 5.60D-15 4.17D-09 XBig12= 1.93D-11 6.19D-07.
      3 vectors produced by pass  7 Test12= 5.60D-15 4.17D-09 XBig12= 7.41D-14 3.40D-08.
 InvSVY:  IOpt=1 It=  1 EMax= 4.44D-15
 Solved reduced A of dimension   157 with    24 vectors.
 FullF1:  Do perturbations      1 to      24.
 Isotropic polarizability for W=    0.000000       47.07 Bohr**3.
 End of Minotr F.D. properties file   721 does not exist.
 End of Minotr F.D. properties file   722 does not exist.
 End of Minotr F.D. properties file   788 does not exist.
 Leave Link 1002 at Wed Aug 12 19:12:42 2026, MaxMem= 12884901888 cpu:             212.8 elap:               4.5
 (Enter /home/falbo/g16/l701.exe)
 ... and contract with generalized density number  0.
 Compute integral second derivatives.
 Leave Link  701 at Wed Aug 12 19:12:42 2026, MaxMem= 12884901888 cpu:               8.8 elap:               0.2
 (Enter /home/falbo/g16/l702.exe)
 L702 exits ... SP integral derivatives will be done elsewhere.
 Leave Link  702 at Wed Aug 12 19:12:42 2026, MaxMem= 12884901888 cpu:               0.8 elap:               0.0
 (Enter /home/falbo/g16/l703.exe)
 Integral derivatives from FoFJK, PRISM(SPDF).
 Compute integral second derivatives, UseDBF=F ICtDFT=           0.
 Calling FoFJK, ICntrl=    100127 FMM=F ISym2X=1 I1Cent= 0 IOpClX= 0 NMat=1 NMatS=1 NMatT=0.
 FoFJK:  IHMeth= 1 ICntrl=  100127 DoSepK=F KAlg= 0 I1Cent=           0 FoldK=F
 IRaf=         0 NMat=       1 IRICut=       1 DoRegI=T DoRafI=F ISym2E= 1 IDoP0=0 IntGTp=1.
 FoFCou: FMM=F IPFlag=           0 FMFlag=      100000 FMFlg1=         800
         NFxFlg=           0 DoJE=F BraDBF=F KetDBF=F FulRan=T
         wScrn=  0.000000 ICntrl=    100127 IOpCl=  0 I1Cent=           0 NGrid=           0
         NMat0=    1 NMatS0=      1 NMatT0=    0 NMatD0=    1 NMtDS0=    0 NMtDT0=    0
 Petite list used in FoFCou.
 Leave Link  703 at Wed Aug 12 19:12:45 2026, MaxMem= 12884901888 cpu:             132.1 elap:               2.8
 (Enter /home/falbo/g16/l716.exe)
 Dipole        =-2.38697950D-15 1.11022302D-15 3.76298664D-02
 Polarizability= 4.58183559D+01-2.73766646D+00 4.94172924D+01
                -1.73854730D-08-1.04522561D-07 4.59603531D+01
 ***** Axes restored to original set *****
 -------------------------------------------------------------------
 Center     Atomic                   Forces (Hartrees/Bohr)
 Number     Number              X              Y              Z
 -------------------------------------------------------------------
      1        6           0.000000407    0.000000801   -0.000000117
      2        1           0.000000407    0.000000332   -0.000000720
      3        1           0.000000403   -0.000000152   -0.000000366
      4        1          -0.000000034    0.000000512   -0.000000244
      5        6           0.000000355   -0.000000362   -0.000000628
      6        1           0.000000415   -0.000000415   -0.000000231
      7        1           0.000000282    0.000000218   -0.000000171
      8        6          -0.000000683    0.000000299    0.000000309
      9        1          -0.000000303    0.000000437    0.000000340
     10        1          -0.000000124   -0.000000188    0.000000325
     11        6           0.000000041   -0.000000715    0.000000554
     12        1          -0.000000639   -0.000000377    0.000000493
     13        1          -0.000000141   -0.000000545    0.000000073
     14        1          -0.000000385    0.000000155    0.000000383
 -------------------------------------------------------------------
 Cartesian Forces:  Max     0.000000801 RMS     0.000000406
 FormGI is forming the generalized inverse of G from B-inverse, IUseBI=4.
 Leave Link  716 at Wed Aug 12 19:12:45 2026, MaxMem= 12884901888 cpu:               1.1 elap:               0.0
 (Enter /home/falbo/g16/l103.exe)

 GradGradGradGradGradGradGradGradGradGradGradGradGradGradGradGradGradGrad
 Berny optimization.
 Using GEDIIS/GDIIS optimizer.
 Red2BG is reusing G-inverse.
 Internal  Forces:  Max     0.000000607 RMS     0.000000188
 Search for a local minimum.
 Step number   6 out of a maximum of   74
 All quantities printed in internal units (Hartrees-Bohrs-Radians)
 RMS Force = .18793D-06 SwitMx=.10000D-02 MixMth= 2
 Mixed Optimization -- En-DIIS/RFO-DIIS
 Swapping is turned off.
 Second derivative matrix not updated -- analytic derivatives used.
 DE= -1.12D-07 DEPred=-1.01D-07 R= 1.11D+00
 Trust test= 1.11D+00 RLast= 7.24D-03 DXMaxT set to 9.90D-02
 ITU=  0 -1  0  1  1  0
     Eigenvalues ---    0.00171   0.00201   0.00344   0.03376   0.03873
     Eigenvalues ---    0.04031   0.04208   0.04701   0.04771   0.04797
     Eigenvalues ---    0.04934   0.07198   0.07400   0.10203   0.11327
     Eigenvalues ---    0.12615   0.12736   0.13761   0.14796   0.16033
     Eigenvalues ---    0.16397   0.22152   0.22719   0.29770   0.30674
     Eigenvalues ---    0.32348   0.33855   0.33937   0.34700   0.34731
     Eigenvalues ---    0.34810   0.34978   0.35072   0.35645   0.35996
     Eigenvalues ---    0.36119
 En-DIIS/RFO-DIIS/Sim-DIIS IScMMF=       -3 using points:     6    5    4    3    2
 RFO step:  Lambda=-1.00471512D-11.
 NNeg= 0 NGDIIS= 5 SimSw=  2.50D-03 Rises=T DC= -1.12D-07 SmlDif=  1.00D-05
 NRisDI= 2 DoIntr=T SqrtH=F CThrHd= 10.0 CDAdj=  3.0
 RMS Error=  0.2471668535D-05 NUsed= 5 OKEnD=T EnDIS=T
 InvSVX:  RCond= 1.37D-11 Info=           0 Equed=N FErr=  1.59D-12 BErr=  1.01D-16
 DIIS inversion failure, remove point   5.
 InvSVX:  RCond= 3.04D-11 Info=           0 Equed=N FErr=  7.42D-13 BErr=  7.02D-17
 DIIS inversion failure, remove point   4.
 InvSVX:  RCond= 1.07D-08 Info=           0 Equed=N FErr=  1.27D-15 BErr=  1.02D-16
 DIIS inversion failure, remove point   3.
 InvSVX:  RCond= 5.91D-05 Info=           0 Equed=N FErr=  8.90D-16 BErr=  0.00D+00
 RFO-DIIS uses    2 points instead of    5
 EnCoef did   100 forward-backward iterations
 IWarn =    2
 Energies =   -158.417769720      -158.417773923      -158.417773934      -158.417763392      -158.417763504    
 Point number   4 has energy  -0.1584177634D+03 and has been removed
 EnCoef did   100 forward-backward iterations
 IWarn =    2
 Energies =   -158.417769720      -158.417773923      -158.417773934      -158.417763504    
 Point number   1 has energy  -0.1584177697D+03 and has been removed
 IWarn =    0
 DidBck=F Rises=T RFO-DIIS coefs:    0.99783    0.00217    0.00000    0.00000    0.00000
 Iteration  1 RMS(Cart)=  0.00000535 RMS(Int)=  0.00000000
 Iteration  2 RMS(Cart)=  0.00000000 RMS(Int)=  0.00000000
 ITry= 1 IFail=0 DXMaxC= 1.80D-05 DCOld= 1.00D+10 DXMaxT= 9.90D-02 DXLimC= 3.00D+00 Rises=F
 ClnCor:  largest displacement from symmetrization is 1.16D-12 for atom    14.
 Variable       Old X    -DE/DX   Delta X   Delta X   Delta X     New X
                                 (Linear)    (Quad)   (Total)
    R1        2.06345   0.00000   0.00000   0.00000   0.00000   2.06345
    R2        2.06293  -0.00000  -0.00000  -0.00000  -0.00000   2.06293
    R3        2.06709  -0.00000   0.00000  -0.00000  -0.00000   2.06709
    R4        2.88988  -0.00000   0.00000  -0.00000  -0.00000   2.88988
    R5        2.07017   0.00000  -0.00000   0.00000   0.00000   2.07017
    R6        2.06735  -0.00000  -0.00000  -0.00000  -0.00000   2.06735
    R7        2.89416   0.00000  -0.00000   0.00000   0.00000   2.89416
    R8        2.07017   0.00000  -0.00000   0.00000   0.00000   2.07017
    R9        2.06735  -0.00000  -0.00000  -0.00000  -0.00000   2.06735
   R10        2.88988  -0.00000   0.00000  -0.00000  -0.00000   2.88988
   R11        2.06345   0.00000   0.00000   0.00000   0.00000   2.06345
   R12        2.06709  -0.00000   0.00000  -0.00000  -0.00000   2.06709
   R13        2.06293  -0.00000  -0.00000  -0.00000  -0.00000   2.06293
    A1        1.87787  -0.00000  -0.00000  -0.00000  -0.00000   1.87787
    A2        1.88312   0.00000   0.00000  -0.00000  -0.00000   1.88312
    A3        1.93845  -0.00000  -0.00000  -0.00000  -0.00000   1.93844
    A4        1.88246  -0.00000   0.00000   0.00000   0.00000   1.88246
    A5        1.94778   0.00000   0.00000   0.00000   0.00000   1.94778
    A6        1.93157  -0.00000  -0.00000   0.00000   0.00000   1.93157
    A7        1.91091  -0.00000  -0.00000  -0.00000  -0.00000   1.91091
    A8        1.90497  -0.00000  -0.00000  -0.00000  -0.00000   1.90496
    A9        1.97904   0.00000  -0.00000   0.00000   0.00000   1.97904
   A10        1.86032   0.00000   0.00000  -0.00000  -0.00000   1.86032
   A11        1.90403  -0.00000   0.00000   0.00000   0.00000   1.90403
   A12        1.90082  -0.00000   0.00000  -0.00000  -0.00000   1.90082
   A13        1.90403  -0.00000   0.00000   0.00000   0.00000   1.90403
   A14        1.90082  -0.00000   0.00000  -0.00000  -0.00000   1.90082
   A15        1.97904   0.00000  -0.00000   0.00000   0.00000   1.97904
   A16        1.86032   0.00000   0.00000  -0.00000  -0.00000   1.86032
   A17        1.91091  -0.00000  -0.00000  -0.00000  -0.00000   1.91091
   A18        1.90497  -0.00000  -0.00000  -0.00000  -0.00000   1.90496
   A19        1.93845  -0.00000  -0.00000  -0.00000  -0.00000   1.93844
   A20        1.93157  -0.00000  -0.00000   0.00000   0.00000   1.93157
   A21        1.94778   0.00000   0.00000   0.00000   0.00000   1.94778
   A22        1.88312   0.00000   0.00000  -0.00000  -0.00000   1.88312
   A23        1.87787  -0.00000  -0.00000  -0.00000  -0.00000   1.87787
   A24        1.88246  -0.00000   0.00000   0.00000   0.00000   1.88246
    D1        1.10536  -0.00000   0.00000   0.00000   0.00000   1.10536
    D2       -0.92487   0.00000   0.00000   0.00000   0.00000  -0.92486
    D3       -3.04712   0.00000   0.00000   0.00000   0.00000  -3.04712
    D4       -0.99004   0.00000   0.00000   0.00000   0.00000  -0.99004
    D5       -3.02027   0.00000   0.00000   0.00000   0.00001  -3.02027
    D6        1.14066   0.00000   0.00000   0.00000   0.00000   1.14066
    D7       -3.08660  -0.00000   0.00000  -0.00000  -0.00000  -3.08660
    D8        1.16636  -0.00000   0.00000  -0.00000   0.00000   1.16636
    D9       -0.95589  -0.00000   0.00000  -0.00000  -0.00000  -0.95589
   D10        1.05023  -0.00000  -0.00000   0.00000  -0.00000   1.05022
   D11        3.07431  -0.00000  -0.00000   0.00000  -0.00000   3.07430
   D12       -1.08430  -0.00000  -0.00000   0.00000  -0.00000  -1.08431
   D13       -3.09843   0.00000  -0.00000   0.00000  -0.00000  -3.09844
   D14       -1.07435  -0.00000  -0.00000   0.00000  -0.00000  -1.07435
   D15        1.05023  -0.00000  -0.00000   0.00000  -0.00000   1.05022
   D16       -1.07435  -0.00000  -0.00000   0.00000  -0.00000  -1.07435
   D17        0.94973  -0.00000  -0.00000   0.00000  -0.00000   0.94973
   D18        3.07431  -0.00000  -0.00000   0.00000  -0.00000   3.07430
   D19       -3.04712   0.00000   0.00000   0.00000   0.00000  -3.04712
   D20       -0.95589  -0.00000   0.00000  -0.00000  -0.00000  -0.95589
   D21        1.14066   0.00000   0.00000   0.00000   0.00000   1.14066
   D22        1.10536  -0.00000   0.00000   0.00000   0.00000   1.10536
   D23       -3.08660  -0.00000   0.00000  -0.00000  -0.00000  -3.08660
   D24       -0.99004   0.00000   0.00000   0.00000   0.00000  -0.99004
   D25       -0.92487   0.00000   0.00000   0.00000   0.00000  -0.92486
   D26        1.16636  -0.00000   0.00000  -0.00000   0.00000   1.16636
   D27       -3.02027   0.00000   0.00000   0.00000   0.00001  -3.02027
         Item               Value     Threshold  Converged?
 Maximum Force            0.000001     0.000015     YES
 RMS     Force            0.000000     0.000010     YES
 Maximum Displacement     0.000018     0.000060     YES
 RMS     Displacement     0.000005     0.000040     YES
 Predicted change in Energy=-7.557738D-12
 Optimization completed.
    -- Stationary point found.
                           ----------------------------
                           !   Optimized Parameters   !
                           ! (Angstroms and Degrees)  !
 --------------------------                            --------------------------
 ! Name  Definition              Value          Derivative Info.                !
 --------------------------------------------------------------------------------
 ! R1    R(1,2)                  1.0919         -DE/DX =    0.0                 !
 ! R2    R(1,3)                  1.0917         -DE/DX =    0.0                 !
 ! R3    R(1,4)                  1.0939         -DE/DX =    0.0                 !
 ! R4    R(1,5)                  1.5293         -DE/DX =    0.0                 !
 ! R5    R(5,6)                  1.0955         -DE/DX =    0.0                 !
 ! R6    R(5,7)                  1.094          -DE/DX =    0.0                 !
 ! R7    R(5,8)                  1.5315         -DE/DX =    0.0                 !
 ! R8    R(8,9)                  1.0955         -DE/DX =    0.0                 !
 ! R9    R(8,10)                 1.094          -DE/DX =    0.0                 !
 ! R10   R(8,11)                 1.5293         -DE/DX =    0.0                 !
 ! R11   R(11,12)                1.0919         -DE/DX =    0.0                 !
 ! R12   R(11,13)                1.0939         -DE/DX =    0.0                 !
 ! R13   R(11,14)                1.0917         -DE/DX =    0.0                 !
 ! A1    A(2,1,3)              107.5942         -DE/DX =    0.0                 !
 ! A2    A(2,1,4)              107.895          -DE/DX =    0.0                 !
 ! A3    A(2,1,5)              111.0649         -DE/DX =    0.0                 !
 ! A4    A(3,1,4)              107.8569         -DE/DX =    0.0                 !
 ! A5    A(3,1,5)              111.5994         -DE/DX =    0.0                 !
 ! A6    A(4,1,5)              110.671          -DE/DX =    0.0                 !
 ! A7    A(1,5,6)              109.4871         -DE/DX =    0.0                 !
 ! A8    A(1,5,7)              109.1465         -DE/DX =    0.0                 !
 ! A9    A(1,5,8)              113.3907         -DE/DX =    0.0                 !
 ! A10   A(6,5,7)              106.5886         -DE/DX =    0.0                 !
 ! A11   A(6,5,8)              109.0928         -DE/DX =    0.0                 !
 ! A12   A(7,5,8)              108.9089         -DE/DX =    0.0                 !
 ! A13   A(5,8,9)              109.0928         -DE/DX =    0.0                 !
 ! A14   A(5,8,10)             108.9089         -DE/DX =    0.0                 !
 ! A15   A(5,8,11)             113.3907         -DE/DX =    0.0                 !
 ! A16   A(9,8,10)             106.5886         -DE/DX =    0.0                 !
 ! A17   A(9,8,11)             109.4871         -DE/DX =    0.0                 !
 ! A18   A(10,8,11)            109.1465         -DE/DX =    0.0                 !
 ! A19   A(8,11,12)            111.0649         -DE/DX =    0.0                 !
 ! A20   A(8,11,13)            110.671          -DE/DX =    0.0                 !
 ! A21   A(8,11,14)            111.5994         -DE/DX =    0.0                 !
 ! A22   A(12,11,13)           107.895          -DE/DX =    0.0                 !
 ! A23   A(12,11,14)           107.5942         -DE/DX =    0.0                 !
 ! A24   A(13,11,14)           107.8569         -DE/DX =    0.0                 !
 ! D1    D(2,1,5,6)             63.3326         -DE/DX =    0.0                 !
 ! D2    D(2,1,5,7)            -52.9909         -DE/DX =    0.0                 !
 ! D3    D(2,1,5,8)           -174.5872         -DE/DX =    0.0                 !
 ! D4    D(3,1,5,6)            -56.7254         -DE/DX =    0.0                 !
 ! D5    D(3,1,5,7)           -173.0488         -DE/DX =    0.0                 !
 ! D6    D(3,1,5,8)             65.3548         -DE/DX =    0.0                 !
 ! D7    D(4,1,5,6)           -176.849          -DE/DX =    0.0                 !
 ! D8    D(4,1,5,7)             66.8276         -DE/DX =    0.0                 !
 ! D9    D(4,1,5,8)            -54.7687         -DE/DX =    0.0                 !
 ! D10   D(1,5,8,9)             60.1735         -DE/DX =    0.0                 !
 ! D11   D(1,5,8,10)           176.1449         -DE/DX =    0.0                 !
 ! D12   D(1,5,8,11)           -62.1259         -DE/DX =    0.0                 !
 ! D13   D(6,5,8,9)           -177.527          -DE/DX =    0.0                 !
 ! D14   D(6,5,8,10)           -61.5557         -DE/DX =    0.0                 !
 ! D15   D(6,5,8,11)            60.1735         -DE/DX =    0.0                 !
 ! D16   D(7,5,8,9)            -61.5557         -DE/DX =    0.0                 !
 ! D17   D(7,5,8,10)            54.4157         -DE/DX =    0.0                 !
 ! D18   D(7,5,8,11)           176.1449         -DE/DX =    0.0                 !
 ! D19   D(5,8,11,12)         -174.5872         -DE/DX =    0.0                 !
 ! D20   D(5,8,11,13)          -54.7687         -DE/DX =    0.0                 !
 ! D21   D(5,8,11,14)           65.3548         -DE/DX =    0.0                 !
 ! D22   D(9,8,11,12)           63.3326         -DE/DX =    0.0                 !
 ! D23   D(9,8,11,13)         -176.849          -DE/DX =    0.0                 !
 ! D24   D(9,8,11,14)          -56.7254         -DE/DX =    0.0                 !
 ! D25   D(10,8,11,12)         -52.9909         -DE/DX =    0.0                 !
 ! D26   D(10,8,11,13)          66.8276         -DE/DX =    0.0                 !
 ! D27   D(10,8,11,14)        -173.0488         -DE/DX =    0.0                 !
 --------------------------------------------------------------------------------
 Largest change from initial coordinates is atom    4       1.504 Angstoms.
 GradGradGradGradGradGradGradGradGradGradGradGradGradGradGradGradGradGrad

 Leave Link  103 at Wed Aug 12 19:12:45 2026, MaxMem= 12884901888 cpu:               1.8 elap:               0.1
 (Enter /home/falbo/g16/l202.exe)
                          Input orientation:                          
 ---------------------------------------------------------------------
 Center     Atomic      Atomic             Coordinates (Angstroms)
 Number     Number       Type             X           Y           Z
 ---------------------------------------------------------------------
      1          6           0       -0.544253    0.816319    1.496147
      2          1           0       -0.354125   -0.253223    1.385470
      3          1           0       -0.271857    1.096139    2.515566
      4          1           0        0.123173    1.348865    0.812438
      5          6           0       -2.005640    1.149122    1.192457
      6          1           0       -2.653167    0.651006    1.922306
      7          1           0       -2.269895    0.742619    0.211766
      8          6           0       -2.301933    2.651673    1.203132
      9          1           0       -1.686118    3.143755    0.442397
     10          1           0       -3.344366    2.809548    0.911178
     11          6           0       -2.056486    3.309241    2.561807
     12          1           0       -2.368714    4.355551    2.553565
     13          1           0       -2.620263    2.796416    3.346464
     14          1           0       -1.000271    3.282221    2.836385
 ---------------------------------------------------------------------
                    Distance matrix (angstroms):
                    1          2          3          4          5
     1  C    0.000000
     2  H    1.091933   0.000000
     3  H    1.091656   1.762005   0.000000
     4  H    1.093856   1.767163   1.766511   0.000000
     5  C    1.529260   2.175161   2.181612   2.171671   0.000000
     6  H    2.157883   2.528125   2.494141   3.070322   1.095487
     7  H    2.152419   2.457531   3.069955   2.540692   1.093997
     8  C    2.558089   3.502231   2.874609   2.780484   1.531524
     9  H    2.798430   3.768694   3.238966   2.575286   2.154819
    10  H    3.486515   4.306630   3.866542   3.763930   2.151353
    11  C    3.104374   4.119824   2.843389   3.413836   2.558089
    12  H    4.119824   5.163701   3.875825   4.275650   3.502231
    13  H    3.413836   4.275650   3.016016   4.005388   2.780484
    14  H    2.843389   3.875825   2.326471   3.016016   2.874609
                    6          7          8          9         10
     6  H    0.000000
     7  H    1.755345   0.000000
     8  C    2.154819   2.151353   0.000000
     9  H    3.055996   2.481822   1.095487   0.000000
    10  H    2.481822   2.432254   1.093997   1.755345   0.000000
    11  C    2.798430   3.486515   1.529260   2.157883   2.152419
    12  H    3.768694   4.306630   2.175161   2.528125   2.457531
    13  H    2.575286   3.763930   2.171671   3.070322   2.540692
    14  H    3.238966   3.866542   2.181612   2.494141   3.069955
                   11         12         13         14
    11  C    0.000000
    12  H    1.091933   0.000000
    13  H    1.093856   1.767163   0.000000
    14  H    1.091656   1.762005   1.766511   0.000000
 Stoichiometry    C4H10
 Framework group  C2[X(C4H10)]
 Deg. of freedom    19
 Full point group                 C2      NOp   2
 RotChk:  IX=0 Diff= 2.24D-15
 Largest Abelian subgroup         C2      NOp   2
 Largest concise Abelian subgroup C2      NOp   2
                         Standard orientation:                         
 ---------------------------------------------------------------------
 Center     Atomic      Atomic             Coordinates (Angstroms)
 Number     Number       Type             X           Y           Z
 ---------------------------------------------------------------------
      1          6           0       -0.586838    1.436978   -0.566964
      2          1           0       -1.380948    2.181498   -0.480955
      3          1           0       -0.741117    0.896584   -1.502852
      4          1           0        0.366163    1.968936   -0.639975
      5          6           0       -0.586838    0.491947    0.635348
      6          1           0       -1.526348   -0.071004    0.657687
      7          1           0       -0.554528    1.082342    1.555793
      8          6           0        0.586838   -0.491947    0.635348
      9          1           0        1.526348    0.071004    0.657687
     10          1           0        0.554528   -1.082342    1.555793
     11          6           0        0.586838   -1.436978   -0.566964
     12          1           0        1.380948   -2.181498   -0.480955
     13          1           0       -0.366163   -1.968936   -0.639975
     14          1           0        0.741117   -0.896584   -1.502852
 ---------------------------------------------------------------------
 Rotational constants (GHZ):          13.0604887           4.8673052           4.1051410
 Leave Link  202 at Wed Aug 12 19:12:45 2026, MaxMem= 12884901888 cpu:               0.2 elap:               0.0
 (Enter /home/falbo/g16/l601.exe)
 Copying SCF densities to generalized density rwf, IOpCl= 0 IROHF=0.

 **********************************************************************

            Population analysis using the SCF Density.

 **********************************************************************

 Orbital symmetries:
       Occupied  (A) (B) (B) (A) (A) (B) (A) (B) (B) (A) (A) (A)
                 (B) (B) (A) (B) (A)
       Virtual   (A) (A) (B) (B) (B) (B) (A) (A) (A) (A) (B) (B)
                 (A) (B) (B) (A) (A) (A) (B) (B) (A) (B) (B) (A)
                 (B) (A) (B) (B) (A) (A) (B) (A) (B) (A) (B) (A)
                 (B) (A) (B) (A) (B) (A) (B) (B) (A) (A) (B) (A)
                 (A) (B) (A) (B) (B) (B) (A) (A) (B) (B) (A) (A)
                 (B) (A) (B) (A) (A) (B) (A) (B) (A) (B) (B) (A)
                 (B) (A) (B) (A) (B) (A) (B)
 The electronic state is 1-A.
 Alpha  occ. eigenvalues --  -10.56484 -10.56447 -10.55680 -10.55680  -0.90367
 Alpha  occ. eigenvalues --   -0.82132  -0.73633  -0.65471  -0.53539  -0.53158
 Alpha  occ. eigenvalues --   -0.48834  -0.45200  -0.45069  -0.42569  -0.38793
 Alpha  occ. eigenvalues --   -0.38498  -0.38365
 Alpha virt. eigenvalues --    0.05443   0.06844   0.07307   0.07789   0.10405
 Alpha virt. eigenvalues --    0.11325   0.11459   0.11842   0.12062   0.14638
 Alpha virt. eigenvalues --    0.15051   0.15992   0.16176   0.16627   0.20089
 Alpha virt. eigenvalues --    0.21590   0.24244   0.26499   0.27403   0.28729
 Alpha virt. eigenvalues --    0.30132   0.31442   0.32661   0.35476   0.35669
 Alpha virt. eigenvalues --    0.37333   0.39848   0.40490   0.46245   0.65087
 Alpha virt. eigenvalues --    0.67847   0.68866   0.70888   0.72138   0.75284
 Alpha virt. eigenvalues --    0.78091   0.79577   0.79701   0.83032   0.94636
 Alpha virt. eigenvalues --    0.98213   1.00994   1.04048   1.07208   1.07430
 Alpha virt. eigenvalues --    1.10704   1.11128   1.14441   1.20261   1.21832
 Alpha virt. eigenvalues --    1.24132   1.24207   1.36271   1.52971   1.53984
 Alpha virt. eigenvalues --    1.63319   1.66278   1.76749   1.81185   1.95296
 Alpha virt. eigenvalues --    2.03714   2.06136   2.08006   2.11184   2.21497
 Alpha virt. eigenvalues --    2.23443   2.39437   2.40833   2.42516   2.45052
 Alpha virt. eigenvalues --    2.51789   2.53083   2.70226   2.71428   2.79211
 Alpha virt. eigenvalues --    4.22437   4.32804   4.47730   4.57872
          Condensed to atoms (all electrons):
               1          2          3          4          5          6
     1  C    5.552260   0.396631   0.413650   0.411032   0.093841  -0.060601
     2  H    0.396631   0.493607  -0.026097  -0.026075  -0.060504  -0.002281
     3  H    0.413650  -0.026097   0.499029  -0.030989  -0.051581  -0.004720
     4  H    0.411032  -0.026075  -0.030989   0.496142  -0.059433   0.004188
     5  C    0.093841  -0.060504  -0.051581  -0.059433   5.660496   0.424514
     6  H   -0.060601  -0.002281  -0.004720   0.004188   0.424514   0.512351
     7  H   -0.042906  -0.003632   0.004152  -0.003658   0.414618  -0.031340
     8  C   -0.091925   0.018881  -0.023813   0.000070   0.192562  -0.046774
     9  H   -0.011562  -0.000032  -0.000081   0.003125  -0.046774   0.004464
    10  H    0.014901  -0.000105  -0.000056   0.000016  -0.069574  -0.003565
    11  C   -0.021448  -0.000843   0.010109  -0.007568  -0.091925  -0.011562
    12  H   -0.000843   0.000000   0.000028  -0.000022   0.018881  -0.000032
    13  H   -0.007568  -0.000022   0.000050   0.000098   0.000070   0.003125
    14  H    0.010109   0.000028  -0.001413   0.000050  -0.023813  -0.000081
               7          8          9         10         11         12
     1  C   -0.042906  -0.091925  -0.011562   0.014901  -0.021448  -0.000843
     2  H   -0.003632   0.018881  -0.000032  -0.000105  -0.000843   0.000000
     3  H    0.004152  -0.023813  -0.000081  -0.000056   0.010109   0.000028
     4  H   -0.003658   0.000070   0.003125   0.000016  -0.007568  -0.000022
     5  C    0.414618   0.192562  -0.046774  -0.069574  -0.091925   0.018881
     6  H   -0.031340  -0.046774   0.004464  -0.003565  -0.011562  -0.000032
     7  H    0.514963  -0.069574  -0.003565  -0.003256   0.014901  -0.000105
     8  C   -0.069574   5.660496   0.424514   0.414618   0.093841  -0.060504
     9  H   -0.003565   0.424514   0.512351  -0.031340  -0.060601  -0.002281
    10  H   -0.003256   0.414618  -0.031340   0.514963  -0.042906  -0.003632
    11  C    0.014901   0.093841  -0.060601  -0.042906   5.552260   0.396631
    12  H   -0.000105  -0.060504  -0.002281  -0.003632   0.396631   0.493607
    13  H    0.000016  -0.059433   0.004188  -0.003658   0.411032  -0.026075
    14  H   -0.000056  -0.051581  -0.004720   0.004152   0.413650  -0.026097
              13         14
     1  C   -0.007568   0.010109
     2  H   -0.000022   0.000028
     3  H    0.000050  -0.001413
     4  H    0.000098   0.000050
     5  C    0.000070  -0.023813
     6  H    0.003125  -0.000081
     7  H    0.000016  -0.000056
     8  C   -0.059433  -0.051581
     9  H    0.004188  -0.004720
    10  H   -0.003658   0.004152
    11  C    0.411032   0.413650
    12  H   -0.026075  -0.026097
    13  H    0.496142  -0.030989
    14  H   -0.030989   0.499029
 Mulliken charges:
               1
     1  C   -0.655571
     2  H    0.210443
     3  H    0.211731
     4  H    0.213023
     5  C   -0.401379
     6  H    0.212313
     7  H    0.209440
     8  C   -0.401379
     9  H    0.212313
    10  H    0.209440
    11  C   -0.655571
    12  H    0.210443
    13  H    0.213023
    14  H    0.211731
 Sum of Mulliken charges =   0.00000
 Mulliken charges with hydrogens summed into heavy atoms:
               1
     1  C   -0.020375
     5  C    0.020375
     8  C    0.020375
    11  C   -0.020375
 APT charges:
               1
     1  C    0.047375
     2  H   -0.023697
     3  H   -0.014160
     4  H   -0.021819
     5  C    0.116650
     6  H   -0.049985
     7  H   -0.054364
     8  C    0.116650
     9  H   -0.049985
    10  H   -0.054364
    11  C    0.047375
    12  H   -0.023697
    13  H   -0.021819
    14  H   -0.014160
 Sum of APT charges =  -0.00000
 APT charges with hydrogens summed into heavy atoms:
               1
     1  C   -0.012301
     5  C    0.012301
     8  C    0.012301
    11  C   -0.012301
 Electronic spatial extent (au):  <R**2>=            377.6476
 Charge=              0.0000 electrons
 Dipole moment (field-independent basis, Debye):
    X=             -0.0000    Y=              0.0000    Z=              0.0956  Tot=              0.0956
 Quadrupole moment (field-independent basis, Debye-Ang):
   XX=            -28.4653   YY=            -28.7362   ZZ=            -28.8260
   XY=              0.1346   XZ=              0.0000   YZ=              0.0000
 Traceless Quadrupole moment (field-independent basis, Debye-Ang):
   XX=              0.2106   YY=             -0.0604   ZZ=             -0.1502
   XY=              0.1346   XZ=              0.0000   YZ=              0.0000
 Octapole moment (field-independent basis, Debye-Ang**2):
  XXX=             -0.0000  YYY=              0.0000  ZZZ=              0.5897  XYY=             -0.0000
  XXY=              0.0000  XXZ=             -0.0593  XZZ=             -0.0000  YZZ=              0.0000
  YYZ=              1.4862  XYZ=             -0.2982
 Hexadecapole moment (field-independent basis, Debye-Ang**3):
 XXXX=           -123.7641 YYYY=           -280.3613 ZZZZ=           -131.1976 XXXY=             51.6424
 XXXZ=             -0.0000 YYYX=             50.1593 YYYZ=             -0.0000 ZZZX=             -0.0000
 ZZZY=              0.0000 XXYY=            -63.1171 XXZZ=            -44.5716 YYZZ=            -70.5880
 XXYZ=             -0.0000 YYXZ=              0.0000 ZZXY=             18.0506
 N-N= 1.327513812511D+02 E-N=-6.307189512861D+02  KE= 1.568452603242D+02
 Symmetry A    KE= 7.949402242932D+01
 Symmetry B    KE= 7.735123789484D+01
  Exact polarizability:  45.818  -2.738  49.417  -0.000  -0.000  45.960
 Approx polarizability:  50.083   0.092  49.725   0.000   0.000  49.279
 No NMR shielding tensors so no spin-rotation constants.
 Leave Link  601 at Wed Aug 12 19:12:45 2026, MaxMem= 12884901888 cpu:               4.5 elap:               0.1
 (Enter /home/falbo/g16/l716.exe)
 Rotating derivatives to standard orientation.
 Dipole        =-2.34708086D-15 1.11889664D-15 3.76298664D-02
 Polarizability= 4.58183559D+01-2.73766646D+00 4.94172924D+01
                -1.73854637D-08-1.04522563D-07 4.59603531D+01
 Full mass-weighted force constant matrix:
 Low frequencies ---  -27.9930  -19.0391   -9.7226    0.0003    0.0005    0.0006
 Low frequencies ---  108.3232  204.8501  280.1708
 Diagonal vibrational polarizability:
        0.7700481       0.7974303       0.6183572
 Harmonic frequencies (cm**-1), IR intensities (KM/Mole), Raman scattering
 activities (A**4/AMU), depolarization ratios for plane and unpolarized
 incident light, reduced masses (AMU), force constants (mDyne/A),
 and normal coordinates:
                      1                      2                      3
                      A                      B                      A
 Frequencies --    108.2773               204.8269               280.1578
 Red. masses --      1.5386                 1.0452                 1.3988
 Frc consts  --      0.0106                 0.0258                 0.0647
 IR Inten    --      0.0040                 0.0540                 0.0278
  Atom  AN      X      Y      Z        X      Y      Z        X      Y      Z
     1   6     0.02   0.12   0.06    -0.03  -0.00   0.00     0.07  -0.10  -0.03
     2   1    -0.14  -0.05   0.00    -0.29  -0.27  -0.17    -0.14  -0.29  -0.31
     3   1     0.31   0.21  -0.05     0.35  -0.07  -0.02     0.43  -0.22  -0.02
     4   1    -0.07   0.31   0.32    -0.19   0.31   0.20    -0.04   0.12   0.16
     5   6    -0.04  -0.04  -0.06     0.03   0.01   0.01     0.01   0.00   0.04
     6   1     0.00  -0.11  -0.22     0.05  -0.02   0.02     0.00   0.02   0.06
     7   1    -0.17  -0.15   0.01     0.02   0.01   0.00     0.00   0.07   0.00
     8   6     0.04   0.04  -0.06     0.03   0.01  -0.01    -0.01  -0.00   0.04
     9   1    -0.00   0.11  -0.22     0.05  -0.02  -0.02    -0.00  -0.02   0.06
    10   1     0.17   0.15   0.01     0.02   0.01  -0.00    -0.00  -0.07   0.00
    11   6    -0.02  -0.12   0.06    -0.03  -0.00  -0.00    -0.07   0.10  -0.03
    12   1     0.14   0.05   0.00    -0.29  -0.27   0.17     0.14   0.29  -0.31
    13   1     0.07  -0.31   0.32    -0.19   0.31  -0.20     0.04  -0.12   0.16
    14   1    -0.31  -0.21  -0.05     0.35  -0.07   0.02    -0.43   0.22  -0.02
                      4                      5                      6
                      A                      B                      B
 Frequencies --    319.7739               438.0221               756.9693
 Red. masses --      1.7131                 1.9780                 1.1505
 Frc consts  --      0.1032                 0.2236                 0.3884
 IR Inten    --      0.0194                 0.4096                 4.0429
  Atom  AN      X      Y      Z        X      Y      Z        X      Y      Z
     1   6    -0.08   0.08  -0.02     0.06  -0.06   0.06    -0.00   0.00  -0.04
     2   1    -0.26  -0.11  -0.01     0.12   0.03  -0.23     0.03   0.02   0.14
     3   1     0.03   0.04  -0.01     0.21  -0.23   0.13     0.05   0.28  -0.20
     4   1    -0.21   0.31  -0.03     0.14  -0.18   0.14     0.01   0.02   0.21
     5   6     0.08   0.11   0.01    -0.10   0.07   0.13    -0.02  -0.06  -0.04
     6   1    -0.01   0.26   0.21    -0.17   0.20   0.29    -0.13   0.14   0.32
     7   1     0.32   0.15  -0.03     0.16   0.10   0.10     0.32   0.17  -0.19
     8   6    -0.08  -0.11   0.01    -0.10   0.07  -0.13    -0.02  -0.06   0.04
     9   1     0.01  -0.26   0.21    -0.17   0.20  -0.29    -0.13   0.14  -0.32
    10   1    -0.32  -0.15  -0.03     0.16   0.10  -0.10     0.32   0.17   0.19
    11   6     0.08  -0.08  -0.02     0.06  -0.06  -0.06    -0.00   0.00   0.04
    12   1     0.26   0.11  -0.01     0.12   0.03   0.23     0.03   0.02  -0.14
    13   1     0.21  -0.31  -0.03     0.14  -0.18  -0.14     0.01   0.02  -0.21
    14   1    -0.03  -0.04  -0.01     0.21  -0.23  -0.13     0.05   0.28   0.20
                      7                      8                      9
                      A                      A                      B
 Frequencies --    812.5601               853.9434               981.3368
 Red. masses --      1.2901                 1.9128                 1.1568
 Frc consts  --      0.5019                 0.8218                 0.6564
 IR Inten    --      1.8247                 0.0000                 3.6311
  Atom  AN      X      Y      Z        X      Y      Z        X      Y      Z
     1   6    -0.01  -0.06   0.03     0.06  -0.08   0.07     0.07  -0.01   0.03
     2   1     0.07   0.01   0.17    -0.12  -0.30   0.35    -0.13  -0.24   0.22
     3   1     0.08   0.22  -0.15    -0.15  -0.08   0.11    -0.15  -0.08   0.10
     4   1     0.04  -0.11   0.32    -0.10   0.17  -0.19    -0.09   0.22  -0.26
     5   6     0.01  -0.06  -0.07     0.14  -0.03  -0.07    -0.03  -0.00  -0.02
     6   1    -0.01  -0.01   0.33     0.10   0.02  -0.27    -0.24   0.35  -0.12
     7   1     0.33   0.11  -0.18     0.05  -0.16   0.01     0.11  -0.03  -0.01
     8   6    -0.01   0.06  -0.07    -0.14   0.03  -0.07    -0.03  -0.00   0.02
     9   1     0.01   0.01   0.33    -0.10  -0.02  -0.27    -0.24   0.35   0.12
    10   1    -0.33  -0.11  -0.18    -0.05   0.16   0.01     0.11  -0.03   0.01
    11   6     0.01   0.06   0.03    -0.06   0.08   0.07     0.07  -0.01  -0.03
    12   1    -0.07  -0.01   0.17     0.12   0.30   0.35    -0.13  -0.24  -0.22
    13   1    -0.04   0.11   0.32     0.10  -0.17  -0.19    -0.09   0.22   0.26
    14   1    -0.08  -0.22  -0.15     0.15   0.08   0.11    -0.15  -0.08  -0.10
                     10                     11                     12
                      B                      A                      A
 Frequencies --    991.5243              1009.7945              1114.4874
 Red. masses --      2.0684                 1.3452                 2.0364
 Frc consts  --      1.1981                 0.8082                 1.4903
 IR Inten    --      1.2186                 0.1047                 0.1373
  Atom  AN      X      Y      Z        X      Y      Z        X      Y      Z
     1   6     0.00   0.13  -0.10     0.04  -0.02  -0.08    -0.02  -0.07   0.08
     2   1    -0.03   0.12  -0.32    -0.01  -0.11   0.33     0.00  -0.06   0.13
     3   1     0.01  -0.08   0.01    -0.09   0.32  -0.25    -0.02  -0.05   0.07
     4   1     0.00   0.11  -0.28    -0.07   0.19  -0.00    -0.00  -0.09   0.17
     5   6    -0.01  -0.12   0.08    -0.01  -0.01   0.08    -0.09   0.14  -0.08
     6   1    -0.11   0.03   0.10     0.00  -0.02  -0.00    -0.20   0.32  -0.24
     7   1     0.24  -0.33   0.21    -0.27   0.26  -0.08    -0.23   0.31  -0.19
     8   6    -0.01  -0.12  -0.08     0.01   0.01   0.08     0.09  -0.14  -0.08
     9   1    -0.11   0.03  -0.10    -0.00   0.02  -0.00     0.20  -0.32  -0.24
    10   1     0.24  -0.33  -0.21     0.27  -0.26  -0.08     0.23  -0.31  -0.19
    11   6     0.00   0.13   0.10    -0.04   0.02  -0.08     0.02   0.07   0.08
    12   1    -0.03   0.12   0.32     0.01   0.11   0.33    -0.00   0.06   0.13
    13   1     0.00   0.11   0.28     0.07  -0.19  -0.00     0.00   0.09   0.17
    14   1     0.01  -0.08  -0.01     0.09  -0.32  -0.25     0.02   0.05   0.07
                     13                     14                     15
                      B                      A                      B
 Frequencies --   1171.4932              1216.3316              1306.9312
 Red. masses --      1.8469                 1.8395                 1.2316
 Frc consts  --      1.4934                 1.6035                 1.2394
 IR Inten    --      2.6052                 0.0637                 0.2250
  Atom  AN      X      Y      Z        X      Y      Z        X      Y      Z
     1   6     0.06  -0.05  -0.09    -0.09  -0.04  -0.02    -0.06  -0.04  -0.03
     2   1     0.01  -0.14   0.30     0.12   0.18  -0.04     0.09   0.11   0.01
     3   1    -0.11   0.32  -0.27     0.16   0.11  -0.14     0.11   0.11  -0.14
     4   1    -0.08   0.22   0.01     0.05  -0.22   0.33    -0.00  -0.11   0.20
     5   6    -0.03   0.03   0.15     0.15   0.07   0.02     0.05   0.02   0.02
     6   1     0.08  -0.17   0.01     0.26  -0.13  -0.25    -0.17   0.38  -0.36
     7   1    -0.21  -0.01   0.18    -0.20  -0.05   0.11     0.07  -0.21   0.17
     8   6    -0.03   0.03  -0.15    -0.15  -0.07   0.02     0.05   0.02  -0.02
     9   1     0.08  -0.17  -0.01    -0.26   0.13  -0.25    -0.17   0.38   0.36
    10   1    -0.21  -0.01  -0.18     0.20   0.05   0.11     0.07  -0.21  -0.17
    11   6     0.06  -0.05   0.09     0.09   0.04  -0.02    -0.06  -0.04   0.03
    12   1     0.01  -0.14  -0.30    -0.12  -0.18  -0.04     0.09   0.11  -0.01
    13   1    -0.08   0.22  -0.01    -0.05   0.22   0.33    -0.00  -0.11  -0.20
    14   1    -0.11   0.32   0.27    -0.16  -0.11  -0.14     0.11   0.11   0.14
                     16                     17                     18
                      A                      B                      A
 Frequencies --   1331.3149              1393.2694              1405.8203
 Red. masses --      1.1593                 1.3110                 1.5579
 Frc consts  --      1.2106                 1.4994                 1.8140
 IR Inten    --      0.4830                 0.7033                 0.0692
  Atom  AN      X      Y      Z        X      Y      Z        X      Y      Z
     1   6     0.00   0.04   0.04    -0.01  -0.00   0.04    -0.04   0.02   0.01
     2   1    -0.04   0.02  -0.11     0.05   0.10  -0.22     0.01   0.09  -0.13
     3   1     0.03  -0.13   0.14     0.04   0.13  -0.05     0.12   0.04  -0.03
     4   1     0.04  -0.03  -0.11    -0.05   0.05  -0.17     0.02  -0.09  -0.07
     5   6     0.05  -0.03  -0.02     0.04  -0.07   0.07     0.06  -0.13   0.04
     6   1     0.19  -0.25   0.13    -0.12   0.18  -0.10    -0.31   0.48  -0.24
     7   1    -0.20   0.42  -0.30    -0.31   0.41  -0.23    -0.05   0.14  -0.13
     8   6    -0.05   0.03  -0.02     0.04  -0.07  -0.07    -0.06   0.13   0.04
     9   1    -0.19   0.25   0.13    -0.12   0.18   0.10     0.31  -0.48  -0.24
    10   1     0.20  -0.42  -0.30    -0.31   0.41   0.23     0.05  -0.14  -0.13
    11   6    -0.00  -0.04   0.04    -0.01  -0.00  -0.04     0.04  -0.02   0.01
    12   1     0.04  -0.02  -0.11     0.05   0.10   0.22    -0.01  -0.09  -0.13
    13   1    -0.04   0.03  -0.11    -0.05   0.05   0.17    -0.02   0.09  -0.07
    14   1    -0.03   0.13   0.14     0.04   0.13   0.05    -0.12  -0.04  -0.03
                     19                     20                     21
                      A                      B                      B
 Frequencies --   1446.8575              1449.9138              1522.0975
 Red. masses --      1.2472                 1.3240                 1.0645
 Frc consts  --      1.5382                 1.6400                 1.4531
 IR Inten    --      7.4159                 8.2580                 0.6005
  Atom  AN      X      Y      Z        X      Y      Z        X      Y      Z
     1   6    -0.00  -0.07   0.08     0.01  -0.07   0.08    -0.01  -0.01  -0.01
     2   1     0.16   0.17  -0.32     0.12   0.12  -0.34     0.13   0.12   0.17
     3   1     0.03   0.34  -0.18    -0.02   0.34  -0.17     0.20  -0.09   0.01
     4   1    -0.17   0.21  -0.32    -0.16   0.19  -0.27    -0.06   0.08  -0.10
     5   6    -0.01   0.02  -0.01    -0.02   0.04  -0.04     0.03   0.00  -0.04
     6   1     0.05  -0.07  -0.03     0.05  -0.08   0.05    -0.08   0.17   0.39
     7   1     0.05   0.01  -0.01     0.13  -0.18   0.09    -0.37  -0.18   0.11
     8   6     0.01  -0.02  -0.01    -0.02   0.04   0.04     0.03   0.00   0.04
     9   1    -0.05   0.07  -0.03     0.05  -0.08  -0.05    -0.08   0.17  -0.39
    10   1    -0.05  -0.01  -0.01     0.13  -0.18  -0.09    -0.37  -0.18  -0.11
    11   6     0.00   0.07   0.08     0.01  -0.07  -0.08    -0.01  -0.01   0.01
    12   1    -0.16  -0.17  -0.32     0.12   0.12   0.34     0.13   0.12  -0.17
    13   1     0.17  -0.21  -0.32    -0.16   0.19   0.27    -0.06   0.08   0.10
    14   1    -0.03  -0.34  -0.18    -0.02   0.34   0.17     0.20  -0.09  -0.01
                     22                     23                     24
                      A                      B                      A
 Frequencies --   1527.2503              1540.4970              1543.6557
 Red. masses --      1.0669                 1.0428                 1.0737
 Frc consts  --      1.4663                 1.4581                 1.5074
 IR Inten    --      0.0282                14.2477                 6.5019
  Atom  AN      X      Y      Z        X      Y      Z        X      Y      Z
     1   6    -0.00   0.01   0.02    -0.01  -0.02  -0.02     0.00  -0.02  -0.02
     2   1    -0.15  -0.16   0.00     0.30   0.30   0.14     0.25   0.24   0.03
     3   1     0.14   0.16  -0.10     0.06  -0.24   0.11    -0.06  -0.19   0.10
     4   1     0.11  -0.22  -0.21    -0.20   0.34   0.06    -0.17   0.31   0.13
     5   6     0.02   0.02  -0.04    -0.02  -0.01   0.01     0.03  -0.02  -0.03
     6   1    -0.05   0.13   0.34     0.03  -0.10  -0.14    -0.06   0.14   0.28
     7   1    -0.33  -0.17   0.11     0.16   0.10  -0.08    -0.28  -0.09   0.03
     8   6    -0.02  -0.02  -0.04    -0.02  -0.01  -0.01    -0.03   0.02  -0.03
     9   1     0.05  -0.13   0.34     0.03  -0.10   0.14     0.06  -0.14   0.28
    10   1     0.33   0.17   0.11     0.16   0.10   0.08     0.28   0.09   0.03
    11   6     0.00  -0.01   0.02    -0.01  -0.02   0.02    -0.00   0.02  -0.02
    12   1     0.15   0.16   0.00     0.30   0.30  -0.14    -0.25  -0.24   0.03
    13   1    -0.11   0.22  -0.21    -0.20   0.34  -0.06     0.17  -0.31   0.13
    14   1    -0.14  -0.16  -0.10     0.06  -0.24  -0.11     0.06   0.19   0.10
                     25                     26                     27
                      B                      A                      A
 Frequencies --   1546.0228              1554.6871              3088.6776
 Red. masses --      1.0560                 1.0520                 1.0681
 Frc consts  --      1.4871                 1.4981                 6.0034
 IR Inten    --     13.8094                 1.0696                16.9795
  Atom  AN      X      Y      Z        X      Y      Z        X      Y      Z
     1   6    -0.03   0.01   0.02    -0.04  -0.00  -0.01     0.01   0.00  -0.00
     2   1    -0.02  -0.03   0.25     0.14   0.13   0.36    -0.03   0.03   0.01
     3   1     0.45   0.04  -0.09     0.47  -0.14  -0.00     0.00  -0.01  -0.01
     4   1     0.05  -0.17  -0.37    -0.05   0.01  -0.27    -0.06  -0.03   0.01
     5   6    -0.02   0.01   0.01    -0.03   0.01   0.00    -0.05  -0.02   0.02
     6   1     0.04  -0.10  -0.12     0.01  -0.05  -0.03     0.57   0.34  -0.01
     7   1     0.15   0.06  -0.03     0.08   0.01  -0.01    -0.02  -0.13  -0.19
     8   6    -0.02   0.01  -0.01     0.03  -0.01   0.00     0.05   0.02   0.02
     9   1     0.04  -0.10   0.12    -0.01   0.05  -0.03    -0.57  -0.34  -0.01
    10   1     0.15   0.06   0.03    -0.08  -0.01  -0.01     0.02   0.13  -0.19
    11   6    -0.03   0.01  -0.02     0.04   0.00  -0.01    -0.01  -0.00  -0.00
    12   1    -0.02  -0.03  -0.25    -0.14  -0.13   0.36     0.03  -0.03   0.01
    13   1     0.05  -0.17   0.37     0.05  -0.01  -0.27     0.06   0.03   0.01
    14   1     0.45   0.04   0.09    -0.47   0.14  -0.00    -0.00   0.01  -0.01
                     28                     29                     30
                      B                      B                      A
 Frequencies --   3090.0542              3102.8361              3104.3849
 Red. masses --      1.0598                 1.0373                 1.0388
 Frc consts  --      5.9624                 5.8839                 5.8984
 IR Inten    --     32.8566                24.7084                32.2931
  Atom  AN      X      Y      Z        X      Y      Z        X      Y      Z
     1   6     0.01  -0.00  -0.00    -0.01  -0.03   0.02    -0.01  -0.03   0.02
     2   1    -0.02   0.02   0.00    -0.26   0.24   0.04    -0.26   0.24   0.03
     3   1     0.01   0.02   0.04    -0.05  -0.18  -0.29    -0.05  -0.16  -0.26
     4   1    -0.06  -0.03   0.00     0.43   0.24  -0.02     0.45   0.25  -0.03
     5   6    -0.03   0.00   0.03     0.00   0.00   0.00     0.00   0.00   0.01
     6   1     0.43   0.26   0.00    -0.00  -0.00   0.00    -0.01  -0.00   0.00
     7   1    -0.03  -0.27  -0.41    -0.00  -0.05  -0.07    -0.00  -0.05  -0.07
     8   6    -0.03   0.00  -0.03     0.00   0.00  -0.00    -0.00  -0.00   0.01
     9   1     0.43   0.26  -0.00    -0.00  -0.00  -0.00     0.01   0.00   0.00
    10   1    -0.03  -0.27   0.41    -0.00  -0.05   0.07     0.00   0.05  -0.07
    11   6     0.01  -0.00   0.00    -0.01  -0.03  -0.02     0.01   0.03   0.02
    12   1    -0.02   0.02  -0.00    -0.26   0.24  -0.04     0.26  -0.24   0.03
    13   1    -0.06  -0.03  -0.00     0.43   0.24   0.02    -0.45  -0.25  -0.03
    14   1     0.01   0.02  -0.04    -0.05  -0.18   0.29     0.05   0.16  -0.26
                     31                     32                     33
                      A                      B                      A
 Frequencies --   3123.5097              3127.1608              3165.8195
 Red. masses --      1.0940                 1.1034                 1.1005
 Frc consts  --      6.2886                 6.3577                 6.4987
 IR Inten    --     30.2364                32.2493                 2.1471
  Atom  AN      X      Y      Z        X      Y      Z        X      Y      Z
     1   6     0.00   0.00   0.01     0.01   0.01   0.01    -0.06   0.00  -0.01
     2   1    -0.02   0.02   0.00    -0.04   0.04   0.01     0.36  -0.34  -0.05
     3   1    -0.02  -0.08  -0.14    -0.03  -0.11  -0.17     0.01   0.10   0.16
     4   1     0.01   0.00   0.00    -0.09  -0.04   0.01     0.39   0.22  -0.03
     5   6    -0.02  -0.04  -0.05    -0.03  -0.04  -0.03    -0.01  -0.01  -0.00
     6   1     0.18   0.10  -0.01     0.40   0.23  -0.01     0.07   0.05  -0.00
     7   1     0.02   0.35   0.55     0.01   0.26   0.40     0.00   0.01   0.03
     8   6     0.02   0.04  -0.05    -0.03  -0.04   0.03     0.01   0.01  -0.00
     9   1    -0.18  -0.10  -0.01     0.40   0.23   0.01    -0.07  -0.05  -0.00
    10   1    -0.02  -0.35   0.55     0.01   0.26  -0.40    -0.00  -0.01   0.03
    11   6    -0.00  -0.00   0.01     0.01   0.01  -0.01     0.06  -0.00  -0.01
    12   1     0.02  -0.02   0.00    -0.04   0.04  -0.01    -0.36   0.34  -0.05
    13   1    -0.01  -0.00   0.00    -0.09  -0.04  -0.01    -0.39  -0.22  -0.03
    14   1     0.02   0.08  -0.14    -0.03  -0.11   0.17    -0.01  -0.10   0.16
                     34                     35                     36
                      B                      B                      A
 Frequencies --   3165.9610              3173.0331              3180.6804
 Red. masses --      1.1012                 1.1026                 1.1014
 Frc consts  --      6.5031                 6.5407                 6.5650
 IR Inten    --     92.0342                59.5072                36.3475
  Atom  AN      X      Y      Z        X      Y      Z        X      Y      Z
     1   6    -0.06  -0.01  -0.01     0.02  -0.05  -0.04     0.00  -0.05  -0.04
     2   1     0.27  -0.27  -0.04    -0.34   0.31   0.03    -0.26   0.23   0.02
     3   1     0.03   0.14   0.24     0.08   0.25   0.43     0.08   0.29   0.50
     4   1     0.42   0.24  -0.03     0.04   0.01  -0.01     0.12   0.05  -0.02
     5   6    -0.01  -0.01  -0.01    -0.00  -0.01  -0.01    -0.00  -0.01  -0.01
     6   1     0.14   0.08  -0.01     0.05   0.03  -0.00     0.03   0.02  -0.00
     7   1     0.00   0.05   0.09     0.00   0.06   0.10     0.00   0.06   0.10
     8   6    -0.01  -0.01   0.01    -0.00  -0.01   0.01     0.00   0.01  -0.01
     9   1     0.14   0.08   0.01     0.05   0.03   0.00    -0.03  -0.02  -0.00
    10   1     0.00   0.05  -0.09     0.00   0.06  -0.10    -0.00  -0.06   0.10
    11   6    -0.06  -0.01   0.01     0.02  -0.05   0.04    -0.00   0.05  -0.04
    12   1     0.27  -0.27   0.04    -0.34   0.31  -0.03     0.26  -0.23   0.02
    13   1     0.42   0.24   0.03     0.04   0.01   0.01    -0.12  -0.05  -0.02
    14   1     0.03   0.14  -0.24     0.08   0.25  -0.43    -0.08  -0.29   0.50

 -------------------
 - Thermochemistry -
 -------------------
 Temperature   298.150 Kelvin.  Pressure   1.00000 Atm.
 Atom     1 has atomic number  6 and mass  12.00000
 Atom     2 has atomic number  1 and mass   1.00783
 Atom     3 has atomic number  1 and mass   1.00783
 Atom     4 has atomic number  1 and mass   1.00783
 Atom     5 has atomic number  6 and mass  12.00000
 Atom     6 has atomic number  1 and mass   1.00783
 Atom     7 has atomic number  1 and mass   1.00783
 Atom     8 has atomic number  6 and mass  12.00000
 Atom     9 has atomic number  1 and mass   1.00783
 Atom    10 has atomic number  1 and mass   1.00783
 Atom    11 has atomic number  6 and mass  12.00000
 Atom    12 has atomic number  1 and mass   1.00783
 Atom    13 has atomic number  1 and mass   1.00783
 Atom    14 has atomic number  1 and mass   1.00783
 Molecular mass:    58.07825 amu.
 Principal axes and moments of inertia in atomic units:
                           1         2         3
     Eigenvalues --   138.18328 370.78858 439.62953
           X           -0.45347   0.00000   0.89127
           Y            0.89127   0.00000   0.45347
           Z           -0.00000   1.00000   0.00000
 This molecule is an asymmetric top.
 Rotational symmetry number  2.
 Rotational temperatures (Kelvin)      0.62680     0.23359     0.19702
 Rotational constants (GHZ):          13.06049     4.86731     4.10514
 Zero-point vibrational energy     353795.2 (Joules/Mol)
                                   84.55908 (Kcal/Mol)
 Warning -- explicit consideration of   5 degrees of freedom as
           vibrations may cause significant error
 Vibrational temperatures:    155.79   294.70   403.08   460.08   630.22
          (Kelvin)           1089.11  1169.09  1228.63  1411.92  1426.58
                             1452.87  1603.50  1685.52  1750.03  1880.38
                             1915.47  2004.60  2022.66  2081.71  2086.10
                             2189.96  2197.37  2216.43  2220.98  2224.38
                             2236.85  4443.92  4445.90  4464.29  4466.52
                             4494.03  4499.29  4554.91  4555.11  4565.29
                             4576.29
 
 Zero-point correction=                           0.134753 (Hartree/Particle)
 Thermal correction to Energy=                    0.140449
 Thermal correction to Enthalpy=                  0.141393
 Thermal correction to Gibbs Free Energy=         0.107360
 Sum of electronic and zero-point Energies=           -158.283010
 Sum of electronic and thermal Energies=              -158.277315
 Sum of electronic and thermal Enthalpies=            -158.276371
 Sum of electronic and thermal Free Energies=         -158.310404
 
                     E (Thermal)             CV                S
                      KCal/Mol        Cal/Mol-Kelvin    Cal/Mol-Kelvin
 Total                   88.133             19.291             71.629
 Electronic               0.000              0.000              0.000
 Translational            0.889              2.981             38.098
 Rotational               0.889              2.981             23.247
 Vibrational             86.355             13.330             10.283
 Vibration     1          0.606              1.943              3.300
 Vibration     2          0.640              1.833              2.089
 Vibration     3          0.680              1.710              1.533
 Vibration     4          0.706              1.636              1.311
 Vibration     5          0.798              1.387              0.833
                       Q            Log10(Q)             Ln(Q)
 Total Bot       0.414923D-49        -49.382033       -113.706333
 Total V=0       0.398293D+13         12.600203         29.013040
 Vib (Bot)       0.887857D-61        -61.051657       -140.576635
 Vib (Bot)    1  0.189223D+01          0.276975          0.637758
 Vib (Bot)    2  0.971666D+00         -0.012483         -0.028744
 Vib (Bot)    3  0.686205D+00         -0.163546         -0.376579
 Vib (Bot)    4  0.587939D+00         -0.230668         -0.531132
 Vib (Bot)    5  0.395283D+00         -0.403092         -0.928154
 Vib (V=0)       0.852273D+01          0.930579          2.142737
 Vib (V=0)    1  0.245718D+01          0.390437          0.899014
 Vib (V=0)    2  0.159276D+01          0.202152          0.465471
 Vib (V=0)    3  0.134904D+01          0.130026          0.299397
 Vib (V=0)    4  0.127180D+01          0.104418          0.240432
 Vib (V=0)    5  0.113738D+01          0.055904          0.128724
 Electronic      0.100000D+01          0.000000          0.000000
 Translational   0.173970D+08          7.240474         16.671808
 Rotational      0.268627D+05          4.429150         10.198495
                           ----------------------------
                           ! Normal Mode     1        !
 --------------------------                            --------------------------
 ! Name  Definition              Value          Relative Weight (%)             !
 --------------------------------------------------------------------------------
 ! D1    D(2,1,5,6)             -0.0826                  2.7                    !
 ! D2    D(2,1,5,7)             -0.0806                  2.7                    !
 ! D3    D(2,1,5,8)             -0.0783                  2.6                    !
 ! D4    D(3,1,5,6)             -0.0843                  2.8                    !
 ! D5    D(3,1,5,7)             -0.0823                  2.7                    !
 ! D6    D(3,1,5,8)             -0.08                    2.6                    !
 ! D7    D(4,1,5,6)             -0.0853                  2.8                    !
 ! D8    D(4,1,5,7)             -0.0832                  2.8                    !
 ! D9    D(4,1,5,8)             -0.0809                  2.7                    !
 ! D10   D(1,5,8,9)             -0.1674                  5.5                    !
 ! D11   D(1,5,8,10)            -0.168                   5.6                    !
 ! D12   D(1,5,8,11)            -0.1751                  5.8                    !
 ! D13   D(6,5,8,9)             -0.1598                  5.3                    !
 ! D14   D(6,5,8,10)            -0.1604                  5.3                    !
 ! D15   D(6,5,8,11)            -0.1674                  5.5                    !
 ! D16   D(7,5,8,9)             -0.1604                  5.3                    !
 ! D17   D(7,5,8,10)            -0.1609                  5.3                    !
 ! D18   D(7,5,8,11)            -0.168                   5.6                    !
 ! D19   D(5,8,11,12)           -0.0783                  2.6                    !
 ! D20   D(5,8,11,13)           -0.0809                  2.7                    !
 ! D21   D(5,8,11,14)           -0.08                    2.6                    !
 ! D22   D(9,8,11,12)           -0.0826                  2.7                    !
 ! D23   D(9,8,11,13)           -0.0853                  2.8                    !
 ! D24   D(9,8,11,14)           -0.0843                  2.8                    !
 ! D25   D(10,8,11,12)          -0.0806                  2.7                    !
 ! D26   D(10,8,11,13)          -0.0832                  2.8                    !
 ! D27   D(10,8,11,14)          -0.0823                  2.7                    !
 --------------------------------------------------------------------------------
                           ----------------------------
                           ! Normal Mode     2        !
 --------------------------                            --------------------------
 ! Name  Definition              Value          Relative Weight (%)             !
 --------------------------------------------------------------------------------
 ! D1    D(2,1,5,6)             -0.2038                  5.2                    !
 ! D2    D(2,1,5,7)             -0.2015                  5.2                    !
 ! D3    D(2,1,5,8)             -0.2203                  5.7                    !
 ! D4    D(3,1,5,6)             -0.2007                  5.2                    !
 ! D5    D(3,1,5,7)             -0.1983                  5.1                    !
 ! D6    D(3,1,5,8)             -0.2172                  5.6                    !
 ! D7    D(4,1,5,6)             -0.2007                  5.2                    !
 ! D8    D(4,1,5,7)             -0.1983                  5.1                    !
 ! D9    D(4,1,5,8)             -0.2172                  5.6                    !
 ! D19   D(5,8,11,12)            0.2203                  5.7                    !
 ! D20   D(5,8,11,13)            0.2172                  5.6                    !
 ! D21   D(5,8,11,14)            0.2172                  5.6                    !
 ! D22   D(9,8,11,12)            0.2038                  5.2                    !
 ! D23   D(9,8,11,13)            0.2007                  5.2                    !
 ! D24   D(9,8,11,14)            0.2007                  5.2                    !
 ! D25   D(10,8,11,12)           0.2015                  5.2                    !
 ! D26   D(10,8,11,13)           0.1983                  5.1                    !
 ! D27   D(10,8,11,14)           0.1983                  5.1                    !
 --------------------------------------------------------------------------------
                           ----------------------------
                           ! Normal Mode     3        !
 --------------------------                            --------------------------
 ! Name  Definition              Value          Relative Weight (%)             !
 --------------------------------------------------------------------------------
 ! D1    D(2,1,5,6)             -0.1784                  4.5                    !
 ! D2    D(2,1,5,7)             -0.1914                  4.8                    !
 ! D3    D(2,1,5,8)             -0.203                   5.1                    !
 ! D4    D(3,1,5,6)             -0.1749                  4.4                    !
 ! D5    D(3,1,5,7)             -0.1879                  4.7                    !
 ! D6    D(3,1,5,8)             -0.1995                  5.0                    !
 ! D7    D(4,1,5,6)             -0.1725                  4.3                    !
 ! D8    D(4,1,5,7)             -0.1856                  4.7                    !
 ! D9    D(4,1,5,8)             -0.1972                  4.9                    !
 ! D11   D(1,5,8,10)             0.0574                  1.4                    !
 ! D12   D(1,5,8,11)             0.0604                  1.5                    !
 ! D17   D(7,5,8,10)             0.0544                  1.4                    !
 ! D18   D(7,5,8,11)             0.0574                  1.4                    !
 ! D19   D(5,8,11,12)           -0.203                   5.1                    !
 ! D20   D(5,8,11,13)           -0.1972                  4.9                    !
 ! D21   D(5,8,11,14)           -0.1995                  5.0                    !
 ! D22   D(9,8,11,12)           -0.1784                  4.5                    !
 ! D23   D(9,8,11,13)           -0.1725                  4.3                    !
 ! D24   D(9,8,11,14)           -0.1749                  4.4                    !
 ! D25   D(10,8,11,12)          -0.1914                  4.8                    !
 ! D26   D(10,8,11,13)          -0.1856                  4.7                    !
 ! D27   D(10,8,11,14)          -0.1879                  4.7                    !
 --------------------------------------------------------------------------------
                           ----------------------------
                           ! Normal Mode     4        !
 --------------------------                            --------------------------
 ! Name  Definition              Value          Relative Weight (%)             !
 --------------------------------------------------------------------------------
 ! A9    A(1,5,8)                0.088                   1.5                    !
 ! A15   A(5,8,11)               0.088                   1.5                    !
 ! D1    D(2,1,5,6)             -0.2401                  4.1                    !
 ! D2    D(2,1,5,7)             -0.2054                  3.5                    !
 ! D3    D(2,1,5,8)             -0.2046                  3.5                    !
 ! D4    D(3,1,5,6)             -0.2205                  3.8                    !
 ! D5    D(3,1,5,7)             -0.1857                  3.2                    !
 ! D6    D(3,1,5,8)             -0.1849                  3.2                    !
 ! D7    D(4,1,5,6)             -0.2417                  4.2                    !
 ! D8    D(4,1,5,7)             -0.2069                  3.6                    !
 ! D9    D(4,1,5,8)             -0.2061                  3.6                    !
 ! D10   D(1,5,8,9)              0.1825                  3.1                    !
 ! D11   D(1,5,8,10)             0.1453                  2.5                    !
 ! D12   D(1,5,8,11)             0.1568                  2.7                    !
 ! D13   D(6,5,8,9)              0.2081                  3.6                    !
 ! D14   D(6,5,8,10)             0.1709                  2.9                    !
 ! D15   D(6,5,8,11)             0.1825                  3.1                    !
 ! D16   D(7,5,8,9)              0.1709                  2.9                    !
 ! D17   D(7,5,8,10)             0.1337                  2.3                    !
 ! D18   D(7,5,8,11)             0.1453                  2.5                    !
 ! D19   D(5,8,11,12)           -0.2046                  3.5                    !
 ! D20   D(5,8,11,13)           -0.2061                  3.6                    !
 ! D21   D(5,8,11,14)           -0.1849                  3.2                    !
 ! D22   D(9,8,11,12)           -0.2401                  4.1                    !
 ! D23   D(9,8,11,13)           -0.2417                  4.2                    !
 ! D24   D(9,8,11,14)           -0.2205                  3.8                    !
 ! D25   D(10,8,11,12)          -0.2054                  3.5                    !
 ! D26   D(10,8,11,13)          -0.2069                  3.6                    !
 ! D27   D(10,8,11,14)          -0.1857                  3.2                    !
 --------------------------------------------------------------------------------
                           ----------------------------
                           ! Normal Mode     5        !
 --------------------------                            --------------------------
 ! Name  Definition              Value          Relative Weight (%)             !
 --------------------------------------------------------------------------------
 ! R4    R(1,5)                 -0.0264                  0.7                    !
 ! R10   R(8,11)                 0.0264                  0.7                    !
 ! A3    A(2,1,5)                0.0704                  2.0                    !
 ! A5    A(3,1,5)               -0.0368                  1.0                    !
 ! A6    A(4,1,5)               -0.0378                  1.1                    !
 ! A7    A(1,5,6)                0.0556                  1.5                    !
 ! A8    A(1,5,7)                0.0317                  0.9                    !
 ! A9    A(1,5,8)               -0.1543                  4.3                    !
 ! A11   A(6,5,8)                0.0725                  2.0                    !
 ! A13   A(5,8,9)               -0.0725                  2.0                    !
 ! A15   A(5,8,11)               0.1543                  4.3                    !
 ! A17   A(9,8,11)              -0.0556                  1.5                    !
 ! A18   A(10,8,11)             -0.0317                  0.9                    !
 ! A19   A(8,11,12)             -0.0704                  2.0                    !
 ! A20   A(8,11,13)              0.0378                  1.1                    !
 ! A21   A(8,11,14)              0.0368                  1.0                    !
 ! D1    D(2,1,5,6)             -0.1066                  3.0                    !
 ! D2    D(2,1,5,7)             -0.1784                  5.0                    !
 ! D3    D(2,1,5,8)             -0.0788                  2.2                    !
 ! D4    D(3,1,5,6)             -0.1398                  3.9                    !
 ! D5    D(3,1,5,7)             -0.2116                  5.9                    !
 ! D6    D(3,1,5,8)             -0.112                   3.1                    !
 ! D7    D(4,1,5,6)             -0.0775                  2.2                    !
 ! D8    D(4,1,5,7)             -0.1492                  4.1                    !
 ! D9    D(4,1,5,8)             -0.0496                  1.4                    !
 ! D11   D(1,5,8,10)            -0.0733                  2.0                    !
 ! D14   D(6,5,8,10)            -0.0543                  1.5                    !
 ! D16   D(7,5,8,9)              0.0543                  1.5                    !
 ! D18   D(7,5,8,11)             0.0733                  2.0                    !
 ! D19   D(5,8,11,12)            0.0788                  2.2                    !
 ! D20   D(5,8,11,13)            0.0496                  1.4                    !
 ! D21   D(5,8,11,14)            0.112                   3.1                    !
 ! D22   D(9,8,11,12)            0.1066                  3.0                    !
 ! D23   D(9,8,11,13)            0.0775                  2.2                    !
 ! D24   D(9,8,11,14)            0.1398                  3.9                    !
 ! D25   D(10,8,11,12)           0.1784                  5.0                    !
 ! D26   D(10,8,11,13)           0.1492                  4.1                    !
 ! D27   D(10,8,11,14)           0.2116                  5.9                    !
 --------------------------------------------------------------------------------
                           ----------------------------
                           ! Normal Mode     6        !
 --------------------------                            --------------------------
 ! Name  Definition              Value          Relative Weight (%)             !
 --------------------------------------------------------------------------------
 ! A5    A(3,1,5)                0.1422                  2.7                    !
 ! A6    A(4,1,5)               -0.0813                  1.5                    !
 ! A7    A(1,5,6)                0.0963                  1.8                    !
 ! A8    A(1,5,7)               -0.1493                  2.8                    !
 ! A11   A(6,5,8)                0.108                   2.0                    !
 ! A12   A(7,5,8)               -0.0835                  1.6                    !
 ! A13   A(5,8,9)               -0.108                   2.0                    !
 ! A14   A(5,8,10)               0.0835                  1.6                    !
 ! A17   A(9,8,11)              -0.0963                  1.8                    !
 ! A18   A(10,8,11)              0.1493                  2.8                    !
 ! A20   A(8,11,13)              0.0813                  1.5                    !
 ! A21   A(8,11,14)             -0.1422                  2.7                    !
 ! D1    D(2,1,5,6)             -0.1524                  2.9                    !
 ! D2    D(2,1,5,7)             -0.1189                  2.3                    !
 ! D3    D(2,1,5,8)              0.0768                  1.5                    !
 ! D4    D(3,1,5,6)             -0.2236                  4.2                    !
 ! D5    D(3,1,5,7)             -0.1901                  3.6                    !
 ! D7    D(4,1,5,6)             -0.2766                  5.2                    !
 ! D8    D(4,1,5,7)             -0.2431                  4.6                    !
 ! D10   D(1,5,8,9)             -0.222                   4.2                    !
 ! D11   D(1,5,8,10)            -0.2322                  4.4                    !
 ! D15   D(6,5,8,11)             0.222                   4.2                    !
 ! D18   D(7,5,8,11)             0.2322                  4.4                    !
 ! D19   D(5,8,11,12)           -0.0768                  1.5                    !
 ! D22   D(9,8,11,12)            0.1524                  2.9                    !
 ! D23   D(9,8,11,13)            0.2766                  5.2                    !
 ! D24   D(9,8,11,14)            0.2236                  4.2                    !
 ! D25   D(10,8,11,12)           0.1189                  2.3                    !
 ! D26   D(10,8,11,13)           0.2431                  4.6                    !
 ! D27   D(10,8,11,14)           0.1901                  3.6                    !
 --------------------------------------------------------------------------------
                           ----------------------------
                           ! Normal Mode     7        !
 --------------------------                            --------------------------
 ! Name  Definition              Value          Relative Weight (%)             !
 --------------------------------------------------------------------------------
 ! R4    R(1,5)                 -0.0731                  1.2                    !
 ! R7    R(5,8)                 -0.0969                  1.6                    !
 ! R10   R(8,11)                -0.0731                  1.2                    !
 ! A5    A(3,1,5)                0.1418                  2.3                    !
 ! A6    A(4,1,5)               -0.1349                  2.2                    !
 ! A7    A(1,5,6)                0.1448                  2.3                    !
 ! A8    A(1,5,7)               -0.1194                  1.9                    !
 ! A11   A(6,5,8)                0.052                   0.8                    !
 ! A12   A(7,5,8)               -0.0838                  1.3                    !
 ! A13   A(5,8,9)                0.052                   0.8                    !
 ! A14   A(5,8,10)              -0.0838                  1.3                    !
 ! A17   A(9,8,11)               0.1448                  2.3                    !
 ! A18   A(10,8,11)             -0.1194                  1.9                    !
 ! A20   A(8,11,13)             -0.1349                  2.2                    !
 ! A21   A(8,11,14)              0.1418                  2.3                    !
 ! D1    D(2,1,5,6)             -0.0645                  1.0                    !
 ! D2    D(2,1,5,7)             -0.0805                  1.3                    !
 ! D3    D(2,1,5,8)              0.1108                  1.8                    !
 ! D4    D(3,1,5,6)             -0.1862                  3.0                    !
 ! D5    D(3,1,5,7)             -0.2022                  3.3                    !
 ! D7    D(4,1,5,6)             -0.1938                  3.1                    !
 ! D8    D(4,1,5,7)             -0.2098                  3.4                    !
 ! D10   D(1,5,8,9)              0.178                   2.9                    !
 ! D11   D(1,5,8,10)             0.1625                  2.6                    !
 ! D12   D(1,5,8,11)            -0.0485                  0.8                    !
 ! D13   D(6,5,8,9)              0.4044                  6.5                    !
 ! D14   D(6,5,8,10)             0.3889                  6.3                    !
 ! D15   D(6,5,8,11)             0.178                   2.9                    !
 ! D16   D(7,5,8,9)              0.3889                  6.3                    !
 ! D17   D(7,5,8,10)             0.3735                  6.0                    !
 ! D18   D(7,5,8,11)             0.1625                  2.6                    !
 ! D19   D(5,8,11,12)            0.1108                  1.8                    !
 ! D22   D(9,8,11,12)           -0.0645                  1.0                    !
 ! D23   D(9,8,11,13)           -0.1938                  3.1                    !
 ! D24   D(9,8,11,14)           -0.1862                  3.0                    !
 ! D25   D(10,8,11,12)          -0.0805                  1.3                    !
 ! D26   D(10,8,11,13)          -0.2098                  3.4                    !
 ! D27   D(10,8,11,14)          -0.2022                  3.3                    !
 --------------------------------------------------------------------------------
                           ----------------------------
                           ! Normal Mode     8        !
 --------------------------                            --------------------------
 ! Name  Definition              Value          Relative Weight (%)             !
 --------------------------------------------------------------------------------
 ! R4    R(1,5)                 -0.1357                  3.2                    !
 ! R7    R(5,8)                 -0.2629                  6.1                    !
 ! R10   R(8,11)                -0.1357                  3.2                    !
 ! A1    A(2,1,3)               -0.0274                  0.6                    !
 ! A3    A(2,1,5)               -0.1565                  3.6                    !
 ! A4    A(3,1,4)                0.0339                  0.8                    !
 ! A5    A(3,1,5)               -0.0301                  0.7                    !
 ! A6    A(4,1,5)                0.168                   3.9                    !
 ! A7    A(1,5,6)               -0.1136                  2.6                    !
 ! A8    A(1,5,7)                0.0522                  1.2                    !
 ! A9    A(1,5,8)                0.0559                  1.3                    !
 ! A15   A(5,8,11)               0.0559                  1.3                    !
 ! A17   A(9,8,11)              -0.1136                  2.6                    !
 ! A18   A(10,8,11)              0.0522                  1.2                    !
 ! A19   A(8,11,12)             -0.1565                  3.6                    !
 ! A20   A(8,11,13)              0.168                   3.9                    !
 ! A21   A(8,11,14)             -0.0301                  0.7                    !
 ! A23   A(12,11,14)            -0.0274                  0.6                    !
 ! A24   A(13,11,14)             0.0339                  0.8                    !
 ! D1    D(2,1,5,6)             -0.0402                  0.9                    !
 ! D3    D(2,1,5,8)             -0.1015                  2.4                    !
 ! D4    D(3,1,5,6)              0.1213                  2.8                    !
 ! D5    D(3,1,5,7)              0.158                   3.7                    !
 ! D6    D(3,1,5,8)              0.06                    1.4                    !
 ! D9    D(4,1,5,8)             -0.0766                  1.8                    !
 ! D10   D(1,5,8,9)             -0.0853                  2.0                    !
 ! D11   D(1,5,8,10)            -0.085                   2.0                    !
 ! D12   D(1,5,8,11)             0.0321                  0.7                    !
 ! D13   D(6,5,8,9)             -0.2027                  4.7                    !
 ! D14   D(6,5,8,10)            -0.2024                  4.7                    !
 ! D15   D(6,5,8,11)            -0.0853                  2.0                    !
 ! D16   D(7,5,8,9)             -0.2024                  4.7                    !
 ! D17   D(7,5,8,10)            -0.2021                  4.7                    !
 ! D18   D(7,5,8,11)            -0.085                   2.0                    !
 ! D19   D(5,8,11,12)           -0.1015                  2.4                    !
 ! D20   D(5,8,11,13)           -0.0766                  1.8                    !
 ! D21   D(5,8,11,14)            0.06                    1.4                    !
 ! D22   D(9,8,11,12)           -0.0402                  0.9                    !
 ! D24   D(9,8,11,14)            0.1213                  2.8                    !
 ! D27   D(10,8,11,14)           0.158                   3.7                    !
 --------------------------------------------------------------------------------
                           ----------------------------
                           ! Normal Mode     9        !
 --------------------------                            --------------------------
 ! Name  Definition              Value          Relative Weight (%)             !
 --------------------------------------------------------------------------------
 ! R4    R(1,5)                 -0.0454                  1.0                    !
 ! R10   R(8,11)                 0.0454                  1.0                    !
 ! A1    A(2,1,3)               -0.0502                  1.1                    !
 ! A3    A(2,1,5)               -0.1703                  3.9                    !
 ! A4    A(3,1,4)                0.039                   0.9                    !
 ! A5    A(3,1,5)               -0.0637                  1.5                    !
 ! A6    A(4,1,5)                0.2264                  5.2                    !
 ! A7    A(1,5,6)               -0.1191                  2.7                    !
 ! A11   A(6,5,8)                0.2006                  4.6                    !
 ! A12   A(7,5,8)               -0.0746                  1.7                    !
 ! A13   A(5,8,9)               -0.2006                  4.6                    !
 ! A14   A(5,8,10)               0.0746                  1.7                    !
 ! A17   A(9,8,11)               0.1191                  2.7                    !
 ! A19   A(8,11,12)              0.1703                  3.9                    !
 ! A20   A(8,11,13)             -0.2264                  5.2                    !
 ! A21   A(8,11,14)              0.0637                  1.5                    !
 ! A23   A(12,11,14)             0.0502                  1.1                    !
 ! A24   A(13,11,14)            -0.039                   0.9                    !
 ! D1    D(2,1,5,6)             -0.243                   5.5                    !
 ! D2    D(2,1,5,7)             -0.1785                  4.1                    !
 ! D3    D(2,1,5,8)             -0.0778                  1.8                    !
 ! D5    D(3,1,5,7)              0.0441                  1.0                    !
 ! D6    D(3,1,5,8)              0.1447                  3.3                    !
 ! D7    D(4,1,5,6)             -0.1804                  4.1                    !
 ! D8    D(4,1,5,7)             -0.116                   2.6                    !
 ! D11   D(1,5,8,10)            -0.058                   1.3                    !
 ! D14   D(6,5,8,10)            -0.0708                  1.6                    !
 ! D16   D(7,5,8,9)              0.0708                  1.6                    !
 ! D18   D(7,5,8,11)             0.058                   1.3                    !
 ! D19   D(5,8,11,12)            0.0778                  1.8                    !
 ! D21   D(5,8,11,14)           -0.1447                  3.3                    !
 ! D22   D(9,8,11,12)            0.243                   5.5                    !
 ! D23   D(9,8,11,13)            0.1804                  4.1                    !
 ! D25   D(10,8,11,12)           0.1785                  4.1                    !
 ! D26   D(10,8,11,13)           0.116                   2.6                    !
 ! D27   D(10,8,11,14)          -0.0441                  1.0                    !
 --------------------------------------------------------------------------------
                           ----------------------------
                           ! Normal Mode    10        !
 --------------------------                            --------------------------
 ! Name  Definition              Value          Relative Weight (%)             !
 --------------------------------------------------------------------------------
 ! R4    R(1,5)                  0.2987                  7.5                    !
 ! R10   R(8,11)                -0.2987                  7.5                    !
 ! A1    A(2,1,3)               -0.0309                  0.8                    !
 ! A3    A(2,1,5)                0.1018                  2.6                    !
 ! A4    A(3,1,4)               -0.034                   0.9                    !
 ! A5    A(3,1,5)               -0.1431                  3.6                    !
 ! A6    A(4,1,5)                0.0816                  2.0                    !
 ! A7    A(1,5,6)               -0.0263                  0.7                    !
 ! A8    A(1,5,7)                0.0895                  2.2                    !
 ! A9    A(1,5,8)               -0.039                   1.0                    !
 ! A11   A(6,5,8)                0.0874                  2.2                    !
 ! A12   A(7,5,8)               -0.1177                  3.0                    !
 ! A13   A(5,8,9)               -0.0874                  2.2                    !
 ! A14   A(5,8,10)               0.1177                  3.0                    !
 ! A15   A(5,8,11)               0.039                   1.0                    !
 ! A17   A(9,8,11)               0.0263                  0.7                    !
 ! A18   A(10,8,11)             -0.0895                  2.2                    !
 ! A19   A(8,11,12)             -0.1018                  2.6                    !
 ! A20   A(8,11,13)             -0.0816                  2.0                    !
 ! A21   A(8,11,14)              0.1431                  3.6                    !
 ! A23   A(12,11,14)             0.0309                  0.8                    !
 ! A24   A(13,11,14)             0.034                   0.9                    !
 ! D1    D(2,1,5,6)             -0.1664                  4.2                    !
 ! D2    D(2,1,5,7)             -0.2124                  5.3                    !
 ! D3    D(2,1,5,8)             -0.0999                  2.5                    !
 ! D4    D(3,1,5,6)             -0.1001                  2.5                    !
 ! D5    D(3,1,5,7)             -0.146                   3.7                    !
 ! D6    D(3,1,5,8)             -0.0336                  0.8                    !
 ! D8    D(4,1,5,7)             -0.0629                  1.6                    !
 ! D9    D(4,1,5,8)              0.0496                  1.2                    !
 ! D19   D(5,8,11,12)            0.0999                  2.5                    !
 ! D20   D(5,8,11,13)           -0.0496                  1.2                    !
 ! D21   D(5,8,11,14)            0.0336                  0.8                    !
 ! D22   D(9,8,11,12)            0.1664                  4.2                    !
 ! D24   D(9,8,11,14)            0.1001                  2.5                    !
 ! D25   D(10,8,11,12)           0.2124                  5.3                    !
 ! D26   D(10,8,11,13)           0.0629                  1.6                    !
 ! D27   D(10,8,11,14)           0.146                   3.7                    !
 --------------------------------------------------------------------------------
                           ----------------------------
                           ! Normal Mode    11        !
 --------------------------                            --------------------------
 ! Name  Definition              Value          Relative Weight (%)             !
 --------------------------------------------------------------------------------
 ! R4    R(1,5)                  0.1208                  2.5                    !
 ! R10   R(8,11)                 0.1208                  2.5                    !
 ! A2    A(2,1,4)               -0.0566                  1.2                    !
 ! A3    A(2,1,5)               -0.237                   5.0                    !
 ! A4    A(3,1,4)                0.0489                  1.0                    !
 ! A5    A(3,1,5)                0.2135                  4.5                    !
 ! A6    A(4,1,5)                0.0342                  0.7                    !
 ! A7    A(1,5,6)               -0.0305                  0.6                    !
 ! A8    A(1,5,7)               -0.1125                  2.4                    !
 ! A9    A(1,5,8)               -0.0376                  0.8                    !
 ! A12   A(7,5,8)                0.1878                  3.9                    !
 ! A14   A(5,8,10)               0.1878                  3.9                    !
 ! A15   A(5,8,11)              -0.0376                  0.8                    !
 ! A17   A(9,8,11)              -0.0305                  0.6                    !
 ! A18   A(10,8,11)             -0.1125                  2.4                    !
 ! A19   A(8,11,12)             -0.237                   5.0                    !
 ! A20   A(8,11,13)              0.0342                  0.7                    !
 ! A21   A(8,11,14)              0.2135                  4.5                    !
 ! A22   A(12,11,13)            -0.0566                  1.2                    !
 ! A24   A(13,11,14)             0.0489                  1.0                    !
 ! D1    D(2,1,5,6)              0.1126                  2.4                    !
 ! D2    D(2,1,5,7)              0.1937                  4.1                    !
 ! D3    D(2,1,5,8)              0.0596                  1.2                    !
 ! D4    D(3,1,5,6)              0.1357                  2.8                    !
 ! D5    D(3,1,5,7)              0.2169                  4.5                    !
 ! D6    D(3,1,5,8)              0.0828                  1.7                    !
 ! D7    D(4,1,5,6)             -0.0914                  1.9                    !
 ! D9    D(4,1,5,8)             -0.1443                  3.0                    !
 ! D11   D(1,5,8,10)             0.0812                  1.7                    !
 ! D12   D(1,5,8,11)             0.0473                  1.0                    !
 ! D13   D(6,5,8,9)             -0.0877                  1.8                    !
 ! D17   D(7,5,8,10)             0.115                   2.4                    !
 ! D18   D(7,5,8,11)             0.0812                  1.7                    !
 ! D19   D(5,8,11,12)            0.0596                  1.2                    !
 ! D20   D(5,8,11,13)           -0.1443                  3.0                    !
 ! D21   D(5,8,11,14)            0.0828                  1.7                    !
 ! D22   D(9,8,11,12)            0.1126                  2.4                    !
 ! D23   D(9,8,11,13)           -0.0914                  1.9                    !
 ! D24   D(9,8,11,14)            0.1357                  2.8                    !
 ! D25   D(10,8,11,12)           0.1937                  4.1                    !
 ! D27   D(10,8,11,14)           0.2169                  4.5                    !
 --------------------------------------------------------------------------------
                           ----------------------------
                           ! Normal Mode    12        !
 --------------------------                            --------------------------
 ! Name  Definition              Value          Relative Weight (%)             !
 --------------------------------------------------------------------------------
 ! R4    R(1,5)                 -0.2615                  7.8                    !
 ! R7    R(5,8)                  0.3162                  9.5                    !
 ! R10   R(8,11)                -0.2615                  7.8                    !
 ! A3    A(2,1,5)               -0.0467                  1.4                    !
 ! A4    A(3,1,4)                0.0276                  0.8                    !
 ! A5    A(3,1,5)                0.0329                  1.0                    !
 ! A6    A(4,1,5)               -0.0257                  0.8                    !
 ! A7    A(1,5,6)               -0.1098                  3.3                    !
 ! A8    A(1,5,7)               -0.0744                  2.2                    !
 ! A11   A(6,5,8)                0.0669                  2.0                    !
 ! A12   A(7,5,8)                0.1301                  3.9                    !
 ! A13   A(5,8,9)                0.0669                  2.0                    !
 ! A14   A(5,8,10)               0.1301                  3.9                    !
 ! A17   A(9,8,11)              -0.1098                  3.3                    !
 ! A18   A(10,8,11)             -0.0744                  2.2                    !
 ! A19   A(8,11,12)             -0.0467                  1.4                    !
 ! A20   A(8,11,13)             -0.0257                  0.8                    !
 ! A21   A(8,11,14)              0.0329                  1.0                    !
 ! A24   A(13,11,14)             0.0276                  0.8                    !
 ! D2    D(2,1,5,7)              0.089                   2.7                    !
 ! D5    D(3,1,5,7)              0.0801                  2.4                    !
 ! D6    D(3,1,5,8)             -0.0229                  0.7                    !
 ! D7    D(4,1,5,6)             -0.058                   1.7                    !
 ! D8    D(4,1,5,7)              0.0408                  1.2                    !
 ! D9    D(4,1,5,8)             -0.0623                  1.9                    !
 ! D10   D(1,5,8,9)             -0.0623                  1.9                    !
 ! D11   D(1,5,8,10)             0.0514                  1.5                    !
 ! D12   D(1,5,8,11)             0.0401                  1.2                    !
 ! D13   D(6,5,8,9)             -0.1647                  4.9                    !
 ! D14   D(6,5,8,10)            -0.051                   1.5                    !
 ! D15   D(6,5,8,11)            -0.0623                  1.9                    !
 ! D16   D(7,5,8,9)             -0.051                   1.5                    !
 ! D17   D(7,5,8,10)             0.0627                  1.9                    !
 ! D18   D(7,5,8,11)             0.0514                  1.5                    !
 ! D20   D(5,8,11,13)           -0.0623                  1.9                    !
 ! D21   D(5,8,11,14)           -0.0229                  0.7                    !
 ! D23   D(9,8,11,13)           -0.058                   1.7                    !
 ! D25   D(10,8,11,12)           0.089                   2.7                    !
 ! D26   D(10,8,11,13)           0.0408                  1.2                    !
 ! D27   D(10,8,11,14)           0.0801                  2.4                    !
 --------------------------------------------------------------------------------
                           ----------------------------
                           ! Normal Mode    13        !
 --------------------------                            --------------------------
 ! Name  Definition              Value          Relative Weight (%)             !
 --------------------------------------------------------------------------------
 ! R4    R(1,5)                  0.1399                  2.2                    !
 ! R10   R(8,11)                -0.1399                  2.2                    !
 ! A2    A(2,1,4)               -0.0919                  1.5                    !
 ! A3    A(2,1,5)               -0.261                   4.2                    !
 ! A4    A(3,1,4)                0.0767                  1.2                    !
 ! A5    A(3,1,5)                0.2588                  4.2                    !
 ! A6    A(4,1,5)                0.0469                  0.8                    !
 ! A8    A(1,5,7)                0.0975                  1.6                    !
 ! A9    A(1,5,8)               -0.1536                  2.5                    !
 ! A11   A(6,5,8)               -0.1106                  1.8                    !
 ! A12   A(7,5,8)                0.1481                  2.4                    !
 ! A13   A(5,8,9)                0.1106                  1.8                    !
 ! A14   A(5,8,10)              -0.1481                  2.4                    !
 ! A15   A(5,8,11)               0.1536                  2.5                    !
 ! A18   A(10,8,11)             -0.0975                  1.6                    !
 ! A19   A(8,11,12)              0.261                   4.2                    !
 ! A20   A(8,11,13)             -0.0469                  0.8                    !
 ! A21   A(8,11,14)             -0.2588                  4.2                    !
 ! A22   A(12,11,13)             0.0919                  1.5                    !
 ! A24   A(13,11,14)            -0.0767                  1.2                    !
 ! D1    D(2,1,5,6)              0.2371                  3.8                    !
 ! D2    D(2,1,5,7)              0.1506                  2.4                    !
 ! D4    D(3,1,5,6)              0.2826                  4.5                    !
 ! D5    D(3,1,5,7)              0.196                   3.1                    !
 ! D6    D(3,1,5,8)              0.0395                  0.6                    !
 ! D8    D(4,1,5,7)             -0.1051                  1.7                    !
 ! D9    D(4,1,5,8)             -0.2616                  4.2                    !
 ! D10   D(1,5,8,9)              0.1763                  2.8                    !
 ! D11   D(1,5,8,10)             0.1285                  2.1                    !
 ! D14   D(6,5,8,10)            -0.0479                  0.8                    !
 ! D15   D(6,5,8,11)            -0.1763                  2.8                    !
 ! D16   D(7,5,8,9)              0.0479                  0.8                    !
 ! D18   D(7,5,8,11)            -0.1285                  2.1                    !
 ! D20   D(5,8,11,13)            0.2616                  4.2                    !
 ! D21   D(5,8,11,14)           -0.0395                  0.6                    !
 ! D22   D(9,8,11,12)           -0.2371                  3.8                    !
 ! D24   D(9,8,11,14)           -0.2826                  4.5                    !
 ! D25   D(10,8,11,12)          -0.1506                  2.4                    !
 ! D26   D(10,8,11,13)           0.1051                  1.7                    !
 ! D27   D(10,8,11,14)          -0.196                   3.1                    !
 --------------------------------------------------------------------------------
                           ----------------------------
                           ! Normal Mode    14        !
 --------------------------                            --------------------------
 ! Name  Definition              Value          Relative Weight (%)             !
 --------------------------------------------------------------------------------
 ! R7    R(5,8)                 -0.1309                  1.6                    !
 ! A1    A(2,1,3)                0.1119                  1.4                    !
 ! A3    A(2,1,5)                0.1206                  1.5                    !
 ! A5    A(3,1,5)                0.1492                  1.8                    !
 ! A6    A(4,1,5)               -0.2914                  3.6                    !
 ! A7    A(1,5,6)               -0.1375                  1.7                    !
 ! A8    A(1,5,7)                0.1144                  1.4                    !
 ! A9    A(1,5,8)                0.1014                  1.2                    !
 ! A11   A(6,5,8)               -0.2153                  2.6                    !
 ! A12   A(7,5,8)                0.1432                  1.7                    !
 ! A13   A(5,8,9)               -0.2153                  2.6                    !
 ! A14   A(5,8,10)               0.1432                  1.7                    !
 ! A15   A(5,8,11)               0.1014                  1.2                    !
 ! A17   A(9,8,11)              -0.1375                  1.7                    !
 ! A18   A(10,8,11)              0.1144                  1.4                    !
 ! A19   A(8,11,12)              0.1206                  1.5                    !
 ! A20   A(8,11,13)             -0.2914                  3.6                    !
 ! A21   A(8,11,14)              0.1492                  1.8                    !
 ! A23   A(12,11,14)             0.1119                  1.4                    !
 ! D1    D(2,1,5,6)              0.3438                  4.2                    !
 ! D2    D(2,1,5,7)              0.3697                  4.5                    !
 ! D6    D(3,1,5,8)             -0.2892                  3.5                    !
 ! D7    D(4,1,5,6)              0.1664                  2.0                    !
 ! D8    D(4,1,5,7)              0.1923                  2.3                    !
 ! D9    D(4,1,5,8)             -0.142                   1.7                    !
 ! D11   D(1,5,8,10)            -0.0696                  0.8                    !
 ! D12   D(1,5,8,11)             0.2479                  3.0                    !
 ! D13   D(6,5,8,9)             -0.2818                  3.4                    !
 ! D14   D(6,5,8,10)            -0.3344                  4.1                    !
 ! D16   D(7,5,8,9)             -0.3344                  4.1                    !
 ! D17   D(7,5,8,10)            -0.3871                  4.7                    !
 ! D18   D(7,5,8,11)            -0.0696                  0.8                    !
 ! D20   D(5,8,11,13)           -0.142                   1.7                    !
 ! D21   D(5,8,11,14)           -0.2892                  3.5                    !
 ! D22   D(9,8,11,12)            0.3438                  4.2                    !
 ! D23   D(9,8,11,13)            0.1664                  2.0                    !
 ! D25   D(10,8,11,12)           0.3697                  4.5                    !
 ! D26   D(10,8,11,13)           0.1923                  2.3                    !
 --------------------------------------------------------------------------------
                           ----------------------------
                           ! Normal Mode    15        !
 --------------------------                            --------------------------
 ! Name  Definition              Value          Relative Weight (%)             !
 --------------------------------------------------------------------------------
 ! A1    A(2,1,3)                0.0816                  1.5                    !
 ! A2    A(2,1,4)               -0.0681                  1.3                    !
 ! A5    A(3,1,5)                0.1287                  2.4                    !
 ! A6    A(4,1,5)               -0.1617                  3.0                    !
 ! A7    A(1,5,6)               -0.3126                  5.9                    !
 ! A8    A(1,5,7)                0.1621                  3.0                    !
 ! A11   A(6,5,8)                0.2036                  3.8                    !
 ! A12   A(7,5,8)               -0.0689                  1.3                    !
 ! A13   A(5,8,9)               -0.2036                  3.8                    !
 ! A14   A(5,8,10)               0.0689                  1.3                    !
 ! A17   A(9,8,11)               0.3126                  5.9                    !
 ! A18   A(10,8,11)             -0.1621                  3.0                    !
 ! A20   A(8,11,13)              0.1617                  3.0                    !
 ! A21   A(8,11,14)             -0.1287                  2.4                    !
 ! A22   A(12,11,13)             0.0681                  1.3                    !
 ! A23   A(12,11,14)            -0.0816                  1.5                    !
 ! D2    D(2,1,5,7)              0.1293                  2.4                    !
 ! D3    D(2,1,5,8)              0.0972                  1.8                    !
 ! D4    D(3,1,5,6)             -0.163                   3.1                    !
 ! D5    D(3,1,5,7)             -0.0937                  1.8                    !
 ! D6    D(3,1,5,8)             -0.1259                  2.4                    !
 ! D7    D(4,1,5,6)             -0.1006                  1.9                    !
 ! D10   D(1,5,8,9)              0.2497                  4.7                    !
 ! D11   D(1,5,8,10)             0.1612                  3.0                    !
 ! D14   D(6,5,8,10)            -0.0885                  1.7                    !
 ! D15   D(6,5,8,11)            -0.2497                  4.7                    !
 ! D16   D(7,5,8,9)              0.0885                  1.7                    !
 ! D18   D(7,5,8,11)            -0.1612                  3.0                    !
 ! D19   D(5,8,11,12)           -0.0972                  1.8                    !
 ! D21   D(5,8,11,14)            0.1259                  2.4                    !
 ! D23   D(9,8,11,13)            0.1006                  1.9                    !
 ! D24   D(9,8,11,14)            0.163                   3.1                    !
 ! D25   D(10,8,11,12)          -0.1293                  2.4                    !
 ! D27   D(10,8,11,14)           0.0937                  1.8                    !
 --------------------------------------------------------------------------------
                           ----------------------------
                           ! Normal Mode    16        !
 --------------------------                            --------------------------
 ! Name  Definition              Value          Relative Weight (%)             !
 --------------------------------------------------------------------------------
 ! R7    R(5,8)                 -0.103                   1.9                    !
 ! A2    A(2,1,4)                0.0643                  1.2                    !
 ! A3    A(2,1,5)                0.0835                  1.5                    !
 ! A4    A(3,1,4)               -0.0486                  0.9                    !
 ! A5    A(3,1,5)               -0.1268                  2.3                    !
 ! A6    A(4,1,5)                0.0368                  0.7                    !
 ! A7    A(1,5,6)                0.1325                  2.4                    !
 ! A8    A(1,5,7)               -0.2875                  5.3                    !
 ! A11   A(6,5,8)               -0.1373                  2.5                    !
 ! A12   A(7,5,8)                0.2467                  4.5                    !
 ! A13   A(5,8,9)               -0.1373                  2.5                    !
 ! A14   A(5,8,10)               0.2467                  4.5                    !
 ! A17   A(9,8,11)               0.1325                  2.4                    !
 ! A18   A(10,8,11)             -0.2875                  5.3                    !
 ! A19   A(8,11,12)              0.0835                  1.5                    !
 ! A20   A(8,11,13)              0.0368                  0.7                    !
 ! A21   A(8,11,14)             -0.1268                  2.3                    !
 ! A22   A(12,11,13)             0.0643                  1.2                    !
 ! A24   A(13,11,14)            -0.0486                  0.9                    !
 ! D2    D(2,1,5,7)              0.0684                  1.3                    !
 ! D3    D(2,1,5,8)             -0.0628                  1.2                    !
 ! D5    D(3,1,5,7)              0.1073                  2.0                    !
 ! D7    D(4,1,5,6)              0.154                   2.8                    !
 ! D8    D(4,1,5,7)              0.2283                  4.2                    !
 ! D9    D(4,1,5,8)              0.0971                  1.8                    !
 ! D10   D(1,5,8,9)              0.0565                  1.0                    !
 ! D11   D(1,5,8,10)             0.131                   2.4                    !
 ! D12   D(1,5,8,11)            -0.0366                  0.7                    !
 ! D13   D(6,5,8,9)              0.1495                  2.7                    !
 ! D14   D(6,5,8,10)             0.2241                  4.1                    !
 ! D15   D(6,5,8,11)             0.0565                  1.0                    !
 ! D16   D(7,5,8,9)              0.2241                  4.1                    !
 ! D17   D(7,5,8,10)             0.2986                  5.5                    !
 ! D18   D(7,5,8,11)             0.131                   2.4                    !
 ! D19   D(5,8,11,12)           -0.0628                  1.2                    !
 ! D20   D(5,8,11,13)            0.0971                  1.8                    !
 ! D23   D(9,8,11,13)            0.154                   2.8                    !
 ! D25   D(10,8,11,12)           0.0684                  1.3                    !
 ! D26   D(10,8,11,13)           0.2283                  4.2                    !
 ! D27   D(10,8,11,14)           0.1073                  2.0                    !
 --------------------------------------------------------------------------------
                           ----------------------------
                           ! Normal Mode    17        !
 --------------------------                            --------------------------
 ! Name  Definition              Value          Relative Weight (%)             !
 --------------------------------------------------------------------------------
 ! R4    R(1,5)                  0.0724                  1.2                    !
 ! R10   R(8,11)                -0.0724                  1.2                    !
 ! A1    A(2,1,3)               -0.1061                  1.7                    !
 ! A2    A(2,1,4)               -0.0845                  1.3                    !
 ! A3    A(2,1,5)                0.1569                  2.5                    !
 ! A4    A(3,1,4)               -0.14                    2.2                    !
 ! A5    A(3,1,5)                0.0674                  1.1                    !
 ! A6    A(4,1,5)                0.0882                  1.4                    !
 ! A7    A(1,5,6)               -0.1628                  2.6                    !
 ! A8    A(1,5,7)               -0.2845                  4.5                    !
 ! A11   A(6,5,8)                0.1466                  2.3                    !
 ! A12   A(7,5,8)                0.3403                  5.4                    !
 ! A13   A(5,8,9)               -0.1466                  2.3                    !
 ! A14   A(5,8,10)              -0.3403                  5.4                    !
 ! A17   A(9,8,11)               0.1628                  2.6                    !
 ! A18   A(10,8,11)              0.2845                  4.5                    !
 ! A19   A(8,11,12)             -0.1569                  2.5                    !
 ! A20   A(8,11,13)             -0.0882                  1.4                    !
 ! A21   A(8,11,14)             -0.0674                  1.1                    !
 ! A22   A(12,11,13)             0.0845                  1.3                    !
 ! A23   A(12,11,14)             0.1061                  1.7                    !
 ! A24   A(13,11,14)             0.14                    2.2                    !
 ! D1    D(2,1,5,6)             -0.0958                  1.5                    !
 ! D2    D(2,1,5,7)              0.1768                  2.8                    !
 ! D3    D(2,1,5,8)             -0.0401                  0.6                    !
 ! D4    D(3,1,5,6)             -0.1133                  1.8                    !
 ! D5    D(3,1,5,7)              0.1593                  2.5                    !
 ! D6    D(3,1,5,8)             -0.0576                  0.9                    !
 ! D7    D(4,1,5,6)             -0.0408                  0.6                    !
 ! D8    D(4,1,5,7)              0.2317                  3.7                    !
 ! D10   D(1,5,8,9)              0.1162                  1.8                    !
 ! D11   D(1,5,8,10)            -0.1325                  2.1                    !
 ! D14   D(6,5,8,10)            -0.2487                  4.0                    !
 ! D15   D(6,5,8,11)            -0.1162                  1.8                    !
 ! D16   D(7,5,8,9)              0.2487                  4.0                    !
 ! D18   D(7,5,8,11)             0.1325                  2.1                    !
 ! D19   D(5,8,11,12)            0.0401                  0.6                    !
 ! D21   D(5,8,11,14)            0.0576                  0.9                    !
 ! D22   D(9,8,11,12)            0.0958                  1.5                    !
 ! D23   D(9,8,11,13)            0.0408                  0.6                    !
 ! D24   D(9,8,11,14)            0.1133                  1.8                    !
 ! D25   D(10,8,11,12)          -0.1768                  2.8                    !
 ! D26   D(10,8,11,13)          -0.2317                  3.7                    !
 ! D27   D(10,8,11,14)          -0.1593                  2.5                    !
 --------------------------------------------------------------------------------
                           ----------------------------
                           ! Normal Mode    18        !
 --------------------------                            --------------------------
 ! Name  Definition              Value          Relative Weight (%)             !
 --------------------------------------------------------------------------------
 ! R4    R(1,5)                  0.1163                  1.7                    !
 ! R7    R(5,8)                 -0.266                   3.9                    !
 ! R10   R(8,11)                 0.1163                  1.7                    !
 ! A3    A(2,1,5)                0.1303                  1.9                    !
 ! A4    A(3,1,4)               -0.1359                  2.0                    !
 ! A7    A(1,5,6)               -0.3241                  4.7                    !
 ! A8    A(1,5,7)               -0.1902                  2.8                    !
 ! A11   A(6,5,8)                0.3858                  5.6                    !
 ! A12   A(7,5,8)                0.1175                  1.7                    !
 ! A13   A(5,8,9)                0.3858                  5.6                    !
 ! A14   A(5,8,10)               0.1175                  1.7                    !
 ! A17   A(9,8,11)              -0.3241                  4.7                    !
 ! A18   A(10,8,11)             -0.1902                  2.8                    !
 ! A19   A(8,11,12)              0.1303                  1.9                    !
 ! A24   A(13,11,14)            -0.1359                  2.0                    !
 ! D1    D(2,1,5,6)             -0.2329                  3.4                    !
 ! D2    D(2,1,5,7)              0.0772                  1.1                    !
 ! D3    D(2,1,5,8)              0.0456                  0.7                    !
 ! D4    D(3,1,5,6)             -0.335                   4.9                    !
 ! D6    D(3,1,5,8)             -0.0564                  0.8                    !
 ! D7    D(4,1,5,6)             -0.1435                  2.1                    !
 ! D8    D(4,1,5,7)              0.1666                  2.4                    !
 ! D9    D(4,1,5,8)              0.135                   2.0                    !
 ! D10   D(1,5,8,9)             -0.1651                  2.4                    !
 ! D11   D(1,5,8,10)             0.0918                  1.3                    !
 ! D12   D(1,5,8,11)            -0.0487                  0.7                    !
 ! D13   D(6,5,8,9)             -0.2816                  4.1                    !
 ! D15   D(6,5,8,11)            -0.1651                  2.4                    !
 ! D17   D(7,5,8,10)             0.2323                  3.4                    !
 ! D18   D(7,5,8,11)             0.0918                  1.3                    !
 ! D19   D(5,8,11,12)            0.0456                  0.7                    !
 ! D20   D(5,8,11,13)            0.135                   2.0                    !
 ! D21   D(5,8,11,14)           -0.0564                  0.8                    !
 ! D22   D(9,8,11,12)           -0.2329                  3.4                    !
 ! D23   D(9,8,11,13)           -0.1435                  2.1                    !
 ! D24   D(9,8,11,14)           -0.335                   4.9                    !
 ! D25   D(10,8,11,12)           0.0772                  1.1                    !
 ! D26   D(10,8,11,13)           0.1666                  2.4                    !
 --------------------------------------------------------------------------------
                           ----------------------------
                           ! Normal Mode    19        !
 --------------------------                            --------------------------
 ! Name  Definition              Value          Relative Weight (%)             !
 --------------------------------------------------------------------------------
 ! R4    R(1,5)                 -0.1177                  2.7                    !
 ! R7    R(5,8)                  0.0382                  0.9                    !
 ! R10   R(8,11)                -0.1177                  2.7                    !
 ! A1    A(2,1,3)               -0.2246                  5.1                    !
 ! A2    A(2,1,4)               -0.2888                  6.6                    !
 ! A3    A(2,1,5)                0.2284                  5.2                    !
 ! A4    A(3,1,4)               -0.2437                  5.5                    !
 ! A5    A(3,1,5)                0.2377                  5.4                    !
 ! A6    A(4,1,5)                0.2487                  5.7                    !
 ! A10   A(6,5,7)                0.0604                  1.4                    !
 ! A11   A(6,5,8)               -0.0552                  1.3                    !
 ! A13   A(5,8,9)               -0.0552                  1.3                    !
 ! A16   A(9,8,10)               0.0604                  1.4                    !
 ! A19   A(8,11,12)              0.2284                  5.2                    !
 ! A20   A(8,11,13)              0.2487                  5.7                    !
 ! A21   A(8,11,14)              0.2377                  5.4                    !
 ! A22   A(12,11,13)            -0.2888                  6.6                    !
 ! A23   A(12,11,14)            -0.2246                  5.1                    !
 ! A24   A(13,11,14)            -0.2437                  5.5                    !
 ! D1    D(2,1,5,6)              0.0805                  1.8                    !
 ! D4    D(3,1,5,6)              0.05                    1.1                    !
 ! D5    D(3,1,5,7)             -0.0359                  0.8                    !
 ! D7    D(4,1,5,6)              0.0317                  0.7                    !
 ! D8    D(4,1,5,7)             -0.0542                  1.2                    !
 ! D9    D(4,1,5,8)             -0.0284                  0.6                    !
 ! D13   D(6,5,8,9)             -0.0283                  0.6                    !
 ! D17   D(7,5,8,10)             0.0307                  0.7                    !
 ! D20   D(5,8,11,13)           -0.0284                  0.6                    !
 ! D22   D(9,8,11,12)            0.0805                  1.8                    !
 ! D23   D(9,8,11,13)            0.0317                  0.7                    !
 ! D24   D(9,8,11,14)            0.05                    1.1                    !
 ! D26   D(10,8,11,13)          -0.0542                  1.2                    !
 ! D27   D(10,8,11,14)          -0.0359                  0.8                    !
 --------------------------------------------------------------------------------
                           ----------------------------
                           ! Normal Mode    20        !
 --------------------------                            --------------------------
 ! Name  Definition              Value          Relative Weight (%)             !
 --------------------------------------------------------------------------------
 ! R4    R(1,5)                 -0.1606                  3.0                    !
 ! R10   R(8,11)                 0.1606                  3.0                    !
 ! A1    A(2,1,3)               -0.2693                  5.0                    !
 ! A2    A(2,1,4)               -0.253                   4.7                    !
 ! A3    A(2,1,5)                0.2179                  4.0                    !
 ! A4    A(3,1,4)               -0.1945                  3.6                    !
 ! A5    A(3,1,5)                0.2305                  4.3                    !
 ! A6    A(4,1,5)                0.2288                  4.2                    !
 ! A7    A(1,5,6)                0.0824                  1.5                    !
 ! A8    A(1,5,7)                0.1233                  2.3                    !
 ! A11   A(6,5,8)               -0.0651                  1.2                    !
 ! A12   A(7,5,8)               -0.1573                  2.9                    !
 ! A13   A(5,8,9)                0.0651                  1.2                    !
 ! A14   A(5,8,10)               0.1573                  2.9                    !
 ! A17   A(9,8,11)              -0.0824                  1.5                    !
 ! A18   A(10,8,11)             -0.1233                  2.3                    !
 ! A19   A(8,11,12)             -0.2179                  4.0                    !
 ! A20   A(8,11,13)             -0.2288                  4.2                    !
 ! A21   A(8,11,14)             -0.2305                  4.3                    !
 ! A22   A(12,11,13)             0.253                   4.7                    !
 ! A23   A(12,11,14)             0.2693                  5.0                    !
 ! A24   A(13,11,14)             0.1945                  3.6                    !
 ! D2    D(2,1,5,7)             -0.0882                  1.6                    !
 ! D4    D(3,1,5,6)              0.0624                  1.2                    !
 ! D5    D(3,1,5,7)             -0.05                    0.9                    !
 ! D6    D(3,1,5,8)              0.0508                  0.9                    !
 ! D8    D(4,1,5,7)             -0.1122                  2.1                    !
 ! D10   D(1,5,8,9)             -0.0702                  1.3                    !
 ! D11   D(1,5,8,10)             0.0561                  1.0                    !
 ! D14   D(6,5,8,10)             0.1263                  2.3                    !
 ! D15   D(6,5,8,11)             0.0702                  1.3                    !
 ! D16   D(7,5,8,9)             -0.1263                  2.3                    !
 ! D18   D(7,5,8,11)            -0.0561                  1.0                    !
 ! D21   D(5,8,11,14)           -0.0508                  0.9                    !
 ! D24   D(9,8,11,14)           -0.0624                  1.2                    !
 ! D25   D(10,8,11,12)           0.0882                  1.6                    !
 ! D26   D(10,8,11,13)           0.1122                  2.1                    !
 ! D27   D(10,8,11,14)           0.05                    0.9                    !
 --------------------------------------------------------------------------------
                           ----------------------------
                           ! Normal Mode    21        !
 --------------------------                            --------------------------
 ! Name  Definition              Value          Relative Weight (%)             !
 --------------------------------------------------------------------------------
 ! A1    A(2,1,3)                0.2268                  2.9                    !
 ! A2    A(2,1,4)               -0.1329                  1.7                    !
 ! A4    A(3,1,4)               -0.1012                  1.3                    !
 ! A6    A(4,1,5)                0.0538                  0.7                    !
 ! A7    A(1,5,6)                0.1061                  1.4                    !
 ! A8    A(1,5,7)                0.1088                  1.4                    !
 ! A10   A(6,5,7)               -0.4511                  5.8                    !
 ! A11   A(6,5,8)                0.0934                  1.2                    !
 ! A12   A(7,5,8)                0.0729                  0.9                    !
 ! A13   A(5,8,9)               -0.0934                  1.2                    !
 ! A14   A(5,8,10)              -0.0729                  0.9                    !
 ! A16   A(9,8,10)               0.4511                  5.8                    !
 ! A17   A(9,8,11)              -0.1061                  1.4                    !
 ! A18   A(10,8,11)             -0.1088                  1.4                    !
 ! A20   A(8,11,13)             -0.0538                  0.7                    !
 ! A22   A(12,11,13)             0.1329                  1.7                    !
 ! A23   A(12,11,14)            -0.2268                  2.9                    !
 ! A24   A(13,11,14)             0.1012                  1.3                    !
 ! D1    D(2,1,5,6)             -0.0797                  1.0                    !
 ! D2    D(2,1,5,7)              0.3406                  4.3                    !
 ! D3    D(2,1,5,8)              0.1438                  1.8                    !
 ! D4    D(3,1,5,6)             -0.3349                  4.3                    !
 ! D5    D(3,1,5,7)              0.0854                  1.1                    !
 ! D6    D(3,1,5,8)             -0.1114                  1.4                    !
 ! D7    D(4,1,5,6)             -0.2213                  2.8                    !
 ! D8    D(4,1,5,7)              0.1991                  2.5                    !
 ! D10   D(1,5,8,9)             -0.2299                  2.9                    !
 ! D11   D(1,5,8,10)             0.2165                  2.8                    !
 ! D14   D(6,5,8,10)             0.4464                  5.7                    !
 ! D15   D(6,5,8,11)             0.2299                  2.9                    !
 ! D16   D(7,5,8,9)             -0.4464                  5.7                    !
 ! D18   D(7,5,8,11)            -0.2165                  2.8                    !
 ! D19   D(5,8,11,12)           -0.1438                  1.8                    !
 ! D21   D(5,8,11,14)            0.1114                  1.4                    !
 ! D22   D(9,8,11,12)            0.0797                  1.0                    !
 ! D23   D(9,8,11,13)            0.2213                  2.8                    !
 ! D24   D(9,8,11,14)            0.3349                  4.3                    !
 ! D25   D(10,8,11,12)          -0.3406                  4.3                    !
 ! D26   D(10,8,11,13)          -0.1991                  2.5                    !
 ! D27   D(10,8,11,14)          -0.0854                  1.1                    !
 --------------------------------------------------------------------------------
                           ----------------------------
                           ! Normal Mode    22        !
 --------------------------                            --------------------------
 ! Name  Definition              Value          Relative Weight (%)             !
 --------------------------------------------------------------------------------
 ! R4    R(1,5)                 -0.0498                  0.6                    !
 ! R10   R(8,11)                -0.0498                  0.6                    !
 ! A1    A(2,1,3)               -0.0552                  0.7                    !
 ! A2    A(2,1,4)                0.2402                  3.1                    !
 ! A4    A(3,1,4)               -0.2588                  3.4                    !
 ! A5    A(3,1,5)                0.0881                  1.1                    !
 ! A7    A(1,5,6)                0.1119                  1.5                    !
 ! A8    A(1,5,7)                0.105                   1.4                    !
 ! A10   A(6,5,7)               -0.3968                  5.2                    !
 ! A12   A(7,5,8)                0.083                   1.1                    !
 ! A14   A(5,8,10)               0.083                   1.1                    !
 ! A16   A(9,8,10)              -0.3968                  5.2                    !
 ! A17   A(9,8,11)               0.1119                  1.5                    !
 ! A18   A(10,8,11)              0.105                   1.4                    !
 ! A21   A(8,11,14)              0.0881                  1.1                    !
 ! A22   A(12,11,13)             0.2402                  3.1                    !
 ! A23   A(12,11,14)            -0.0552                  0.7                    !
 ! A24   A(13,11,14)            -0.2588                  3.4                    !
 ! D1    D(2,1,5,6)             -0.2798                  3.6                    !
 ! D2    D(2,1,5,7)              0.0742                  1.0                    !
 ! D3    D(2,1,5,8)             -0.1234                  1.6                    !
 ! D4    D(3,1,5,6)             -0.248                   3.2                    !
 ! D5    D(3,1,5,7)              0.106                   1.4                    !
 ! D6    D(3,1,5,8)             -0.0917                  1.2                    !
 ! D8    D(4,1,5,7)              0.3651                  4.8                    !
 ! D9    D(4,1,5,8)              0.1674                  2.2                    !
 ! D10   D(1,5,8,9)              0.1969                  2.6                    !
 ! D11   D(1,5,8,10)            -0.2055                  2.7                    !
 ! D13   D(6,5,8,9)              0.3897                  5.1                    !
 ! D15   D(6,5,8,11)             0.1969                  2.6                    !
 ! D17   D(7,5,8,10)            -0.4151                  5.4                    !
 ! D18   D(7,5,8,11)            -0.2055                  2.7                    !
 ! D19   D(5,8,11,12)           -0.1234                  1.6                    !
 ! D20   D(5,8,11,13)            0.1674                  2.2                    !
 ! D21   D(5,8,11,14)           -0.0917                  1.2                    !
 ! D22   D(9,8,11,12)           -0.2798                  3.6                    !
 ! D24   D(9,8,11,14)           -0.248                   3.2                    !
 ! D25   D(10,8,11,12)           0.0742                  1.0                    !
 ! D26   D(10,8,11,13)           0.3651                  4.8                    !
 ! D27   D(10,8,11,14)           0.106                   1.4                    !
 --------------------------------------------------------------------------------
                           ----------------------------
                           ! Normal Mode    23        !
 --------------------------                            --------------------------
 ! Name  Definition              Value          Relative Weight (%)             !
 --------------------------------------------------------------------------------
 ! A1    A(2,1,3)                0.2692                  3.9                    !
 ! A2    A(2,1,4)               -0.4122                  6.0                    !
 ! A4    A(3,1,4)                0.139                   2.0                    !
 ! A5    A(3,1,5)               -0.1086                  1.6                    !
 ! A6    A(4,1,5)                0.0796                  1.2                    !
 ! A8    A(1,5,7)               -0.0601                  0.9                    !
 ! A10   A(6,5,7)                0.1937                  2.8                    !
 ! A11   A(6,5,8)               -0.0491                  0.7                    !
 ! A13   A(5,8,9)                0.0491                  0.7                    !
 ! A16   A(9,8,10)              -0.1937                  2.8                    !
 ! A18   A(10,8,11)              0.0601                  0.9                    !
 ! A20   A(8,11,13)             -0.0796                  1.2                    !
 ! A21   A(8,11,14)              0.1086                  1.6                    !
 ! A22   A(12,11,13)             0.4122                  6.0                    !
 ! A23   A(12,11,14)            -0.2692                  3.9                    !
 ! A24   A(13,11,14)            -0.139                   2.0                    !
 ! D1    D(2,1,5,6)              0.3355                  4.9                    !
 ! D2    D(2,1,5,7)              0.1552                  2.3                    !
 ! D3    D(2,1,5,8)              0.2395                  3.5                    !
 ! D4    D(3,1,5,6)              0.047                   0.7                    !
 ! D5    D(3,1,5,7)             -0.1333                  2.0                    !
 ! D6    D(3,1,5,8)             -0.049                   0.7                    !
 ! D7    D(4,1,5,6)             -0.1104                  1.6                    !
 ! D8    D(4,1,5,7)             -0.2907                  4.3                    !
 ! D9    D(4,1,5,8)             -0.2064                  3.0                    !
 ! D10   D(1,5,8,9)              0.0865                  1.3                    !
 ! D11   D(1,5,8,10)            -0.1037                  1.5                    !
 ! D14   D(6,5,8,10)            -0.1902                  2.8                    !
 ! D15   D(6,5,8,11)            -0.0865                  1.3                    !
 ! D16   D(7,5,8,9)              0.1902                  2.8                    !
 ! D18   D(7,5,8,11)             0.1037                  1.5                    !
 ! D19   D(5,8,11,12)           -0.2395                  3.5                    !
 ! D20   D(5,8,11,13)            0.2064                  3.0                    !
 ! D21   D(5,8,11,14)            0.049                   0.7                    !
 ! D22   D(9,8,11,12)           -0.3355                  4.9                    !
 ! D23   D(9,8,11,13)            0.1104                  1.6                    !
 ! D24   D(9,8,11,14)           -0.047                   0.7                    !
 ! D25   D(10,8,11,12)          -0.1552                  2.3                    !
 ! D26   D(10,8,11,13)           0.2907                  4.3                    !
 ! D27   D(10,8,11,14)           0.1333                  2.0                    !
 --------------------------------------------------------------------------------
                           ----------------------------
                           ! Normal Mode    24        !
 --------------------------                            --------------------------
 ! Name  Definition              Value          Relative Weight (%)             !
 --------------------------------------------------------------------------------
 ! R7    R(5,8)                 -0.0646                  0.9                    !
 ! A1    A(2,1,3)                0.1346                  1.8                    !
 ! A2    A(2,1,4)               -0.3585                  4.8                    !
 ! A3    A(2,1,5)                0.0746                  1.0                    !
 ! A4    A(3,1,4)                0.2089                  2.8                    !
 ! A5    A(3,1,5)               -0.0985                  1.3                    !
 ! A7    A(1,5,6)                0.0667                  0.9                    !
 ! A8    A(1,5,7)                0.05                    0.7                    !
 ! A10   A(6,5,7)               -0.3273                  4.4                    !
 ! A11   A(6,5,8)                0.0801                  1.1                    !
 ! A12   A(7,5,8)                0.0964                  1.3                    !
 ! A13   A(5,8,9)                0.0801                  1.1                    !
 ! A14   A(5,8,10)               0.0964                  1.3                    !
 ! A16   A(9,8,10)              -0.3273                  4.4                    !
 ! A17   A(9,8,11)               0.0667                  0.9                    !
 ! A18   A(10,8,11)              0.05                    0.7                    !
 ! A19   A(8,11,12)              0.0746                  1.0                    !
 ! A21   A(8,11,14)             -0.0985                  1.3                    !
 ! A22   A(12,11,13)            -0.3585                  4.8                    !
 ! A23   A(12,11,14)             0.1346                  1.8                    !
 ! A24   A(13,11,14)             0.2089                  2.8                    !
 ! D2    D(2,1,5,7)              0.3386                  4.6                    !
 ! D3    D(2,1,5,8)              0.1714                  2.3                    !
 ! D4    D(3,1,5,6)             -0.1437                  1.9                    !
 ! D5    D(3,1,5,7)              0.1834                  2.5                    !
 ! D7    D(4,1,5,6)             -0.3664                  4.9                    !
 ! D9    D(4,1,5,8)             -0.2066                  2.8                    !
 ! D10   D(1,5,8,9)              0.1651                  2.2                    !
 ! D11   D(1,5,8,10)            -0.1279                  1.7                    !
 ! D13   D(6,5,8,9)              0.3171                  4.3                    !
 ! D15   D(6,5,8,11)             0.1651                  2.2                    !
 ! D17   D(7,5,8,10)            -0.2689                  3.6                    !
 ! D18   D(7,5,8,11)            -0.1279                  1.7                    !
 ! D19   D(5,8,11,12)            0.1714                  2.3                    !
 ! D20   D(5,8,11,13)           -0.2066                  2.8                    !
 ! D23   D(9,8,11,13)           -0.3664                  4.9                    !
 ! D24   D(9,8,11,14)           -0.1437                  1.9                    !
 ! D25   D(10,8,11,12)           0.3386                  4.6                    !
 ! D27   D(10,8,11,14)           0.1834                  2.5                    !
 --------------------------------------------------------------------------------
                           ----------------------------
                           ! Normal Mode    25        !
 --------------------------                            --------------------------
 ! Name  Definition              Value          Relative Weight (%)             !
 --------------------------------------------------------------------------------
 ! A1    A(2,1,3)                0.2674                  4.0                    !
 ! A2    A(2,1,4)                0.123                   1.8                    !
 ! A3    A(2,1,5)               -0.1025                  1.5                    !
 ! A4    A(3,1,4)               -0.4356                  6.5                    !
 ! A5    A(3,1,5)                0.0508                  0.8                    !
 ! A6    A(4,1,5)                0.0942                  1.4                    !
 ! A10   A(6,5,7)                0.1729                  2.6                    !
 ! A11   A(6,5,8)               -0.0611                  0.9                    !
 ! A13   A(5,8,9)                0.0611                  0.9                    !
 ! A16   A(9,8,10)              -0.1729                  2.6                    !
 ! A19   A(8,11,12)              0.1025                  1.5                    !
 ! A20   A(8,11,13)             -0.0942                  1.4                    !
 ! A21   A(8,11,14)             -0.0508                  0.8                    !
 ! A22   A(12,11,13)            -0.123                   1.8                    !
 ! A23   A(12,11,14)            -0.2674                  4.0                    !
 ! A24   A(13,11,14)             0.4356                  6.5                    !
 ! D1    D(2,1,5,6)              0.1416                  2.1                    !
 ! D3    D(2,1,5,8)              0.0448                  0.7                    !
 ! D4    D(3,1,5,6)             -0.1623                  2.4                    !
 ! D5    D(3,1,5,7)             -0.34                    5.1                    !
 ! D6    D(3,1,5,8)             -0.2591                  3.9                    !
 ! D7    D(4,1,5,6)              0.2911                  4.4                    !
 ! D8    D(4,1,5,7)              0.1134                  1.7                    !
 ! D9    D(4,1,5,8)              0.1943                  2.9                    !
 ! D10   D(1,5,8,9)              0.0733                  1.1                    !
 ! D11   D(1,5,8,10)            -0.0768                  1.2                    !
 ! D14   D(6,5,8,10)            -0.15                    2.3                    !
 ! D15   D(6,5,8,11)            -0.0733                  1.1                    !
 ! D16   D(7,5,8,9)              0.15                    2.3                    !
 ! D18   D(7,5,8,11)             0.0768                  1.2                    !
 ! D19   D(5,8,11,12)           -0.0448                  0.7                    !
 ! D20   D(5,8,11,13)           -0.1943                  2.9                    !
 ! D21   D(5,8,11,14)            0.2591                  3.9                    !
 ! D22   D(9,8,11,12)           -0.1416                  2.1                    !
 ! D23   D(9,8,11,13)           -0.2911                  4.4                    !
 ! D24   D(9,8,11,14)            0.1623                  2.4                    !
 ! D26   D(10,8,11,13)          -0.1134                  1.7                    !
 ! D27   D(10,8,11,14)           0.34                    5.1                    !
 --------------------------------------------------------------------------------
                           ----------------------------
                           ! Normal Mode    26        !
 --------------------------                            --------------------------
 ! Name  Definition              Value          Relative Weight (%)             !
 --------------------------------------------------------------------------------
 ! R7    R(5,8)                  0.0465                  0.8                    !
 ! A1    A(2,1,3)                0.4463                  7.3                    !
 ! A2    A(2,1,4)               -0.0948                  1.6                    !
 ! A3    A(2,1,5)               -0.1062                  1.7                    !
 ! A4    A(3,1,4)               -0.3055                  5.0                    !
 ! A5    A(3,1,5)               -0.0425                  0.7                    !
 ! A6    A(4,1,5)                0.1032                  1.7                    !
 ! A10   A(6,5,7)                0.0758                  1.2                    !
 ! A12   A(7,5,8)               -0.0417                  0.7                    !
 ! A14   A(5,8,10)              -0.0417                  0.7                    !
 ! A16   A(9,8,10)               0.0758                  1.2                    !
 ! A19   A(8,11,12)             -0.1062                  1.7                    !
 ! A20   A(8,11,13)              0.1032                  1.7                    !
 ! A21   A(8,11,14)             -0.0425                  0.7                    !
 ! A22   A(12,11,13)            -0.0948                  1.6                    !
 ! A23   A(12,11,14)             0.4463                  7.3                    !
 ! A24   A(13,11,14)            -0.3055                  5.0                    !
 ! D1    D(2,1,5,6)              0.233                   3.8                    !
 ! D2    D(2,1,5,7)              0.1424                  2.3                    !
 ! D3    D(2,1,5,8)              0.1983                  3.3                    !
 ! D4    D(3,1,5,6)             -0.2326                  3.8                    !
 ! D5    D(3,1,5,7)             -0.3231                  5.3                    !
 ! D6    D(3,1,5,8)             -0.2672                  4.4                    !
 ! D7    D(4,1,5,6)              0.1124                  1.8                    !
 ! D9    D(4,1,5,8)              0.0778                  1.3                    !
 ! D11   D(1,5,8,10)             0.038                   0.6                    !
 ! D17   D(7,5,8,10)             0.0709                  1.2                    !
 ! D18   D(7,5,8,11)             0.038                   0.6                    !
 ! D19   D(5,8,11,12)            0.1983                  3.3                    !
 ! D20   D(5,8,11,13)            0.0778                  1.3                    !
 ! D21   D(5,8,11,14)           -0.2672                  4.4                    !
 ! D22   D(9,8,11,12)            0.233                   3.8                    !
 ! D23   D(9,8,11,13)            0.1124                  1.8                    !
 ! D24   D(9,8,11,14)           -0.2326                  3.8                    !
 ! D25   D(10,8,11,12)           0.1424                  2.3                    !
 ! D27   D(10,8,11,14)          -0.3231                  5.3                    !
 --------------------------------------------------------------------------------
                           ----------------------------
                           ! Normal Mode    27        !
 --------------------------                            --------------------------
 ! Name  Definition              Value          Relative Weight (%)             !
 --------------------------------------------------------------------------------
 ! R1    R(1,2)                  0.0435                  1.4                    !
 ! R3    R(1,4)                 -0.0713                  2.2                    !
 ! R4    R(1,5)                  0.0247                  0.8                    !
 ! R5    R(5,6)                 -0.7116                 22.3                    !
 ! R6    R(5,7)                 -0.2306                  7.2                    !
 ! R7    R(5,8)                  0.0481                  1.5                    !
 ! R8    R(8,9)                 -0.7116                 22.3                    !
 ! R9    R(8,10)                -0.2306                  7.2                    !
 ! R10   R(8,11)                 0.0247                  0.8                    !
 ! R11   R(11,12)                0.0435                  1.4                    !
 ! R12   R(11,13)               -0.0713                  2.2                    !
 ! A9    A(1,5,8)               -0.0298                  0.9                    !
 ! A10   A(6,5,7)                0.0238                  0.7                    !
 ! A11   A(6,5,8)                0.0273                  0.9                    !
 ! A12   A(7,5,8)               -0.0239                  0.7                    !
 ! A13   A(5,8,9)                0.0273                  0.9                    !
 ! A14   A(5,8,10)              -0.0239                  0.7                    !
 ! A15   A(5,8,11)              -0.0298                  0.9                    !
 ! A16   A(9,8,10)               0.0238                  0.7                    !
 ! D2    D(2,1,5,7)             -0.032                   1.0                    !
 ! D3    D(2,1,5,8)              0.0256                  0.8                    !
 ! D6    D(3,1,5,8)              0.042                   1.3                    !
 ! D8    D(4,1,5,7)             -0.0275                  0.9                    !
 ! D9    D(4,1,5,8)              0.0301                  0.9                    !
 ! D10   D(1,5,8,9)             -0.0273                  0.9                    !
 ! D12   D(1,5,8,11)            -0.0465                  1.5                    !
 ! D14   D(6,5,8,10)             0.0222                  0.7                    !
 ! D15   D(6,5,8,11)            -0.0273                  0.9                    !
 ! D16   D(7,5,8,9)              0.0222                  0.7                    !
 ! D17   D(7,5,8,10)             0.0524                  1.6                    !
 ! D19   D(5,8,11,12)            0.0256                  0.8                    !
 ! D20   D(5,8,11,13)            0.0301                  0.9                    !
 ! D21   D(5,8,11,14)            0.042                   1.3                    !
 ! D25   D(10,8,11,12)          -0.032                   1.0                    !
 ! D26   D(10,8,11,13)          -0.0275                  0.9                    !
 --------------------------------------------------------------------------------
                           ----------------------------
                           ! Normal Mode    28        !
 --------------------------                            --------------------------
 ! Name  Definition              Value          Relative Weight (%)             !
 --------------------------------------------------------------------------------
 ! R1    R(1,2)                  0.0322                  1.0                    !
 ! R2    R(1,3)                 -0.0446                  1.4                    !
 ! R3    R(1,4)                 -0.0728                  2.3                    !
 ! R4    R(1,5)                  0.0298                  1.0                    !
 ! R5    R(5,6)                 -0.5307                 17.1                    !
 ! R6    R(5,7)                 -0.5168                 16.6                    !
 ! R8    R(8,9)                  0.5307                 17.1                    !
 ! R9    R(8,10)                 0.5168                 16.6                    !
 ! R10   R(8,11)                -0.0298                  1.0                    !
 ! R11   R(11,12)               -0.0322                  1.0                    !
 ! R12   R(11,13)                0.0728                  2.3                    !
 ! R13   R(11,14)                0.0446                  1.4                    !
 ! A9    A(1,5,8)               -0.0364                  1.2                    !
 ! A10   A(6,5,7)                0.0237                  0.8                    !
 ! A15   A(5,8,11)               0.0364                  1.2                    !
 ! A16   A(9,8,10)              -0.0237                  0.8                    !
 ! D4    D(3,1,5,6)              0.0235                  0.8                    !
 ! D8    D(4,1,5,7)             -0.0214                  0.7                    !
 ! D9    D(4,1,5,8)             -0.0196                  0.6                    !
 ! D10   D(1,5,8,9)              0.0243                  0.8                    !
 ! D14   D(6,5,8,10)            -0.0353                  1.1                    !
 ! D15   D(6,5,8,11)            -0.0243                  0.8                    !
 ! D16   D(7,5,8,9)              0.0353                  1.1                    !
 ! D20   D(5,8,11,13)            0.0196                  0.6                    !
 ! D24   D(9,8,11,14)           -0.0235                  0.8                    !
 ! D26   D(10,8,11,13)           0.0214                  0.7                    !
 --------------------------------------------------------------------------------
                           ----------------------------
                           ! Normal Mode    29        !
 --------------------------                            --------------------------
 ! Name  Definition              Value          Relative Weight (%)             !
 --------------------------------------------------------------------------------
 ! R1    R(1,2)                  0.3665                 12.2                    !
 ! R2    R(1,3)                  0.3555                 11.8                    !
 ! R3    R(1,4)                  0.5142                 17.1                    !
 ! R4    R(1,5)                 -0.0335                  1.1                    !
 ! R6    R(5,7)                 -0.0857                  2.9                    !
 ! R9    R(8,10)                 0.0857                  2.9                    !
 ! R10   R(8,11)                 0.0335                  1.1                    !
 ! R11   R(11,12)               -0.3665                 12.2                    !
 ! R12   R(11,13)               -0.5142                 17.1                    !
 ! R13   R(11,14)               -0.3555                 11.8                    !
 --------------------------------------------------------------------------------
                           ----------------------------
                           ! Normal Mode    30        !
 --------------------------                            --------------------------
 ! Name  Definition              Value          Relative Weight (%)             !
 --------------------------------------------------------------------------------
 ! R1    R(1,2)                  0.3646                 11.9                    !
 ! R2    R(1,3)                  0.315                  10.3                    !
 ! R3    R(1,4)                  0.5409                 17.7                    !
 ! R4    R(1,5)                 -0.0322                  1.1                    !
 ! R6    R(5,7)                 -0.0973                  3.2                    !
 ! R9    R(8,10)                -0.0973                  3.2                    !
 ! R10   R(8,11)                -0.0322                  1.1                    !
 ! R11   R(11,12)                0.3646                 11.9                    !
 ! R12   R(11,13)                0.5409                 17.7                    !
 ! R13   R(11,14)                0.315                  10.3                    !
 ! A2    A(2,1,4)               -0.0164                  0.5                    !
 ! A3    A(2,1,5)                0.0115                  0.4                    !
 ! A4    A(3,1,4)               -0.0134                  0.4                    !
 ! A5    A(3,1,5)                0.0183                  0.6                    !
 ! A19   A(8,11,12)              0.0115                  0.4                    !
 ! A21   A(8,11,14)              0.0183                  0.6                    !
 ! A22   A(12,11,13)            -0.0164                  0.5                    !
 ! A24   A(13,11,14)            -0.0134                  0.4                    !
 ! D1    D(2,1,5,6)              0.0109                  0.4                    !
 ! D2    D(2,1,5,7)              0.0108                  0.4                    !
 ! D6    D(3,1,5,8)             -0.0114                  0.4                    !
 ! D12   D(1,5,8,11)             0.0166                  0.5                    !
 ! D21   D(5,8,11,14)           -0.0114                  0.4                    !
 ! D22   D(9,8,11,12)            0.0109                  0.4                    !
 ! D25   D(10,8,11,12)           0.0108                  0.4                    !
 --------------------------------------------------------------------------------
                           ----------------------------
                           ! Normal Mode    31        !
 --------------------------                            --------------------------
 ! Name  Definition              Value          Relative Weight (%)             !
 --------------------------------------------------------------------------------
 ! R1    R(1,2)                  0.0237                  0.7                    !
 ! R2    R(1,3)                  0.1744                  5.0                    !
 ! R5    R(5,6)                 -0.2408                  6.9                    !
 ! R6    R(5,7)                  0.7115                 20.4                    !
 ! R7    R(5,8)                 -0.0241                  0.7                    !
 ! R8    R(8,9)                 -0.2408                  6.9                    !
 ! R9    R(8,10)                 0.7115                 20.4                    !
 ! R11   R(11,12)                0.0237                  0.7                    !
 ! R13   R(11,14)                0.1744                  5.0                    !
 ! A5    A(3,1,5)               -0.0255                  0.7                    !
 ! A7    A(1,5,6)                0.0253                  0.7                    !
 ! A8    A(1,5,7)               -0.0286                  0.8                    !
 ! A11   A(6,5,8)                0.0374                  1.1                    !
 ! A13   A(5,8,9)                0.0374                  1.1                    !
 ! A17   A(9,8,11)               0.0253                  0.7                    !
 ! A18   A(10,8,11)             -0.0286                  0.8                    !
 ! A21   A(8,11,14)             -0.0255                  0.7                    !
 ! D1    D(2,1,5,6)             -0.0393                  1.1                    !
 ! D2    D(2,1,5,7)             -0.022                   0.6                    !
 ! D3    D(2,1,5,8)              0.023                   0.7                    !
 ! D4    D(3,1,5,6)             -0.0259                  0.7                    !
 ! D6    D(3,1,5,8)              0.0364                  1.0                    !
 ! D9    D(4,1,5,8)              0.0466                  1.3                    !
 ! D12   D(1,5,8,11)            -0.071                   2.0                    !
 ! D13   D(6,5,8,9)              0.04                    1.1                    !
 ! D14   D(6,5,8,10)             0.0367                  1.1                    !
 ! D16   D(7,5,8,9)              0.0367                  1.1                    !
 ! D17   D(7,5,8,10)             0.0333                  1.0                    !
 ! D19   D(5,8,11,12)            0.023                   0.7                    !
 ! D20   D(5,8,11,13)            0.0466                  1.3                    !
 ! D21   D(5,8,11,14)            0.0364                  1.0                    !
 ! D22   D(9,8,11,12)           -0.0393                  1.1                    !
 ! D24   D(9,8,11,14)           -0.0259                  0.7                    !
 ! D25   D(10,8,11,12)          -0.022                   0.6                    !
 --------------------------------------------------------------------------------
                           ----------------------------
                           ! Normal Mode    32        !
 --------------------------                            --------------------------
 ! Name  Definition              Value          Relative Weight (%)             !
 --------------------------------------------------------------------------------
 ! R1    R(1,2)                  0.0576                  1.5                    !
 ! R2    R(1,3)                  0.2229                  5.7                    !
 ! R3    R(1,4)                 -0.1131                  2.9                    !
 ! R5    R(5,6)                 -0.5132                 13.2                    !
 ! R6    R(5,7)                  0.526                  13.5                    !
 ! R8    R(8,9)                  0.5132                 13.2                    !
 ! R9    R(8,10)                -0.526                  13.5                    !
 ! R11   R(11,12)               -0.0576                  1.5                    !
 ! R12   R(11,13)                0.1131                  2.9                    !
 ! R13   R(11,14)               -0.2229                  5.7                    !
 ! A5    A(3,1,5)               -0.0284                  0.7                    !
 ! A6    A(4,1,5)                0.0303                  0.8                    !
 ! A7    A(1,5,6)                0.0332                  0.9                    !
 ! A8    A(1,5,7)               -0.0325                  0.8                    !
 ! A12   A(7,5,8)               -0.027                   0.7                    !
 ! A14   A(5,8,10)               0.027                   0.7                    !
 ! A17   A(9,8,11)              -0.0332                  0.9                    !
 ! A18   A(10,8,11)              0.0325                  0.8                    !
 ! A20   A(8,11,13)             -0.0303                  0.8                    !
 ! A21   A(8,11,14)              0.0284                  0.7                    !
 ! D1    D(2,1,5,6)             -0.0378                  1.0                    !
 ! D2    D(2,1,5,7)             -0.0389                  1.0                    !
 ! D6    D(3,1,5,8)              0.0335                  0.9                    !
 ! D9    D(4,1,5,8)              0.0345                  0.9                    !
 ! D10   D(1,5,8,9)             -0.0596                  1.5                    !
 ! D11   D(1,5,8,10)            -0.0488                  1.3                    !
 ! D15   D(6,5,8,11)             0.0596                  1.5                    !
 ! D18   D(7,5,8,11)             0.0488                  1.3                    !
 ! D20   D(5,8,11,13)           -0.0345                  0.9                    !
 ! D21   D(5,8,11,14)           -0.0335                  0.9                    !
 ! D22   D(9,8,11,12)            0.0378                  1.0                    !
 ! D25   D(10,8,11,12)           0.0389                  1.0                    !
 --------------------------------------------------------------------------------
                           ----------------------------
                           ! Normal Mode    33        !
 --------------------------                            --------------------------
 ! Name  Definition              Value          Relative Weight (%)             !
 --------------------------------------------------------------------------------
 ! R1    R(1,2)                 -0.5459                 15.3                    !
 ! R2    R(1,3)                 -0.2004                  5.6                    !
 ! R3    R(1,4)                  0.5053                 14.1                    !
 ! R5    R(5,6)                 -0.0965                  2.7                    !
 ! R6    R(5,7)                  0.0341                  1.0                    !
 ! R8    R(8,9)                 -0.0965                  2.7                    !
 ! R9    R(8,10)                 0.0341                  1.0                    !
 ! R11   R(11,12)               -0.5459                 15.3                    !
 ! R12   R(11,13)                0.5053                 14.1                    !
 ! R13   R(11,14)               -0.2004                  5.6                    !
 ! A1    A(2,1,3)                0.029                   0.8                    !
 ! A3    A(2,1,5)                0.0225                  0.6                    !
 ! A6    A(4,1,5)               -0.0315                  0.9                    !
 ! A19   A(8,11,12)              0.0225                  0.6                    !
 ! A20   A(8,11,13)             -0.0315                  0.9                    !
 ! A23   A(12,11,14)             0.029                   0.8                    !
 ! D2    D(2,1,5,7)              0.0246                  0.7                    !
 ! D3    D(2,1,5,8)              0.0224                  0.6                    !
 ! D4    D(3,1,5,6)             -0.0383                  1.1                    !
 ! D5    D(3,1,5,7)             -0.0293                  0.8                    !
 ! D6    D(3,1,5,8)             -0.0315                  0.9                    !
 ! D19   D(5,8,11,12)            0.0224                  0.6                    !
 ! D21   D(5,8,11,14)           -0.0315                  0.9                    !
 ! D24   D(9,8,11,14)           -0.0383                  1.1                    !
 ! D25   D(10,8,11,12)           0.0246                  0.7                    !
 ! D27   D(10,8,11,14)          -0.0293                  0.8                    !
 --------------------------------------------------------------------------------
                           ----------------------------
                           ! Normal Mode    34        !
 --------------------------                            --------------------------
 ! Name  Definition              Value          Relative Weight (%)             !
 --------------------------------------------------------------------------------
 ! R1    R(1,2)                 -0.4222                 11.1                    !
 ! R2    R(1,3)                 -0.3                     7.9                    !
 ! R3    R(1,4)                  0.5393                 14.2                    !
 ! R5    R(5,6)                 -0.1814                  4.8                    !
 ! R6    R(5,7)                  0.1136                  3.0                    !
 ! R8    R(8,9)                  0.1814                  4.8                    !
 ! R9    R(8,10)                -0.1136                  3.0                    !
 ! R11   R(11,12)                0.4222                 11.1                    !
 ! R12   R(11,13)               -0.5393                 14.2                    !
 ! R13   R(11,14)                0.3                     7.9                    !
 ! A1    A(2,1,3)                0.0296                  0.8                    !
 ! A6    A(4,1,5)               -0.0284                  0.7                    !
 ! A20   A(8,11,13)              0.0284                  0.7                    !
 ! A23   A(12,11,14)            -0.0296                  0.8                    !
 ! D2    D(2,1,5,7)              0.0241                  0.6                    !
 ! D4    D(3,1,5,6)             -0.0343                  0.9                    !
 ! D5    D(3,1,5,7)             -0.0296                  0.8                    !
 ! D6    D(3,1,5,8)             -0.031                   0.8                    !
 ! D21   D(5,8,11,14)            0.031                   0.8                    !
 ! D24   D(9,8,11,14)            0.0343                  0.9                    !
 ! D25   D(10,8,11,12)          -0.0241                  0.6                    !
 ! D27   D(10,8,11,14)           0.0296                  0.8                    !
 --------------------------------------------------------------------------------
                           ----------------------------
                           ! Normal Mode    35        !
 --------------------------                            --------------------------
 ! Name  Definition              Value          Relative Weight (%)             !
 --------------------------------------------------------------------------------
 ! R1    R(1,2)                  0.5166                 15.4                    !
 ! R2    R(1,3)                 -0.5625                 16.7                    !
 ! R3    R(1,4)                  0.0437                  1.3                    !
 ! R5    R(5,6)                 -0.0599                  1.8                    !
 ! R6    R(5,7)                  0.1326                  3.9                    !
 ! R8    R(8,9)                  0.0599                  1.8                    !
 ! R9    R(8,10)                -0.1326                  3.9                    !
 ! R11   R(11,12)               -0.5166                 15.4                    !
 ! R12   R(11,13)               -0.0437                  1.3                    !
 ! R13   R(11,14)                0.5625                 16.7                    !
 ! A2    A(2,1,4)               -0.027                   0.8                    !
 ! A3    A(2,1,5)               -0.0271                  0.8                    !
 ! A4    A(3,1,4)                0.0247                  0.7                    !
 ! A5    A(3,1,5)                0.0274                  0.8                    !
 ! A19   A(8,11,12)              0.0271                  0.8                    !
 ! A21   A(8,11,14)             -0.0274                  0.8                    !
 ! A22   A(12,11,13)             0.027                   0.8                    !
 ! A24   A(13,11,14)            -0.0247                  0.7                    !
 ! D7    D(4,1,5,6)             -0.031                   0.9                    !
 ! D8    D(4,1,5,7)             -0.0388                  1.2                    !
 ! D9    D(4,1,5,8)             -0.0347                  1.0                    !
 ! D20   D(5,8,11,13)            0.0347                  1.0                    !
 ! D23   D(9,8,11,13)            0.031                   0.9                    !
 ! D26   D(10,8,11,13)           0.0388                  1.2                    !
 --------------------------------------------------------------------------------
                           ----------------------------
                           ! Normal Mode    36        !
 --------------------------                            --------------------------
 ! Name  Definition              Value          Relative Weight (%)             !
 --------------------------------------------------------------------------------
 ! R1    R(1,2)                  0.3876                 10.9                    !
 ! R2    R(1,3)                 -0.6447                 18.1                    !
 ! R3    R(1,4)                  0.1445                  4.1                    !
 ! R5    R(5,6)                 -0.0462                  1.3                    !
 ! R6    R(5,7)                  0.1281                  3.6                    !
 ! R8    R(8,9)                 -0.0462                  1.3                    !
 ! R9    R(8,10)                 0.1281                  3.6                    !
 ! R11   R(11,12)                0.3876                 10.9                    !
 ! R12   R(11,13)                0.1445                  4.1                    !
 ! R13   R(11,14)               -0.6447                 18.1                    !
 ! A2    A(2,1,4)               -0.0276                  0.8                    !
 ! A3    A(2,1,5)               -0.0234                  0.7                    !
 ! A4    A(3,1,4)                0.0214                  0.6                    !
 ! A5    A(3,1,5)                0.0292                  0.8                    !
 ! A8    A(1,5,7)                0.0182                  0.5                    !
 ! A9    A(1,5,8)               -0.015                   0.4                    !
 ! A15   A(5,8,11)              -0.015                   0.4                    !
 ! A18   A(10,8,11)              0.0182                  0.5                    !
 ! A19   A(8,11,12)             -0.0234                  0.7                    !
 ! A21   A(8,11,14)              0.0292                  0.8                    !
 ! A22   A(12,11,13)            -0.0276                  0.8                    !
 ! A24   A(13,11,14)             0.0214                  0.6                    !
 ! D1    D(2,1,5,6)              0.0258                  0.7                    !
 ! D2    D(2,1,5,7)              0.0214                  0.6                    !
 ! D3    D(2,1,5,8)              0.0231                  0.7                    !
 ! D7    D(4,1,5,6)             -0.03                    0.8                    !
 ! D8    D(4,1,5,7)             -0.0344                  1.0                    !
 ! D9    D(4,1,5,8)             -0.0327                  0.9                    !
 ! D10   D(1,5,8,9)              0.017                   0.5                    !
 ! D11   D(1,5,8,10)             0.0157                  0.4                    !
 ! D12   D(1,5,8,11)             0.0263                  0.7                    !
 ! D15   D(6,5,8,11)             0.017                   0.5                    !
 ! D18   D(7,5,8,11)             0.0157                  0.4                    !
 ! D19   D(5,8,11,12)            0.0231                  0.7                    !
 ! D20   D(5,8,11,13)           -0.0327                  0.9                    !
 ! D22   D(9,8,11,12)            0.0258                  0.7                    !
 ! D23   D(9,8,11,13)           -0.03                    0.8                    !
 ! D25   D(10,8,11,12)           0.0214                  0.6                    !
 ! D26   D(10,8,11,13)          -0.0344                  1.0                    !
 --------------------------------------------------------------------------------
 Max01P=     38 Av01P=   26.44 Stan. Dev.=    9.71
 Max05P=     18 Av05P=    4.00 Stan. Dev.=    3.56
 Max10P=      6 Av10P=    1.11 Stan. Dev.=    1.94
 MaxNDP=     94 AvNDP=   68.75 Stan. Dev.=   20.80
 ***** Axes restored to original set *****
 -------------------------------------------------------------------
 Center     Atomic                   Forces (Hartrees/Bohr)
 Number     Number              X              Y              Z
 -------------------------------------------------------------------
      1        6           0.000000407    0.000000801   -0.000000117
      2        1           0.000000407    0.000000332   -0.000000720
      3        1           0.000000403   -0.000000152   -0.000000366
      4        1          -0.000000034    0.000000512   -0.000000244
      5        6           0.000000355   -0.000000362   -0.000000628
      6        1           0.000000415   -0.000000415   -0.000000231
      7        1           0.000000282    0.000000218   -0.000000171
      8        6          -0.000000683    0.000000299    0.000000309
      9        1          -0.000000303    0.000000437    0.000000340
     10        1          -0.000000124   -0.000000188    0.000000325
     11        6           0.000000041   -0.000000715    0.000000554
     12        1          -0.000000639   -0.000000377    0.000000493
     13        1          -0.000000141   -0.000000545    0.000000073
     14        1          -0.000000385    0.000000155    0.000000383
 -------------------------------------------------------------------
 Cartesian Forces:  Max     0.000000801 RMS     0.000000406
 Red2BG is reusing G-inverse.
 Leave Link  716 at Wed Aug 12 19:12:45 2026, MaxMem= 12884901888 cpu:               2.2 elap:               0.1
 (Enter /home/falbo/g16/l9999.exe)

 ----------------------------------------------------------------------

 Electric dipole moment (input orientation):
 (Debye = 10**-18 statcoulomb cm , SI units = C m)
                  (au)            (Debye)         (10**-30 SI)
   Tot        0.376299D-01      0.956456D-01      0.319039D+00
   x         -0.267102D-01     -0.678905D-01     -0.226458D+00
   y         -0.508223D-02     -0.129178D-01     -0.430890D-01
   z         -0.260143D-01     -0.661217D-01     -0.220558D+00

 Dipole polarizability, Alpha (input orientation).
 (esu units = cm**3 , SI units = C**2 m**2 J**-1)
 Alpha(0;0):
               (au)            (10**-24 esu)      (10**-40 SI)
   iso        0.470653D+02      0.697436D+01      0.776003D+01
   aniso      0.591151D+01      0.875995D+00      0.974676D+00
   xx         0.463690D+02      0.687117D+01      0.764521D+01
   yx        -0.226919D+01     -0.336260D+00     -0.374139D+00
   yy         0.492218D+02      0.729391D+01      0.811557D+01
   zx         0.237677D-01      0.352200D-02      0.391876D-02
   zy         0.169273D+01      0.250837D+00      0.279094D+00
   zz         0.456053D+02      0.675800D+01      0.751929D+01

 ----------------------------------------------------------------------

 Dipole orientation:
     6         -2.81640751         -1.20242572         -1.43288419
     1         -2.30113019          0.78903523         -1.27035132
     1         -3.85236756         -1.43614903         -3.20145598
     1         -1.07082225         -2.30094813         -1.57085510
     6         -4.38364719         -2.05859122          0.83915508
     1         -6.16840893         -1.01052357          0.88136985
     1         -3.37526445         -1.57729737          2.57854399
     6         -4.95202648         -4.89639117          0.83915508
     1         -3.16726474         -5.94445882          0.88136985
     1         -5.96040921         -5.37768502          2.57854399
     6         -6.51926616         -5.75255667         -1.43288419
     1         -7.03454347         -7.74401762         -1.27035132
     1         -8.26485141         -4.65403426         -1.57085510
     1         -5.48330611         -5.51883336         -3.20145598

 Electric dipole moment (dipole orientation):
 (Debye = 10**-18 statcoulomb cm , SI units = C m)
                  (au)            (Debye)         (10**-30 SI)
   Tot        0.376299D-01      0.956456D-01      0.319039D+00
   x          0.000000D+00      0.000000D+00      0.000000D+00
   y          0.000000D+00      0.000000D+00      0.000000D+00
   z          0.376299D-01      0.956456D-01      0.319039D+00

 Dipole polarizability, Alpha (dipole orientation).
 (esu units = cm**3 , SI units = C**2 m**2 J**-1)
 Alpha(0;0):
               (au)            (10**-24 esu)      (10**-40 SI)
   iso        0.470653D+02      0.697436D+01      0.776003D+01
   aniso      0.591151D+01      0.875995D+00      0.974676D+00
   xx         0.462865D+02      0.685895D+01      0.763161D+01
   yx         0.299340D+01      0.443576D+00      0.493544D+00
   yy         0.489492D+02      0.725352D+01      0.807063D+01
   zx         0.000000D+00      0.000000D+00      0.000000D+00
   zy         0.000000D+00      0.000000D+00      0.000000D+00
   zz         0.459604D+02      0.681062D+01      0.757784D+01

 ----------------------------------------------------------------------
 1\1\GINC-WN01\Freq\RM052X\6-31+G(d)\C4H10\FALBO\12-Aug-2026\0\\#p m052
 x/6-31+G(d) opt(calcall,tight,maxstep=7) freq=intmodes\\HessFit high-l
 evel Opt+Freq starting from 02_conf_010\\0,1\C,-0.5442532526,0.8163186
 643,1.4961471591\H,-0.3541253204,-0.253223207,1.385470121\H,-0.2718565
 308,1.0961385627,2.5155657715\H,0.1231729478,1.3488650828,0.8124382001
 \C,-2.0056397547,1.1491218119,1.1924566782\H,-2.6531672333,0.651005711
 1,1.9223055675\H,-2.2698951551,0.7426190173,0.211766424\C,-2.301932733
 2,2.6516733757,1.2031323985\H,-1.686118437,3.1437553057,0.4423965616\H
 ,-3.3443658555,2.8095482747,0.9111777527\C,-2.056485516,3.3092413532,2
 .5618068887\H,-2.3687137012,4.3555508104,2.5535647952\H,-2.6202632406,
 2.7964164689,3.3464639327\H,-1.0002705284,3.2822207468,2.8363851905\\V
 ersion=ES64L-G16RevB.01\State=1-A\HF=-158.4177635\RMSD=3.767e-09\RMSF=
 4.061e-07\ZeroPoint=0.1347535\Thermal=0.1404487\Dipole=-0.0267102,-0.0
 050822,-0.0260143\DipoleDeriv=-0.0059427,0.0336186,-0.0335983,0.050248
 3,0.0488655,0.0001288,-0.0397016,-0.0003335,0.0992027,0.0284718,0.0461
 199,-0.0058413,0.0839065,-0.1753258,-0.0194605,0.0049456,-0.0284351,0.
 0757624,0.0187423,-0.0095933,-0.0294875,-0.0327436,0.0675352,-0.066619
 4,-0.068094,-0.0474385,-0.1287561,-0.0457167,-0.0412513,0.0541362,-0.0
 959207,0.0100455,0.0878563,0.0959673,0.0733516,-0.0297872,0.136449,-0.
 0012068,-0.0190381,0.0123797,0.0875611,-0.0048941,-0.0084218,-0.020700
 5,0.1259389,-0.0806126,-0.050577,0.0841838,-0.0358421,-0.0219151,0.057
 4213,0.1050197,0.1008655,-0.0474273,0.0067433,0.0036808,-0.0544139,-0.
 0046832,-0.0268367,-0.088043,-0.0783861,-0.1046356,-0.1429975,0.119522
 3,0.0253568,-0.0108247,0.0072617,0.0922544,-0.0051792,-0.0205603,0.005
 9981,0.1381723,-0.0154094,-0.0791474,0.1129704,-0.041052,-0.0307032,0.
 0457413,0.0818134,0.0565407,-0.1038424,-0.175976,0.0595263,-0.0895022,
 0.0480878,0.0004453,-0.0094624,-0.0616614,-0.013202,0.0124397,0.096879
 1,0.0035445,-0.031381,0.0034962,0.0305249,-0.0640378,-0.0285172,-0.046
 5505,0.0147214,0.0577012,0.0761738,0.0062279,0.0636832,-0.1745135,-0.0
 422771,-0.0095009,-0.0073297,0.0457206,0.0029389,-0.0586843,0.0883124,
 -0.0783172,0.0083165,0.1024874,0.0609972,0.0407022,-0.0767137,-0.14379
 06,-0.0075605,-0.0717435,0.0194953,0.083746,0.0063383,-0.0339001,-0.00
 88326,0.017566\Polar=46.3689713,-2.2691919,49.2217778,0.0237677,1.6927
 312,45.6052523\PG=C02 [X(C4H10)]\NImag=0\\0.49935876,0.01916091,0.5921
 7444,-0.01428406,0.00481602,0.58855219,-0.05591899,0.04310324,0.005341
 12,0.06065971,0.04407412,-0.31500361,-0.02825204,-0.04889789,0.3408220
 1,0.00546979,-0.02866987,-0.05294755,-0.00392056,0.03120855,0.05244648
 ,-0.06473336,-0.01744045,-0.06038607,0.00056305,0.00056109,0.00567271,
 0.07020269,-0.01748688,-0.06844361,-0.06668447,-0.00806037,-0.00764943
 ,-0.03233686,0.01803917,0.07099769,-0.06119316,-0.06599519,-0.29131654
 ,0.00027677,-0.00110840,-0.00220966,0.06781250,0.07466095,0.31492621,-
 0.14570674,-0.07977089,0.10221084,0.00358179,0.00215553,-0.00469951,0.
 00529307,0.00532791,-0.00471820,0.16104513,-0.07999306,-0.11525090,0.0
 8295622,-0.02027957,-0.01527994,0.02190703,0.00704949,0.00463143,-0.00
 594725,0.08703546,0.12071299,0.10237334,0.08297559,-0.15851886,-0.0038
 8833,-0.00201694,0.00262966,0.01920383,0.01680236,-0.01927480,-0.11227
 392,-0.09283893,0.16826725,-0.19796505,0.02181879,-0.02411327,-0.00428
 809,-0.00053630,-0.00106802,-0.00738339,0.00075081,-0.00119848,-0.0211
 6988,0.00487569,-0.00446086,0.52159739,0.02277111,-0.08600095,0.002906
 34,0.03423303,-0.00482955,0.00804083,-0.00991545,0.00188764,-0.0008683
 2,-0.01602314,0.00323919,-0.00393586,0.03915772,0.50914870,-0.02537631
 ,0.00514318,-0.08833348,0.00359899,-0.00057173,-0.00048216,-0.03260090
 ,0.00747927,-0.00465891,0.02227014,-0.00531760,0.00506480,-0.01703701,
 0.00436787,0.61381893,-0.02108933,-0.01477974,0.02245248,0.00088381,0.
 00048619,0.00023133,0.00137171,-0.00057981,-0.00039073,-0.00622885,0.0
 0210327,-0.00191481,-0.13978206,-0.07034960,0.10339632,0.15455575,0.00
 491862,0.00374264,-0.00566867,-0.00045327,0.00022675,-0.00045206,-0.00
 066301,0.00009271,0.00014352,0.00183903,0.00035758,0.00043898,-0.07034
 833,-0.10251425,0.07823269,0.07446123,0.11334775,-0.00554080,-0.004060
 60,0.00556025,0.00075466,-0.00023629,-0.00002860,0.00050172,-0.0003744
 9,0.00086325,-0.00228124,-0.00007655,0.00103680,0.10427582,0.07887274,
 -0.17066449,-0.11346357,-0.08810594,0.18220870,-0.00952588,-0.01116665
 ,-0.03181434,0.00153874,0.00016863,0.00027479,-0.00670598,0.00154882,-
 0.00103801,0.00101251,-0.00068789,0.00049918,-0.06447318,-0.02446901,-
 0.05472217,0.00497827,0.00830497,0.01789942,0.07143123,0.00267203,0.00
 258816,0.00805758,-0.00038012,0.00043553,0.00041838,0.00208860,0.00037
 150,0.00030528,-0.00039621,-0.00013629,-0.00048057,-0.02485343,-0.0851
 2420,-0.08708850,0.00456838,0.00602162,0.01392807,0.02242641,0.0941660
 5,-0.00149000,-0.00147115,-0.00515313,-0.00023014,0.00060301,0.0001400
 3,-0.00123985,0.00051481,0.00153716,-0.00042165,-0.00007127,0.00054299
 ,-0.05524460,-0.08793387,-0.26769355,-0.00482442,-0.00801081,-0.020953
 67,0.06232147,0.09616358,0.28838125,-0.00759223,0.03545989,0.00071702,
 -0.00691386,0.00190413,-0.00200258,0.00090178,-0.00035486,-0.00031711,
 0.00148172,0.00079017,0.00006517,-0.08591508,0.02027882,0.00060164,0.0
 0404769,-0.02025325,-0.00023439,0.00084903,-0.00749639,0.00057275,0.61
 146814,0.00671758,-0.00804517,0.00176140,-0.00090885,0.00120143,-0.000
 03172,-0.00077710,0.00030739,-0.00054860,-0.00166566,0.00123638,-0.000
 20224,0.02039274,-0.19796222,0.00193600,0.00354184,-0.01777867,0.00006
 038,0.00214438,-0.01337675,0.00162816,0.01314686,0.49599668,-0.0004688
 4,0.00726444,0.00057771,-0.00143930,0.00039638,-0.00021793,-0.00002936
 ,0.00077802,-0.00047336,0.00088420,-0.00117550,0.00050366,-0.00212223,
 0.00130676,-0.08232234,-0.00445478,0.02370921,-0.00075418,0.00646781,-
 0.03244889,0.00085157,-0.01265784,-0.03678658,0.53710019,0.00142351,0.
 00036717,-0.00115817,0.00010347,-0.00014810,0.00004159,-0.00004288,0.0
 0004574,-0.00002077,0.00017182,-0.00030306,0.00043168,0.00303310,0.003
 12271,-0.00479326,0.00078769,0.00165875,-0.00083360,-0.00001418,-0.000
 76004,-0.00012093,-0.13723847,-0.06662315,0.10352818,0.14502863,-0.001
 63218,0.00153714,0.00014170,-0.00003195,0.00034485,-0.00045466,0.00012
 148,-0.00003382,-0.00003878,0.00127426,0.00018756,-0.00030723,-0.01982
 416,-0.01774005,0.02425074,0.00179569,-0.00671213,-0.00033596,-0.00030
 081,0.00101337,-0.00057002,-0.06615929,-0.10110023,0.08186632,0.073514
 27,0.11333231,-0.00003162,-0.00014015,-0.00011889,-0.00024794,-0.00015
 519,0.00016118,0.00003862,0.00001501,0.00001379,-0.00058247,0.00042378
 ,-0.00004003,0.00011800,-0.00009276,0.00022178,0.00002292,-0.00030636,
 0.00120048,-0.00037296,0.00038400,0.00051592,0.10255781,0.08170384,-0.
 17462210,-0.11320411,-0.08721333,0.19175127,0.00120323,0.00222100,0.00
 047018,-0.00050821,0.00015866,-0.00036267,0.00013712,-0.00013302,-0.00
 004557,0.00052512,-0.00016184,-0.00004827,-0.00542589,-0.00024728,-0.0
 0079441,0.00049389,0.00041108,-0.00035369,0.00018542,0.00037784,0.0005
 9392,-0.29480435,0.03539818,-0.06521536,-0.01872969,0.00235297,-0.0042
 0632,0.31842328,-0.00083324,-0.00713663,-0.00057296,0.00208397,-0.0005
 7551,0.00050175,-0.00010771,0.00007498,0.00023844,-0.00013696,0.000128
 36,-0.00027178,0.03472301,-0.00557142,0.00845159,-0.00055200,0.0011700
 2,0.00049613,-0.00016730,0.00136316,-0.00048672,0.03468305,-0.05406598
 ,0.01158434,-0.01476986,0.00206788,-0.00471901,-0.03945573,0.06167494,
 0.00047215,-0.00014811,0.00070234,-0.00008452,-0.00019525,0.00029268,0
 .00023265,-0.00025188,0.00014708,-0.00044740,0.00001849,0.00002302,0.0
 0015218,0.00038163,-0.00067885,-0.00032786,-0.00001020,-0.00014880,0.0
 0053995,0.00003395,0.00021974,-0.06447811,0.01130074,-0.06842059,0.022
 59268,-0.00419753,0.00670802,0.07248055,-0.00794490,0.07388032,0.00097
 358,-0.00011912,0.00164724,-0.00019204,-0.00018101,-0.00036206,0.00030
 246,0.00021972,-0.00076489,0.00003030,-0.00005901,0.00026735,0.0020225
 3,0.00156360,0.00726396,-0.00006844,-0.00063509,-0.00095070,0.00028765
 ,0.00216234,0.00048880,-0.08704648,-0.00709621,-0.01933125,0.00377391,
 0.00914884,0.01758340,-0.00389264,-0.01552745,-0.03100642,0.59033387,-
 0.00028559,-0.00002072,0.00062685,-0.00045419,0.00018842,-0.00041065,0
 .00032809,-0.00059909,-0.00078848,0.00036660,0.00008906,-0.00015444,-0
 .00532765,-0.01713470,-0.03277087,-0.00023639,0.00166604,-0.00062638,0
 .00161090,-0.00664959,-0.00056947,-0.00948529,-0.10165591,-0.04475010,
 0.00321298,0.00707092,0.01325571,0.00009791,0.00106468,0.00283980,-0.0
 0732752,0.57880070,0.00044671,0.00056055,0.00076381,-0.00053944,0.0001
 9275,-0.00004019,0.00006510,-0.00025407,-0.00012640,0.00002944,0.00005
 094,0.00001133,0.00180921,-0.00483224,0.00005249,-0.00029265,0.0015539
 7,0.00124418,0.00000181,0.00242513,0.00113088,-0.01994150,-0.04594404,
 -0.18359708,-0.00540191,-0.01145616,-0.02263128,-0.00103114,-0.0048544
 6,-0.00926289,-0.00982023,-0.03699209,0.51095083,-0.00008051,0.0002805
 6,-0.00045310,0.00015219,0.00010842,0.00028111,0.00016014,-0.00011943,
 0.00052804,0.00002545,-0.00007656,-0.00001585,-0.00012198,-0.00053004,
 -0.00158012,0.00005135,0.00039262,-0.00006364,0.00031832,-0.00040017,-
 0.00025996,0.00083187,-0.00729499,0.00021236,-0.00014122,0.00043902,0.
 00024856,0.00034319,-0.00036618,0.00038861,-0.07308267,0.07684500,-0.0
 0079829,0.07459022,-0.00035681,0.00029074,0.00001729,0.00003608,-0.000
 05747,-0.00001228,-0.00012274,0.00010712,0.00005522,0.00006661,-0.0000
 0280,-0.00006841,-0.00096920,0.00048090,-0.00368752,0.00004978,0.00046
 517,0.00008227,0.00042082,-0.00102822,-0.00012647,0.00356417,-0.012136
 37,0.00182872,0.00028351,0.00039508,-0.00034004,-0.00066590,0.00032268
 ,0.00012951,0.07636805,-0.30181739,0.00521306,-0.08383521,0.32702240,-
 0.00055934,0.00024676,-0.00025403,0.00010880,0.00002539,0.00015436,0.0
 0023716,0.00005349,0.00028418,0.00004685,0.00003542,0.00004256,-0.0014
 8059,-0.00082210,-0.00628929,-0.00026350,-0.00008954,0.00009298,0.0002
 3394,-0.00195732,-0.00008115,0.00955054,-0.03133363,0.00170471,0.00061
 873,0.00068064,0.00082810,-0.00016497,0.00056984,0.00144843,-0.0010234
 6,0.00613803,-0.04897008,0.00279603,-0.00412210,0.05231558,-0.00000260
 ,0.00017901,0.00022111,0.00003490,0.00006809,-0.00004419,-0.00032126,-
 0.00010184,0.00001070,0.00006207,-0.00007737,-0.00026991,0.00027727,0.
 00007012,0.00021525,-0.00000942,0.00032379,0.00031063,-0.00002491,0.00
 022428,-0.00011941,0.00337260,0.00332025,-0.00434880,0.00105381,-0.000
 60290,-0.00144304,0.00041319,0.00064903,0.00024268,-0.12439904,-0.0664
 0823,0.09955283,0.00562275,0.00450175,-0.00874564,0.13014533,-0.000048
 19,0.00005661,0.00010404,-0.00001578,0.00000871,0.00007554,0.00003722,
 0.00005662,0.00018230,-0.00014155,0.00005356,0.00002737,0.00106981,0.0
 0166346,-0.00080723,-0.00051336,-0.00002674,0.00042247,-0.00013403,0.0
 0022229,0.00020991,0.00874526,0.00676746,-0.01116183,-0.00017705,-0.00
 080460,-0.00348757,0.00008826,0.00023196,0.00092212,-0.06640976,-0.110
 89523,0.09173122,-0.01813856,-0.01450004,0.02284416,0.07450916,0.11706
 485,0.00011073,-0.00036085,0.00007668,0.00006287,-0.00005374,0.0000216
 0,0.00022435,-0.00006093,-0.00015579,-0.00023367,0.00009677,0.00004241
 ,0.00035921,0.00176747,0.00128103,-0.00023182,-0.00132559,0.00035551,-
 0.00044367,0.00010674,0.00047911,0.01723949,0.01448445,-0.02300595,-0.
 00194429,-0.00329453,-0.00508368,-0.00051161,0.00045617,0.00077405,0.0
 9943403,0.09148218,-0.18418224,-0.00075074,0.00048693,-0.00019120,-0.1
 0958524,-0.09880106,0.20281519,-0.00034439,0.00068627,-0.00085098,0.00
 030352,0.00007844,0.00048827,0.00025485,0.00090405,0.00105893,-0.00012
 348,-0.00021574,0.00003140,-0.00040568,0.00033740,-0.00044214,0.000007
 95,0.00004285,-0.00002061,0.00014296,-0.00023352,-0.00002598,-0.003442
 34,-0.00029586,-0.00102480,0.00079050,-0.00009525,-0.00048085,0.001636
 34,-0.00022262,-0.00075714,-0.30904298,0.00706337,-0.06407994,-0.00866
 910,0.00065910,-0.00135454,-0.01622468,0.00112858,-0.00372963,0.335116
 54,0.00032157,-0.00048814,-0.00020931,0.00002568,0.00016782,0.00021602
 ,0.00080132,-0.00180112,-0.00029068,0.00006902,0.00003383,0.00003211,-
 0.00092948,0.00045745,0.00038212,0.00000450,-0.00005847,-0.00004584,0.
 00030076,0.00013337,0.00012031,-0.01482327,0.00061198,-0.00241130,0.00
 057612,0.00044172,0.00067207,-0.00044212,-0.00074911,-0.00287837,0.007
 89261,-0.05010719,0.00260544,0.03269552,0.00045822,0.00773097,-0.01665
 514,0.00010108,-0.00498399,-0.00983708,0.05079856,0.00007143,-0.000160
 63,0.00040950,0.00020705,0.00016352,0.00008010,0.00026753,-0.00034120,
 0.00044379,0.00021660,-0.00006154,-0.00033079,0.00001063,0.00084151,0.
 00068404,0.00006108,-0.00010920,-0.00001239,0.00015281,0.00015257,0.00
 008286,-0.03167289,0.00197184,-0.00732430,0.00026419,0.00092881,0.0010
 9544,-0.00081065,-0.00344843,-0.00568455,-0.06342578,0.00271991,-0.065
 34334,-0.00053302,0.00054384,-0.00108515,0.02400302,-0.00226145,0.0067
 7329,0.07118802,-0.00093954,0.07021149\\-0.00000041,-0.00000080,0.0000
 0012,-0.00000041,-0.00000033,0.00000072,-0.00000040,0.00000015,0.00000
 037,0.00000003,-0.00000051,0.00000024,-0.00000036,0.00000036,0.0000006
 3,-0.00000042,0.00000042,0.00000023,-0.00000028,-0.00000022,0.00000017
 ,0.00000068,-0.00000030,-0.00000031,0.00000030,-0.00000044,-0.00000034
 ,0.00000012,0.00000019,-0.00000032,-0.00000004,0.00000072,-0.00000055,
 0.00000064,0.00000038,-0.00000049,0.00000014,0.00000054,-0.00000007,0.
 00000039,-0.00000015,-0.00000038\\\@


 THAT'S WHAT MAKES US A GREAT COUNTRY.
 THE LITTLE THINGS ARE SERIOUS AND THE BIG ONES ARE NOT.
           WILL ROGERS
 Leave Link 9999 at Wed Aug 12 19:12:45 2026, MaxMem= 12884901888 cpu:               2.1 elap:               0.1
 Job cpu time:       0 days  1 hours 17 minutes 43.0 seconds.
 Elapsed time:       0 days  0 hours  1 minutes 40.5 seconds.
 File lengths (MBytes):  RWF=     88 Int=      0 D2E=      0 Chk=      3 Scr=      2
 Normal termination of Gaussian 16 at Wed Aug 12 19:12:45 2026.
 (Enter /home/falbo/g16/l1.exe)
 Link1:  Proceeding to internal job step number  2.
 ---------------------------------------------------------------------
 #P Geom=AllCheck Guess=TCheck SCRF=Check GenChk RM052X/6-31+G(d) Freq
 ---------------------------------------------------------------------
 1/7=10,8=7,10=4,18=20,29=7,30=1,38=1,40=1/1,3;
 2/9=110,12=2,40=1/2;
 3/5=1,6=6,7=11,11=2,14=-4,25=1,30=1,70=2,71=2,74=-38,116=1,140=1/1,2,3;
 4/5=101/1;
 5/5=2,38=6,98=1/2;
 8/6=4,10=90,11=11/1;
 11/6=1,8=1,9=11,15=111,16=1/1,2,10;
 10/6=1/2;
 6/7=2,8=2,9=2,10=2,28=1/1;
 7/8=21,10=1,25=1/1,2,3,16;
 1/7=10,8=7,10=4,18=20,30=1/3;
 99//99;
 Leave Link    1 at Wed Aug 12 19:12:46 2026, MaxMem= 12884901888 cpu:               1.2 elap:               0.0
 (Enter /home/falbo/g16/l101.exe)
 Structure from the checkpoint file:  "02_conf_010.chk"
 -----------------------------------------------------
 HessFit high-level Opt+Freq starting from 02_conf_010
 -----------------------------------------------------
 Charge =  0 Multiplicity = 1
 Redundant internal coordinates found in file.  (old form).
 C,0,-0.5442532526,0.8163186643,1.4961471591
 H,0,-0.3541253204,-0.253223207,1.385470121
 H,0,-0.2718565308,1.0961385627,2.5155657715
 H,0,0.1231729478,1.3488650828,0.8124382001
 C,0,-2.0056397547,1.1491218119,1.1924566782
 H,0,-2.6531672333,0.6510057111,1.9223055675
 H,0,-2.2698951551,0.7426190173,0.211766424
 C,0,-2.3019327332,2.6516733757,1.2031323985
 H,0,-1.686118437,3.1437553057,0.4423965616
 H,0,-3.3443658555,2.8095482747,0.9111777527
 C,0,-2.056485516,3.3092413532,2.5618068887
 H,0,-2.3687137012,4.3555508104,2.5535647952
 H,0,-2.6202632406,2.7964164689,3.3464639327
 H,0,-1.0002705284,3.2822207468,2.8363851905
 Recover connectivity data from disk.
 ITRead=  0  0  0  0  0  0  0  0  0  0  0  0  0  0
 MicOpt= -1 -1 -1 -1 -1 -1 -1 -1 -1 -1 -1 -1 -1 -1
 NAtoms=     14 NQM=       14 NQMF=       0 NMMI=      0 NMMIF=      0
                NMic=       0 NMicF=      0.
                    Isotopes and Nuclear Properties:
 (Nuclear quadrupole moments (NQMom) in fm**2, nuclear magnetic moments (NMagM)
  in nuclear magnetons)

  Atom         1           2           3           4           5           6           7           8           9          10
 IAtWgt=          12           1           1           1          12           1           1          12           1           1
 AtmWgt=  12.0000000   1.0078250   1.0078250   1.0078250  12.0000000   1.0078250   1.0078250  12.0000000   1.0078250   1.0078250
 NucSpn=           0           1           1           1           0           1           1           0           1           1
 AtZEff=   3.6000000   1.0000000   1.0000000   1.0000000   3.6000000   1.0000000   1.0000000   3.6000000   1.0000000   1.0000000
 NQMom=    0.0000000   0.0000000   0.0000000   0.0000000   0.0000000   0.0000000   0.0000000   0.0000000   0.0000000   0.0000000
 NMagM=    0.0000000   2.7928460   2.7928460   2.7928460   0.0000000   2.7928460   2.7928460   0.0000000   2.7928460   2.7928460
 AtZNuc=   6.0000000   1.0000000   1.0000000   1.0000000   6.0000000   1.0000000   1.0000000   6.0000000   1.0000000   1.0000000

  Atom        11          12          13          14
 IAtWgt=          12           1           1           1
 AtmWgt=  12.0000000   1.0078250   1.0078250   1.0078250
 NucSpn=           0           1           1           1
 AtZEff=   3.6000000   1.0000000   1.0000000   1.0000000
 NQMom=    0.0000000   0.0000000   0.0000000   0.0000000
 NMagM=    0.0000000   2.7928460   2.7928460   2.7928460
 AtZNuc=   6.0000000   1.0000000   1.0000000   1.0000000
 Leave Link  101 at Wed Aug 12 19:12:46 2026, MaxMem= 12884901888 cpu:              16.0 elap:               0.4
 (Enter /home/falbo/g16/l103.exe)

 GradGradGradGradGradGradGradGradGradGradGradGradGradGradGradGradGradGrad
 Berny optimization.
 Initialization pass.
                           ----------------------------
                           !    Initial Parameters    !
                           ! (Angstroms and Degrees)  !
 --------------------------                            --------------------------
 ! Name  Definition              Value          Derivative Info.                !
 --------------------------------------------------------------------------------
 ! R1    R(1,2)                  1.0919         calculate D2E/DX2 analytically  !
 ! R2    R(1,3)                  1.0917         calculate D2E/DX2 analytically  !
 ! R3    R(1,4)                  1.0939         calculate D2E/DX2 analytically  !
 ! R4    R(1,5)                  1.5293         calculate D2E/DX2 analytically  !
 ! R5    R(5,6)                  1.0955         calculate D2E/DX2 analytically  !
 ! R6    R(5,7)                  1.094          calculate D2E/DX2 analytically  !
 ! R7    R(5,8)                  1.5315         calculate D2E/DX2 analytically  !
 ! R8    R(8,9)                  1.0955         calculate D2E/DX2 analytically  !
 ! R9    R(8,10)                 1.094          calculate D2E/DX2 analytically  !
 ! R10   R(8,11)                 1.5293         calculate D2E/DX2 analytically  !
 ! R11   R(11,12)                1.0919         calculate D2E/DX2 analytically  !
 ! R12   R(11,13)                1.0939         calculate D2E/DX2 analytically  !
 ! R13   R(11,14)                1.0917         calculate D2E/DX2 analytically  !
 ! A1    A(2,1,3)              107.5942         calculate D2E/DX2 analytically  !
 ! A2    A(2,1,4)              107.895          calculate D2E/DX2 analytically  !
 ! A3    A(2,1,5)              111.0649         calculate D2E/DX2 analytically  !
 ! A4    A(3,1,4)              107.8569         calculate D2E/DX2 analytically  !
 ! A5    A(3,1,5)              111.5994         calculate D2E/DX2 analytically  !
 ! A6    A(4,1,5)              110.671          calculate D2E/DX2 analytically  !
 ! A7    A(1,5,6)              109.4871         calculate D2E/DX2 analytically  !
 ! A8    A(1,5,7)              109.1465         calculate D2E/DX2 analytically  !
 ! A9    A(1,5,8)              113.3907         calculate D2E/DX2 analytically  !
 ! A10   A(6,5,7)              106.5886         calculate D2E/DX2 analytically  !
 ! A11   A(6,5,8)              109.0928         calculate D2E/DX2 analytically  !
 ! A12   A(7,5,8)              108.9089         calculate D2E/DX2 analytically  !
 ! A13   A(5,8,9)              109.0928         calculate D2E/DX2 analytically  !
 ! A14   A(5,8,10)             108.9089         calculate D2E/DX2 analytically  !
 ! A15   A(5,8,11)             113.3907         calculate D2E/DX2 analytically  !
 ! A16   A(9,8,10)             106.5886         calculate D2E/DX2 analytically  !
 ! A17   A(9,8,11)             109.4871         calculate D2E/DX2 analytically  !
 ! A18   A(10,8,11)            109.1465         calculate D2E/DX2 analytically  !
 ! A19   A(8,11,12)            111.0649         calculate D2E/DX2 analytically  !
 ! A20   A(8,11,13)            110.671          calculate D2E/DX2 analytically  !
 ! A21   A(8,11,14)            111.5994         calculate D2E/DX2 analytically  !
 ! A22   A(12,11,13)           107.895          calculate D2E/DX2 analytically  !
 ! A23   A(12,11,14)           107.5942         calculate D2E/DX2 analytically  !
 ! A24   A(13,11,14)           107.8569         calculate D2E/DX2 analytically  !
 ! D1    D(2,1,5,6)             63.3326         calculate D2E/DX2 analytically  !
 ! D2    D(2,1,5,7)            -52.9909         calculate D2E/DX2 analytically  !
 ! D3    D(2,1,5,8)           -174.5872         calculate D2E/DX2 analytically  !
 ! D4    D(3,1,5,6)            -56.7254         calculate D2E/DX2 analytically  !
 ! D5    D(3,1,5,7)           -173.0488         calculate D2E/DX2 analytically  !
 ! D6    D(3,1,5,8)             65.3548         calculate D2E/DX2 analytically  !
 ! D7    D(4,1,5,6)           -176.849          calculate D2E/DX2 analytically  !
 ! D8    D(4,1,5,7)             66.8276         calculate D2E/DX2 analytically  !
 ! D9    D(4,1,5,8)            -54.7687         calculate D2E/DX2 analytically  !
 ! D10   D(1,5,8,9)             60.1735         calculate D2E/DX2 analytically  !
 ! D11   D(1,5,8,10)           176.1449         calculate D2E/DX2 analytically  !
 ! D12   D(1,5,8,11)           -62.1259         calculate D2E/DX2 analytically  !
 ! D13   D(6,5,8,9)           -177.527          calculate D2E/DX2 analytically  !
 ! D14   D(6,5,8,10)           -61.5557         calculate D2E/DX2 analytically  !
 ! D15   D(6,5,8,11)            60.1735         calculate D2E/DX2 analytically  !
 ! D16   D(7,5,8,9)            -61.5557         calculate D2E/DX2 analytically  !
 ! D17   D(7,5,8,10)            54.4157         calculate D2E/DX2 analytically  !
 ! D18   D(7,5,8,11)           176.1449         calculate D2E/DX2 analytically  !
 ! D19   D(5,8,11,12)         -174.5872         calculate D2E/DX2 analytically  !
 ! D20   D(5,8,11,13)          -54.7687         calculate D2E/DX2 analytically  !
 ! D21   D(5,8,11,14)           65.3548         calculate D2E/DX2 analytically  !
 ! D22   D(9,8,11,12)           63.3326         calculate D2E/DX2 analytically  !
 ! D23   D(9,8,11,13)         -176.849          calculate D2E/DX2 analytically  !
 ! D24   D(9,8,11,14)          -56.7254         calculate D2E/DX2 analytically  !
 ! D25   D(10,8,11,12)         -52.9909         calculate D2E/DX2 analytically  !
 ! D26   D(10,8,11,13)          66.8276         calculate D2E/DX2 analytically  !
 ! D27   D(10,8,11,14)        -173.0488         calculate D2E/DX2 analytically  !
 --------------------------------------------------------------------------------
 Trust Radius=7.00D-02 FncErr=1.00D-07 GrdErr=1.00D-07 EigMax=2.50D+02 EigMin=1.00D-04
 Number of steps in this run=      2 maximum allowed number of steps=      2.
 GradGradGradGradGradGradGradGradGradGradGradGradGradGradGradGradGradGrad

 Leave Link  103 at Wed Aug 12 19:12:46 2026, MaxMem= 12884901888 cpu:               0.4 elap:               0.0
 (Enter /home/falbo/g16/l202.exe)
                          Input orientation:                          
 ---------------------------------------------------------------------
 Center     Atomic      Atomic             Coordinates (Angstroms)
 Number     Number       Type             X           Y           Z
 ---------------------------------------------------------------------
      1          6           0       -0.544253    0.816319    1.496147
      2          1           0       -0.354125   -0.253223    1.385470
      3          1           0       -0.271857    1.096139    2.515566
      4          1           0        0.123173    1.348865    0.812438
      5          6           0       -2.005640    1.149122    1.192457
      6          1           0       -2.653167    0.651006    1.922306
      7          1           0       -2.269895    0.742619    0.211766
      8          6           0       -2.301933    2.651673    1.203132
      9          1           0       -1.686118    3.143755    0.442397
     10          1           0       -3.344366    2.809548    0.911178
     11          6           0       -2.056486    3.309241    2.561807
     12          1           0       -2.368714    4.355551    2.553565
     13          1           0       -2.620263    2.796416    3.346464
     14          1           0       -1.000271    3.282221    2.836385
 ---------------------------------------------------------------------
                    Distance matrix (angstroms):
                    1          2          3          4          5
     1  C    0.000000
     2  H    1.091933   0.000000
     3  H    1.091656   1.762005   0.000000
     4  H    1.093856   1.767163   1.766511   0.000000
     5  C    1.529260   2.175161   2.181612   2.171671   0.000000
     6  H    2.157883   2.528125   2.494141   3.070322   1.095487
     7  H    2.152419   2.457531   3.069955   2.540692   1.093997
     8  C    2.558089   3.502231   2.874609   2.780484   1.531524
     9  H    2.798430   3.768694   3.238966   2.575286   2.154819
    10  H    3.486515   4.306630   3.866542   3.763930   2.151353
    11  C    3.104374   4.119824   2.843389   3.413836   2.558089
    12  H    4.119824   5.163701   3.875825   4.275650   3.502231
    13  H    3.413836   4.275650   3.016016   4.005388   2.780484
    14  H    2.843389   3.875825   2.326471   3.016016   2.874609
                    6          7          8          9         10
     6  H    0.000000
     7  H    1.755345   0.000000
     8  C    2.154819   2.151353   0.000000
     9  H    3.055996   2.481822   1.095487   0.000000
    10  H    2.481822   2.432254   1.093997   1.755345   0.000000
    11  C    2.798430   3.486515   1.529260   2.157883   2.152419
    12  H    3.768694   4.306630   2.175161   2.528125   2.457531
    13  H    2.575286   3.763930   2.171671   3.070322   2.540692
    14  H    3.238966   3.866542   2.181612   2.494141   3.069955
                   11         12         13         14
    11  C    0.000000
    12  H    1.091933   0.000000
    13  H    1.093856   1.767163   0.000000
    14  H    1.091656   1.762005   1.766511   0.000000
 Stoichiometry    C4H10
 Framework group  C2[X(C4H10)]
 Deg. of freedom    19
 Full point group                 C2      NOp   2
 RotChk:  IX=0 Diff= 2.79D-15
 Largest Abelian subgroup         C2      NOp   2
 Largest concise Abelian subgroup C2      NOp   2
                         Standard orientation:                         
 ---------------------------------------------------------------------
 Center     Atomic      Atomic             Coordinates (Angstroms)
 Number     Number       Type             X           Y           Z
 ---------------------------------------------------------------------
      1          6           0       -0.586838    1.436978   -0.566964
      2          1           0       -1.380948    2.181498   -0.480955
      3          1           0       -0.741117    0.896584   -1.502852
      4          1           0        0.366163    1.968936   -0.639975
      5          6           0       -0.586838    0.491947    0.635348
      6          1           0       -1.526348   -0.071004    0.657687
      7          1           0       -0.554528    1.082342    1.555793
      8          6           0        0.586838   -0.491947    0.635348
      9          1           0        1.526348    0.071004    0.657687
     10          1           0        0.554528   -1.082342    1.555793
     11          6           0        0.586838   -1.436978   -0.566964
     12          1           0        1.380948   -2.181498   -0.480955
     13          1           0       -0.366163   -1.968936   -0.639975
     14          1           0        0.741117   -0.896584   -1.502852
 ---------------------------------------------------------------------
 Rotational constants (GHZ):          13.0604887           4.8673052           4.1051410
 Leave Link  202 at Wed Aug 12 19:12:46 2026, MaxMem= 12884901888 cpu:               0.2 elap:               0.0
 (Enter /home/falbo/g16/l301.exe)
 Standard basis: 6-31+G(d) (6D, 7F)
 Ernie: Thresh=  0.10000D-02 Tol=  0.10000D-05 Strict=F.
 There are    48 symmetry adapted cartesian basis functions of A   symmetry.
 There are    48 symmetry adapted cartesian basis functions of B   symmetry.
 There are    48 symmetry adapted basis functions of A   symmetry.
 There are    48 symmetry adapted basis functions of B   symmetry.
    96 basis functions,   168 primitive gaussians,    96 cartesian basis functions
    17 alpha electrons       17 beta electrons
       nuclear repulsion energy       132.7513812511 Hartrees.
 IExCor= 3428 DFT=T Ex+Corr=M052X ExCW=0 ScaHFX=  0.560000
 ScaDFX=  0.440000  0.440000  1.000000  1.000000 ScalE2=  1.000000  1.000000
 IRadAn=      5 IRanWt=     -1 IRanGd=            0 ICorTp=0 IEmpDi=  4
 NAtoms=   14 NActive=   14 NUniq=    7 SFac= 4.00D+00 NAtFMM=   60 NAOKFM=F Big=F
 Integral buffers will be    131072 words long.
 Raffenetti 2 integral format.
 Two-electron integral symmetry is turned on.
 Leave Link  301 at Wed Aug 12 19:12:46 2026, MaxMem= 12884901888 cpu:               2.3 elap:               0.1
 (Enter /home/falbo/g16/l302.exe)
 NPDir=0 NMtPBC=     1 NCelOv=     1 NCel=       1 NClECP=     1 NCelD=      1
         NCelK=      1 NCelE2=     1 NClLst=     1 CellRange=     0.0.
 One-electron integrals computed using PRISM.
 One-electron integral symmetry used in STVInt
 NBasis=    96 RedAO= T EigKep=  1.66D-04  NBF=    48    48
 NBsUse=    96 1.00D-06 EigRej= -1.00D+00 NBFU=    48    48
 Precomputing XC quadrature grid using
 IXCGrd= 4 IRadAn=           5 IRanWt=          -1 IRanGd=           0 AccXCQ= 0.00D+00.
 Generated NRdTot=       0 NPtTot=           0 NUsed=           0 NTot=          32
 NSgBfM=    96    96    96    96    96 MxSgAt=    14 MxSgA2=    14.
 Leave Link  302 at Wed Aug 12 19:12:46 2026, MaxMem= 12884901888 cpu:               6.9 elap:               0.2
 (Enter /home/falbo/g16/l303.exe)
 DipDrv:  MaxL=1.
 Leave Link  303 at Wed Aug 12 19:12:46 2026, MaxMem= 12884901888 cpu:               0.9 elap:               0.0
 (Enter /home/falbo/g16/l401.exe)
 Initial guess from the checkpoint file:  "02_conf_010.chk"
 B after Tr=     0.000000   -0.000000    0.000000
         Rot=    1.000000   -0.000000    0.000000   -0.000000 Ang=   0.00 deg.
 Guess basis will be translated and rotated to current coordinates.
 JPrj=2 DoOrth=T DoCkMO=T.
 Initial guess orbital symmetries:
       Occupied  (A) (B) (B) (A) (A) (B) (A) (B) (B) (A) (A) (A)
                 (B) (B) (A) (B) (A)
       Virtual   (A) (A) (B) (B) (B) (B) (A) (A) (A) (A) (B) (B)
                 (A) (B) (B) (A) (A) (A) (B) (B) (A) (B) (B) (A)
                 (B) (A) (B) (B) (A) (A) (B) (A) (B) (A) (B) (A)
                 (B) (A) (B) (A) (B) (A) (B) (B) (A) (A) (B) (A)
                 (A) (B) (A) (B) (B) (B) (A) (A) (B) (B) (A) (A)
                 (B) (A) (B) (A) (A) (B) (A) (B) (A) (B) (B) (A)
                 (B) (A) (B) (A) (B) (A) (B)
 The electronic state of the initial guess is 1-A.
 Leave Link  401 at Wed Aug 12 19:12:46 2026, MaxMem= 12884901888 cpu:               4.2 elap:               0.1
 (Enter /home/falbo/g16/l502.exe)
 Integral symmetry usage will be decided dynamically.
 Closed shell SCF:
 Using DIIS extrapolation, IDIIS=  1040.
 NGot= 12884901888 LenX= 12884877300 LenY= 12884867643
 Requested convergence on RMS density matrix=1.00D-08 within 128 cycles.
 Requested convergence on MAX density matrix=1.00D-06.
 Requested convergence on             energy=1.00D-06.
 No special actions if energy rises.
 Fock matrices will be formed incrementally for  20 cycles.

 Cycle   1  Pass 1  IDiag  1:
 FoFJK:  IHMeth= 1 ICntrl=       0 DoSepK=F KAlg= 0 I1Cent=           0 FoldK=F
 IRaf= 990000000 NMat=       1 IRICut=       1 DoRegI=T DoRafI=F ISym2E= 1 IDoP0=0 IntGTp=1.
 FoFCou: FMM=F IPFlag=           0 FMFlag=      100000 FMFlg1=           0
         NFxFlg=           0 DoJE=F BraDBF=F KetDBF=F FulRan=T
         wScrn=  0.000000 ICntrl=         0 IOpCl=  0 I1Cent=           0 NGrid=           0
         NMat0=    1 NMatS0=      1 NMatT0=    0 NMatD0=    1 NMtDS0=    0 NMtDT0=    0
 Petite list used in FoFCou.
 E= -158.417763504063    
 DIIS: error= 3.20D-09 at cycle   1 NSaved=   1.
 NSaved= 1 IEnMin= 1 EnMin= -158.417763504063     IErMin= 1 ErrMin= 3.20D-09
 ErrMax= 3.20D-09  0.00D+00 EMaxC= 1.00D-01 BMatC= 1.04D-15 BMatP= 1.04D-15
 IDIUse=1 WtCom= 1.00D+00 WtEn= 0.00D+00
 Coeff-Com:  0.100D+01
 Coeff:      0.100D+01
 Gap=     0.438 Goal=   None    Shift=    0.000
 RMSDP=1.12D-09 MaxDP=1.62D-08              OVMax= 1.16D-08

 SCF Done:  E(RM052X) =  -158.417763504     A.U. after    1 cycles
            NFock=  1  Conv=0.11D-08     -V/T= 2.0100
 KE= 1.568452600877D+02 PE=-6.307189510496D+02 EE= 1.827045462068D+02
 Leave Link  502 at Wed Aug 12 19:12:47 2026, MaxMem= 12884901888 cpu:              10.9 elap:               0.3
 (Enter /home/falbo/g16/l801.exe)
 DoSCS=F DFT=T ScalE2(SS,OS)=  1.000000  1.000000
 Range of M.O.s used for correlation:     1    96
 NBasis=    96 NAE=    17 NBE=    17 NFC=     0 NFV=     0
 NROrb=     96 NOA=    17 NOB=    17 NVA=    79 NVB=    79

 **** Warning!!: The largest alpha MO coefficient is  0.22801395D+02

 Leave Link  801 at Wed Aug 12 19:12:47 2026, MaxMem= 12884901888 cpu:               0.8 elap:               0.0
 (Enter /home/falbo/g16/l1101.exe)
 Using compressed storage, NAtomX=    14.
 Will process     15 centers per pass.
 Leave Link 1101 at Wed Aug 12 19:12:47 2026, MaxMem= 12884901888 cpu:               6.5 elap:               0.2
 (Enter /home/falbo/g16/l1102.exe)
 Symmetrizing basis deriv contribution to polar:
 IMax=3 JMax=2 DiffMx= 0.00D+00
 Leave Link 1102 at Wed Aug 12 19:12:47 2026, MaxMem= 12884901888 cpu:               0.9 elap:               0.0
 (Enter /home/falbo/g16/l1110.exe)
 Forming Gx(P) for the SCF density, NAtomX=    14.
 Integral derivatives from FoFJK, PRISM(SPDF).
 Do as many integral derivatives as possible in FoFJK.
 G2DrvN: MDV=   12884900632.
 G2DrvN: will do    15 centers at a time, making    1 passes.
 Calling FoFCou, ICntrl=  3107 FMM=F I1Cent=   0 AccDes= 0.00D+00.
 FoFJK:  IHMeth= 1 ICntrl=    3107 DoSepK=F KAlg= 0 I1Cent=           0 FoldK=F
 IRaf=         0 NMat=       1 IRICut=       1 DoRegI=T DoRafI=F ISym2E= 1 IDoP0=0 IntGTp=1.
 FoFCou: FMM=F IPFlag=           0 FMFlag=      100000 FMFlg1=           0
         NFxFlg=           0 DoJE=F BraDBF=F KetDBF=F FulRan=T
         wScrn=  0.000000 ICntrl=      3107 IOpCl=  0 I1Cent=           0 NGrid=           0
         NMat0=    1 NMatS0=      1 NMatT0=    0 NMatD0=    1 NMtDS0=    0 NMtDT0=    0
 Petite list used in FoFCou.
 End of G2Drv F.D. properties file   721 does not exist.
 End of G2Drv F.D. properties file   722 does not exist.
 End of G2Drv F.D. properties file   788 does not exist.
 Leave Link 1110 at Wed Aug 12 19:12:50 2026, MaxMem= 12884901888 cpu:             138.3 elap:               2.9
 (Enter /home/falbo/g16/l1002.exe)
 Minotr:  Closed shell wavefunction.
          IDoAtm=11111111111111
          Direct CPHF calculation.
          Differentiating once with respect to electric field.
                with respect to dipole field.
          Differentiating once with respect to nuclear coordinates.
          Using symmetry in CPHF.
          Requested convergence is 1.0D-08 RMS, and 1.0D-07 maximum.
          Secondary convergence is 1.0D-12 RMS, and 1.0D-12 maximum.
          NewPWx=T KeepS1=F KeepF1=F KeepIn=T MapXYZ=F SortEE=F KeepMc=T.
         4271 words used for storage of precomputed grid.
 Keep R1 ints in memory in symmetry-blocked form, NReq=55014061.
 FoFCou: FMM=F IPFlag=           0 FMFlag=           0 FMFlg1=           0
         NFxFlg=           0 DoJE=F BraDBF=F KetDBF=F FulRan=T
         wScrn=  0.000000 ICntrl=       600 IOpCl=  0 I1Cent=           0 NGrid=           0
         NMat0=    1 NMatS0=   4656 NMatT0=    0 NMatD0=    1 NMtDS0=    0 NMtDT0=    0
 Petite list used in FoFCou.
          MDV=   12884901888 using IRadAn=       1.
          Solving linear equations simultaneously, MaxMat=       0.
          There are    24 degrees of freedom in the 1st order CPHF.  IDoFFX=4 NUNeed=    24.
     24 vectors produced by pass  0 Test12= 5.60D-15 4.17D-09 XBig12= 1.83D+01 1.51D+00.
 AX will form    24 AO Fock derivatives at one time.
     24 vectors produced by pass  1 Test12= 5.60D-15 4.17D-09 XBig12= 8.11D-01 2.64D-01.
     24 vectors produced by pass  2 Test12= 5.60D-15 4.17D-09 XBig12= 2.47D-02 2.84D-02.
     24 vectors produced by pass  3 Test12= 5.60D-15 4.17D-09 XBig12= 2.36D-04 2.85D-03.
     24 vectors produced by pass  4 Test12= 5.60D-15 4.17D-09 XBig12= 1.30D-06 1.53D-04.
     24 vectors produced by pass  5 Test12= 5.60D-15 4.17D-09 XBig12= 5.40D-09 1.17D-05.
     10 vectors produced by pass  6 Test12= 5.60D-15 4.17D-09 XBig12= 1.93D-11 6.19D-07.
      3 vectors produced by pass  7 Test12= 5.60D-15 4.17D-09 XBig12= 7.41D-14 3.40D-08.
 InvSVY:  IOpt=1 It=  1 EMax= 5.33D-15
 Solved reduced A of dimension   157 with    24 vectors.
 FullF1:  Do perturbations      1 to      24.
 Isotropic polarizability for W=    0.000000       47.07 Bohr**3.
 End of Minotr F.D. properties file   721 does not exist.
 End of Minotr F.D. properties file   722 does not exist.
 End of Minotr F.D. properties file   788 does not exist.
 Leave Link 1002 at Wed Aug 12 19:12:55 2026, MaxMem= 12884901888 cpu:             217.4 elap:               4.6
 (Enter /home/falbo/g16/l601.exe)
 Copying SCF densities to generalized density rwf, IOpCl= 0 IROHF=0.

 **********************************************************************

            Population analysis using the SCF Density.

 **********************************************************************

 Orbital symmetries:
       Occupied  (A) (B) (B) (A) (A) (B) (A) (B) (B) (A) (A) (A)
                 (B) (B) (A) (B) (A)
       Virtual   (A) (A) (B) (B) (B) (B) (A) (A) (A) (A) (B) (B)
                 (A) (B) (B) (A) (A) (A) (B) (B) (A) (B) (B) (A)
                 (B) (A) (B) (B) (A) (A) (B) (A) (B) (A) (B) (A)
                 (B) (A) (B) (A) (B) (A) (B) (B) (A) (A) (B) (A)
                 (A) (B) (A) (B) (B) (B) (A) (A) (B) (B) (A) (A)
                 (B) (A) (B) (A) (A) (B) (A) (B) (A) (B) (B) (A)
                 (B) (A) (B) (A) (B) (A) (B)
 The electronic state is 1-A.
 Alpha  occ. eigenvalues --  -10.56484 -10.56447 -10.55680 -10.55680  -0.90367
 Alpha  occ. eigenvalues --   -0.82132  -0.73633  -0.65471  -0.53539  -0.53158
 Alpha  occ. eigenvalues --   -0.48834  -0.45200  -0.45069  -0.42569  -0.38793
 Alpha  occ. eigenvalues --   -0.38498  -0.38365
 Alpha virt. eigenvalues --    0.05443   0.06844   0.07307   0.07789   0.10405
 Alpha virt. eigenvalues --    0.11325   0.11459   0.11842   0.12062   0.14638
 Alpha virt. eigenvalues --    0.15051   0.15992   0.16176   0.16627   0.20089
 Alpha virt. eigenvalues --    0.21590   0.24244   0.26499   0.27403   0.28729
 Alpha virt. eigenvalues --    0.30132   0.31442   0.32661   0.35476   0.35669
 Alpha virt. eigenvalues --    0.37333   0.39848   0.40490   0.46245   0.65087
 Alpha virt. eigenvalues --    0.67847   0.68866   0.70888   0.72139   0.75284
 Alpha virt. eigenvalues --    0.78091   0.79577   0.79701   0.83032   0.94636
 Alpha virt. eigenvalues --    0.98213   1.00994   1.04048   1.07208   1.07430
 Alpha virt. eigenvalues --    1.10704   1.11128   1.14441   1.20261   1.21832
 Alpha virt. eigenvalues --    1.24132   1.24207   1.36271   1.52971   1.53984
 Alpha virt. eigenvalues --    1.63319   1.66278   1.76749   1.81185   1.95296
 Alpha virt. eigenvalues --    2.03714   2.06136   2.08006   2.11184   2.21497
 Alpha virt. eigenvalues --    2.23443   2.39437   2.40833   2.42516   2.45052
 Alpha virt. eigenvalues --    2.51789   2.53083   2.70226   2.71428   2.79211
 Alpha virt. eigenvalues --    4.22437   4.32804   4.47730   4.57872
          Condensed to atoms (all electrons):
               1          2          3          4          5          6
     1  C    5.552260   0.396631   0.413650   0.411032   0.093841  -0.060601
     2  H    0.396631   0.493607  -0.026097  -0.026075  -0.060504  -0.002281
     3  H    0.413650  -0.026097   0.499029  -0.030989  -0.051581  -0.004720
     4  H    0.411032  -0.026075  -0.030989   0.496142  -0.059433   0.004188
     5  C    0.093841  -0.060504  -0.051581  -0.059433   5.660496   0.424514
     6  H   -0.060601  -0.002281  -0.004720   0.004188   0.424514   0.512351
     7  H   -0.042906  -0.003632   0.004152  -0.003658   0.414618  -0.031340
     8  C   -0.091925   0.018881  -0.023813   0.000071   0.192562  -0.046774
     9  H   -0.011562  -0.000032  -0.000081   0.003125  -0.046774   0.004464
    10  H    0.014901  -0.000105  -0.000056   0.000016  -0.069574  -0.003565
    11  C   -0.021448  -0.000843   0.010109  -0.007568  -0.091925  -0.011562
    12  H   -0.000843   0.000000   0.000028  -0.000022   0.018881  -0.000032
    13  H   -0.007568  -0.000022   0.000050   0.000098   0.000071   0.003125
    14  H    0.010109   0.000028  -0.001413   0.000050  -0.023813  -0.000081
               7          8          9         10         11         12
     1  C   -0.042906  -0.091925  -0.011562   0.014901  -0.021448  -0.000843
     2  H   -0.003632   0.018881  -0.000032  -0.000105  -0.000843   0.000000
     3  H    0.004152  -0.023813  -0.000081  -0.000056   0.010109   0.000028
     4  H   -0.003658   0.000071   0.003125   0.000016  -0.007568  -0.000022
     5  C    0.414618   0.192562  -0.046774  -0.069574  -0.091925   0.018881
     6  H   -0.031340  -0.046774   0.004464  -0.003565  -0.011562  -0.000032
     7  H    0.514963  -0.069574  -0.003565  -0.003256   0.014901  -0.000105
     8  C   -0.069574   5.660496   0.424514   0.414618   0.093841  -0.060504
     9  H   -0.003565   0.424514   0.512351  -0.031340  -0.060601  -0.002281
    10  H   -0.003256   0.414618  -0.031340   0.514963  -0.042906  -0.003632
    11  C    0.014901   0.093841  -0.060601  -0.042906   5.552260   0.396631
    12  H   -0.000105  -0.060504  -0.002281  -0.003632   0.396631   0.493607
    13  H    0.000016  -0.059433   0.004188  -0.003658   0.411032  -0.026075
    14  H   -0.000056  -0.051581  -0.004720   0.004152   0.413650  -0.026097
              13         14
     1  C   -0.007568   0.010109
     2  H   -0.000022   0.000028
     3  H    0.000050  -0.001413
     4  H    0.000098   0.000050
     5  C    0.000071  -0.023813
     6  H    0.003125  -0.000081
     7  H    0.000016  -0.000056
     8  C   -0.059433  -0.051581
     9  H    0.004188  -0.004720
    10  H   -0.003658   0.004152
    11  C    0.411032   0.413650
    12  H   -0.026075  -0.026097
    13  H    0.496142  -0.030989
    14  H   -0.030989   0.499029
 Mulliken charges:
               1
     1  C   -0.655571
     2  H    0.210443
     3  H    0.211731
     4  H    0.213023
     5  C   -0.401379
     6  H    0.212313
     7  H    0.209440
     8  C   -0.401379
     9  H    0.212313
    10  H    0.209440
    11  C   -0.655571
    12  H    0.210443
    13  H    0.213023
    14  H    0.211731
 Sum of Mulliken charges =   0.00000
 Mulliken charges with hydrogens summed into heavy atoms:
               1
     1  C   -0.020375
     5  C    0.020375
     8  C    0.020375
    11  C   -0.020375
 APT charges:
               1
     1  C    0.047375
     2  H   -0.023697
     3  H   -0.014160
     4  H   -0.021819
     5  C    0.116650
     6  H   -0.049985
     7  H   -0.054364
     8  C    0.116650
     9  H   -0.049985
    10  H   -0.054364
    11  C    0.047375
    12  H   -0.023697
    13  H   -0.021819
    14  H   -0.014160
 Sum of APT charges =  -0.00000
 APT charges with hydrogens summed into heavy atoms:
               1
     1  C   -0.012301
     5  C    0.012301
     8  C    0.012301
    11  C   -0.012301
 Electronic spatial extent (au):  <R**2>=            377.6476
 Charge=              0.0000 electrons
 Dipole moment (field-independent basis, Debye):
    X=              0.0000    Y=              0.0000    Z=              0.0956  Tot=              0.0956
 Quadrupole moment (field-independent basis, Debye-Ang):
   XX=            -28.4653   YY=            -28.7362   ZZ=            -28.8260
   XY=              0.1346   XZ=              0.0000   YZ=              0.0000
 Traceless Quadrupole moment (field-independent basis, Debye-Ang):
   XX=              0.2106   YY=             -0.0604   ZZ=             -0.1502
   XY=              0.1346   XZ=              0.0000   YZ=              0.0000
 Octapole moment (field-independent basis, Debye-Ang**2):
  XXX=             -0.0000  YYY=             -0.0000  ZZZ=              0.5897  XYY=             -0.0000
  XXY=              0.0000  XXZ=             -0.0593  XZZ=              0.0000  YZZ=             -0.0000
  YYZ=              1.4862  XYZ=             -0.2982
 Hexadecapole moment (field-independent basis, Debye-Ang**3):
 XXXX=           -123.7641 YYYY=           -280.3613 ZZZZ=           -131.1976 XXXY=             51.6424
 XXXZ=              0.0000 YYYX=             50.1593 YYYZ=              0.0000 ZZZX=             -0.0000
 ZZZY=             -0.0000 XXYY=            -63.1171 XXZZ=            -44.5716 YYZZ=            -70.5880
 XXYZ=              0.0000 YYXZ=              0.0000 ZZXY=             18.0506
 N-N= 1.327513812511D+02 E-N=-6.307189506589D+02  KE= 1.568452600877D+02
 Symmetry A    KE= 7.949402231181D+01
 Symmetry B    KE= 7.735123777586D+01
  Exact polarizability:  45.818  -2.738  49.417  -0.000  -0.000  45.960
 Approx polarizability:  50.083   0.092  49.725   0.000   0.000  49.279
 No NMR shielding tensors so no spin-rotation constants.
 Leave Link  601 at Wed Aug 12 19:12:55 2026, MaxMem= 12884901888 cpu:               5.3 elap:               0.1
 (Enter /home/falbo/g16/l701.exe)
 ... and contract with generalized density number  0.
 Compute integral second derivatives.
 Leave Link  701 at Wed Aug 12 19:12:55 2026, MaxMem= 12884901888 cpu:               9.6 elap:               0.2
 (Enter /home/falbo/g16/l702.exe)
 L702 exits ... SP integral derivatives will be done elsewhere.
 Leave Link  702 at Wed Aug 12 19:12:55 2026, MaxMem= 12884901888 cpu:               0.8 elap:               0.0
 (Enter /home/falbo/g16/l703.exe)
 Integral derivatives from FoFJK, PRISM(SPDF).
 Compute integral second derivatives, UseDBF=F ICtDFT=           0.
 Calling FoFJK, ICntrl=    100127 FMM=F ISym2X=1 I1Cent= 0 IOpClX= 0 NMat=1 NMatS=1 NMatT=0.
 FoFJK:  IHMeth= 1 ICntrl=  100127 DoSepK=F KAlg= 0 I1Cent=           0 FoldK=F
 IRaf=         0 NMat=       1 IRICut=       1 DoRegI=T DoRafI=F ISym2E= 1 IDoP0=0 IntGTp=1.
 FoFCou: FMM=F IPFlag=           0 FMFlag=      100000 FMFlg1=         800
         NFxFlg=           0 DoJE=F BraDBF=F KetDBF=F FulRan=T
         wScrn=  0.000000 ICntrl=    100127 IOpCl=  0 I1Cent=           0 NGrid=           0
         NMat0=    1 NMatS0=      1 NMatT0=    0 NMatD0=    1 NMtDS0=    0 NMtDT0=    0
 Petite list used in FoFCou.
 Leave Link  703 at Wed Aug 12 19:12:58 2026, MaxMem= 12884901888 cpu:             131.6 elap:               2.8
 (Enter /home/falbo/g16/l716.exe)
 Dipole        = 2.66455068D-15 1.77633914D-15 3.76298509D-02
 Polarizability= 4.58183564D+01-2.73766667D+00 4.94172932D+01
                -1.73849919D-08-1.04522751D-07 4.59603539D+01
 Full mass-weighted force constant matrix:
 Low frequencies ---  -27.9933  -19.0393   -9.7234    0.0006    0.0006    0.0008
 Low frequencies ---  108.3231  204.8499  280.1708
 Diagonal vibrational polarizability:
        0.7700482       0.7974303       0.6183571
 Harmonic frequencies (cm**-1), IR intensities (KM/Mole), Raman scattering
 activities (A**4/AMU), depolarization ratios for plane and unpolarized
 incident light, reduced masses (AMU), force constants (mDyne/A),
 and normal coordinates:
                      1                      2                      3
                      A                      B                      A
 Frequencies --    108.2771               204.8267               280.1577
 Red. masses --      1.5386                 1.0452                 1.3988
 Frc consts  --      0.0106                 0.0258                 0.0647
 IR Inten    --      0.0040                 0.0540                 0.0278
  Atom  AN      X      Y      Z        X      Y      Z        X      Y      Z
     1   6     0.02   0.12   0.06    -0.03  -0.00   0.00     0.07  -0.10  -0.03
     2   1    -0.14  -0.05   0.00    -0.29  -0.27  -0.17    -0.14  -0.29  -0.31
     3   1     0.31   0.21  -0.05     0.35  -0.07  -0.02     0.43  -0.22  -0.02
     4   1    -0.07   0.31   0.32    -0.19   0.31   0.20    -0.04   0.12   0.16
     5   6    -0.04  -0.04  -0.06     0.03   0.01   0.01     0.01   0.00   0.04
     6   1     0.00  -0.11  -0.22     0.05  -0.02   0.02     0.00   0.02   0.06
     7   1    -0.17  -0.15   0.01     0.02   0.01   0.00     0.00   0.07   0.00
     8   6     0.04   0.04  -0.06     0.03   0.01  -0.01    -0.01  -0.00   0.04
     9   1    -0.00   0.11  -0.22     0.05  -0.02  -0.02    -0.00  -0.02   0.06
    10   1     0.17   0.15   0.01     0.02   0.01  -0.00    -0.00  -0.07   0.00
    11   6    -0.02  -0.12   0.06    -0.03  -0.00  -0.00    -0.07   0.10  -0.03
    12   1     0.14   0.05   0.00    -0.29  -0.27   0.17     0.14   0.29  -0.31
    13   1     0.07  -0.31   0.32    -0.19   0.31  -0.20     0.04  -0.12   0.16
    14   1    -0.31  -0.21  -0.05     0.35  -0.07   0.02    -0.43   0.22  -0.02
                      4                      5                      6
                      A                      B                      B
 Frequencies --    319.7739               438.0221               756.9693
 Red. masses --      1.7131                 1.9780                 1.1505
 Frc consts  --      0.1032                 0.2236                 0.3884
 IR Inten    --      0.0194                 0.4096                 4.0429
  Atom  AN      X      Y      Z        X      Y      Z        X      Y      Z
     1   6    -0.08   0.08  -0.02     0.06  -0.06   0.06    -0.00   0.00  -0.04
     2   1    -0.26  -0.11  -0.01     0.12   0.03  -0.23     0.03   0.02   0.14
     3   1     0.03   0.04  -0.01     0.21  -0.23   0.13     0.05   0.28  -0.20
     4   1    -0.21   0.31  -0.03     0.14  -0.18   0.14     0.01   0.02   0.21
     5   6     0.08   0.11   0.01    -0.10   0.07   0.13    -0.02  -0.06  -0.04
     6   1    -0.01   0.26   0.21    -0.17   0.20   0.29    -0.13   0.14   0.32
     7   1     0.32   0.15  -0.03     0.16   0.10   0.10     0.32   0.17  -0.19
     8   6    -0.08  -0.11   0.01    -0.10   0.07  -0.13    -0.02  -0.06   0.04
     9   1     0.01  -0.26   0.21    -0.17   0.20  -0.29    -0.13   0.14  -0.32
    10   1    -0.32  -0.15  -0.03     0.16   0.10  -0.10     0.32   0.17   0.19
    11   6     0.08  -0.08  -0.02     0.06  -0.06  -0.06    -0.00   0.00   0.04
    12   1     0.26   0.11  -0.01     0.12   0.03   0.23     0.03   0.02  -0.14
    13   1     0.21  -0.31  -0.03     0.14  -0.18  -0.14     0.01   0.02  -0.21
    14   1    -0.03  -0.04  -0.01     0.21  -0.23  -0.13     0.05   0.28   0.20
                      7                      8                      9
                      A                      A                      B
 Frequencies --    812.5601               853.9434               981.3368
 Red. masses --      1.2901                 1.9128                 1.1568
 Frc consts  --      0.5019                 0.8218                 0.6564
 IR Inten    --      1.8247                 0.0000                 3.6311
  Atom  AN      X      Y      Z        X      Y      Z        X      Y      Z
     1   6    -0.01  -0.06   0.03     0.06  -0.08   0.07     0.07  -0.01   0.03
     2   1     0.07   0.01   0.17    -0.12  -0.30   0.35    -0.13  -0.24   0.22
     3   1     0.08   0.22  -0.15    -0.15  -0.08   0.11    -0.15  -0.08   0.10
     4   1     0.04  -0.11   0.32    -0.10   0.17  -0.19    -0.09   0.22  -0.26
     5   6     0.01  -0.06  -0.07     0.14  -0.03  -0.07    -0.03  -0.00  -0.02
     6   1    -0.01  -0.01   0.33     0.10   0.02  -0.27    -0.24   0.35  -0.12
     7   1     0.33   0.11  -0.18     0.05  -0.16   0.01     0.11  -0.03  -0.01
     8   6    -0.01   0.06  -0.07    -0.14   0.03  -0.07    -0.03  -0.00   0.02
     9   1     0.01   0.01   0.33    -0.10  -0.02  -0.27    -0.24   0.35   0.12
    10   1    -0.33  -0.11  -0.18    -0.05   0.16   0.01     0.11  -0.03   0.01
    11   6     0.01   0.06   0.03    -0.06   0.08   0.07     0.07  -0.01  -0.03
    12   1    -0.07  -0.01   0.17     0.12   0.30   0.35    -0.13  -0.24  -0.22
    13   1    -0.04   0.11   0.32     0.10  -0.17  -0.19    -0.09   0.22   0.26
    14   1    -0.08  -0.22  -0.15     0.15   0.08   0.11    -0.15  -0.08  -0.10
                     10                     11                     12
                      B                      A                      A
 Frequencies --    991.5243              1009.7945              1114.4874
 Red. masses --      2.0684                 1.3452                 2.0364
 Frc consts  --      1.1981                 0.8082                 1.4903
 IR Inten    --      1.2186                 0.1047                 0.1373
  Atom  AN      X      Y      Z        X      Y      Z        X      Y      Z
     1   6     0.00   0.13  -0.10     0.04  -0.02  -0.08    -0.02  -0.07   0.08
     2   1    -0.03   0.12  -0.32    -0.01  -0.11   0.33     0.00  -0.06   0.13
     3   1     0.01  -0.08   0.01    -0.09   0.32  -0.25    -0.02  -0.05   0.07
     4   1     0.00   0.11  -0.28    -0.07   0.19  -0.00    -0.00  -0.09   0.17
     5   6    -0.01  -0.12   0.08    -0.01  -0.01   0.08    -0.09   0.14  -0.08
     6   1    -0.11   0.03   0.10     0.00  -0.02  -0.00    -0.20   0.32  -0.24
     7   1     0.24  -0.33   0.21    -0.27   0.26  -0.08    -0.23   0.31  -0.19
     8   6    -0.01  -0.12  -0.08     0.01   0.01   0.08     0.09  -0.14  -0.08
     9   1    -0.11   0.03  -0.10    -0.00   0.02  -0.00     0.20  -0.32  -0.24
    10   1     0.24  -0.33  -0.21     0.27  -0.26  -0.08     0.23  -0.31  -0.19
    11   6     0.00   0.13   0.10    -0.04   0.02  -0.08     0.02   0.07   0.08
    12   1    -0.03   0.12   0.32     0.01   0.11   0.33    -0.00   0.06   0.13
    13   1     0.00   0.11   0.28     0.07  -0.19  -0.00     0.00   0.09   0.17
    14   1     0.01  -0.08  -0.01     0.09  -0.32  -0.25     0.02   0.05   0.07
                     13                     14                     15
                      B                      A                      B
 Frequencies --   1171.4933              1216.3317              1306.9312
 Red. masses --      1.8469                 1.8395                 1.2316
 Frc consts  --      1.4934                 1.6035                 1.2394
 IR Inten    --      2.6052                 0.0637                 0.2250
  Atom  AN      X      Y      Z        X      Y      Z        X      Y      Z
     1   6     0.06  -0.05  -0.09    -0.09  -0.04  -0.02    -0.06  -0.04  -0.03
     2   1     0.01  -0.14   0.30     0.12   0.18  -0.04     0.09   0.11   0.01
     3   1    -0.11   0.32  -0.27     0.16   0.11  -0.14     0.11   0.11  -0.14
     4   1    -0.08   0.22   0.01     0.05  -0.22   0.33    -0.00  -0.11   0.20
     5   6    -0.03   0.03   0.15     0.15   0.07   0.02     0.05   0.02   0.02
     6   1     0.08  -0.17   0.01     0.26  -0.13  -0.25    -0.17   0.38  -0.36
     7   1    -0.21  -0.01   0.18    -0.20  -0.05   0.11     0.07  -0.21   0.17
     8   6    -0.03   0.03  -0.15    -0.15  -0.07   0.02     0.05   0.02  -0.02
     9   1     0.08  -0.17  -0.01    -0.26   0.13  -0.25    -0.17   0.38   0.36
    10   1    -0.21  -0.01  -0.18     0.20   0.05   0.11     0.07  -0.21  -0.17
    11   6     0.06  -0.05   0.09     0.09   0.04  -0.02    -0.06  -0.04   0.03
    12   1     0.01  -0.14  -0.30    -0.12  -0.18  -0.04     0.09   0.11  -0.01
    13   1    -0.08   0.22  -0.01    -0.05   0.22   0.33    -0.00  -0.11  -0.20
    14   1    -0.11   0.32   0.27    -0.16  -0.11  -0.14     0.11   0.11   0.14
                     16                     17                     18
                      A                      B                      A
 Frequencies --   1331.3150              1393.2694              1405.8203
 Red. masses --      1.1593                 1.3110                 1.5579
 Frc consts  --      1.2106                 1.4994                 1.8140
 IR Inten    --      0.4830                 0.7033                 0.0692
  Atom  AN      X      Y      Z        X      Y      Z        X      Y      Z
     1   6     0.00   0.04   0.04    -0.01  -0.00   0.04    -0.04   0.02   0.01
     2   1    -0.04   0.02  -0.11     0.05   0.10  -0.22     0.01   0.09  -0.13
     3   1     0.03  -0.13   0.14     0.04   0.13  -0.05     0.12   0.04  -0.03
     4   1     0.04  -0.03  -0.11    -0.05   0.05  -0.17     0.02  -0.09  -0.07
     5   6     0.05  -0.03  -0.02     0.04  -0.07   0.07     0.06  -0.13   0.04
     6   1     0.19  -0.25   0.13    -0.12   0.18  -0.10    -0.31   0.48  -0.24
     7   1    -0.20   0.42  -0.30    -0.31   0.41  -0.23    -0.05   0.14  -0.13
     8   6    -0.05   0.03  -0.02     0.04  -0.07  -0.07    -0.06   0.13   0.04
     9   1    -0.19   0.25   0.13    -0.12   0.18   0.10     0.31  -0.48  -0.24
    10   1     0.20  -0.42  -0.30    -0.31   0.41   0.23     0.05  -0.14  -0.13
    11   6    -0.00  -0.04   0.04    -0.01  -0.00  -0.04     0.04  -0.02   0.01
    12   1     0.04  -0.02  -0.11     0.05   0.10   0.22    -0.01  -0.09  -0.13
    13   1    -0.04   0.03  -0.11    -0.05   0.05   0.17    -0.02   0.09  -0.07
    14   1    -0.03   0.13   0.14     0.04   0.13   0.05    -0.12  -0.04  -0.03
                     19                     20                     21
                      A                      B                      B
 Frequencies --   1446.8576              1449.9138              1522.0975
 Red. masses --      1.2472                 1.3240                 1.0645
 Frc consts  --      1.5382                 1.6400                 1.4531
 IR Inten    --      7.4159                 8.2580                 0.6005
  Atom  AN      X      Y      Z        X      Y      Z        X      Y      Z
     1   6    -0.00  -0.07   0.08     0.01  -0.07   0.08    -0.01  -0.01  -0.01
     2   1     0.16   0.17  -0.32     0.12   0.12  -0.34     0.13   0.12   0.17
     3   1     0.03   0.34  -0.18    -0.02   0.34  -0.17     0.20  -0.09   0.01
     4   1    -0.17   0.21  -0.32    -0.16   0.19  -0.27    -0.06   0.08  -0.10
     5   6    -0.01   0.02  -0.01    -0.02   0.04  -0.04     0.03   0.00  -0.04
     6   1     0.05  -0.07  -0.03     0.05  -0.08   0.05    -0.08   0.17   0.39
     7   1     0.05   0.01  -0.01     0.13  -0.18   0.09    -0.37  -0.18   0.11
     8   6     0.01  -0.02  -0.01    -0.02   0.04   0.04     0.03   0.00   0.04
     9   1    -0.05   0.07  -0.03     0.05  -0.08  -0.05    -0.08   0.17  -0.39
    10   1    -0.05  -0.01  -0.01     0.13  -0.18  -0.09    -0.37  -0.18  -0.11
    11   6     0.00   0.07   0.08     0.01  -0.07  -0.08    -0.01  -0.01   0.01
    12   1    -0.16  -0.17  -0.32     0.12   0.12   0.34     0.13   0.12  -0.17
    13   1     0.17  -0.21  -0.32    -0.16   0.19   0.27    -0.06   0.08   0.10
    14   1    -0.03  -0.34  -0.18    -0.02   0.34   0.17     0.20  -0.09  -0.01
                     22                     23                     24
                      A                      B                      A
 Frequencies --   1527.2504              1540.4971              1543.6557
 Red. masses --      1.0669                 1.0428                 1.0737
 Frc consts  --      1.4663                 1.4581                 1.5074
 IR Inten    --      0.0282                14.2478                 6.5019
  Atom  AN      X      Y      Z        X      Y      Z        X      Y      Z
     1   6    -0.00   0.01   0.02    -0.01  -0.02  -0.02     0.00  -0.02  -0.02
     2   1    -0.15  -0.16   0.00     0.30   0.30   0.14     0.25   0.24   0.03
     3   1     0.14   0.16  -0.10     0.06  -0.24   0.11    -0.06  -0.19   0.10
     4   1     0.11  -0.22  -0.21    -0.20   0.34   0.06    -0.17   0.31   0.13
     5   6     0.02   0.02  -0.04    -0.02  -0.01   0.01     0.03  -0.02  -0.03
     6   1    -0.05   0.13   0.34     0.03  -0.10  -0.14    -0.06   0.14   0.28
     7   1    -0.33  -0.17   0.11     0.16   0.10  -0.08    -0.28  -0.09   0.03
     8   6    -0.02  -0.02  -0.04    -0.02  -0.01  -0.01    -0.03   0.02  -0.03
     9   1     0.05  -0.13   0.34     0.03  -0.10   0.14     0.06  -0.14   0.28
    10   1     0.33   0.17   0.11     0.16   0.10   0.08     0.28   0.09   0.03
    11   6     0.00  -0.01   0.02    -0.01  -0.02   0.02    -0.00   0.02  -0.02
    12   1     0.15   0.16   0.00     0.30   0.30  -0.14    -0.25  -0.24   0.03
    13   1    -0.11   0.22  -0.21    -0.20   0.34  -0.06     0.17  -0.31   0.13
    14   1    -0.14  -0.16  -0.10     0.06  -0.24  -0.11     0.06   0.19   0.10
                     25                     26                     27
                      B                      A                      A
 Frequencies --   1546.0228              1554.6872              3088.6776
 Red. masses --      1.0560                 1.0520                 1.0681
 Frc consts  --      1.4871                 1.4981                 6.0034
 IR Inten    --     13.8094                 1.0696                16.9795
  Atom  AN      X      Y      Z        X      Y      Z        X      Y      Z
     1   6    -0.03   0.01   0.02    -0.04  -0.00  -0.01     0.01   0.00  -0.00
     2   1    -0.02  -0.03   0.25     0.14   0.13   0.36    -0.03   0.03   0.01
     3   1     0.45   0.04  -0.09     0.47  -0.14  -0.00     0.00  -0.01  -0.01
     4   1     0.05  -0.17  -0.37    -0.05   0.01  -0.27    -0.06  -0.03   0.01
     5   6    -0.02   0.01   0.01    -0.03   0.01   0.00    -0.05  -0.02   0.02
     6   1     0.04  -0.10  -0.12     0.01  -0.05  -0.03     0.57   0.34  -0.01
     7   1     0.15   0.06  -0.03     0.08   0.01  -0.01    -0.02  -0.13  -0.19
     8   6    -0.02   0.01  -0.01     0.03  -0.01   0.00     0.05   0.02   0.02
     9   1     0.04  -0.10   0.12    -0.01   0.05  -0.03    -0.57  -0.34  -0.01
    10   1     0.15   0.06   0.03    -0.08  -0.01  -0.01     0.02   0.13  -0.19
    11   6    -0.03   0.01  -0.02     0.04   0.00  -0.01    -0.01  -0.00  -0.00
    12   1    -0.02  -0.03  -0.25    -0.14  -0.13   0.36     0.03  -0.03   0.01
    13   1     0.05  -0.17   0.37     0.05  -0.01  -0.27     0.06   0.03   0.01
    14   1     0.45   0.04   0.09    -0.47   0.14  -0.00    -0.00   0.01  -0.01
                     28                     29                     30
                      B                      B                      A
 Frequencies --   3090.0542              3102.8361              3104.3849
 Red. masses --      1.0598                 1.0373                 1.0388
 Frc consts  --      5.9624                 5.8839                 5.8984
 IR Inten    --     32.8566                24.7084                32.2931
  Atom  AN      X      Y      Z        X      Y      Z        X      Y      Z
     1   6     0.01  -0.00  -0.00    -0.01  -0.03   0.02    -0.01  -0.03   0.02
     2   1    -0.02   0.02   0.00    -0.26   0.24   0.04    -0.26   0.24   0.03
     3   1     0.01   0.02   0.04    -0.05  -0.18  -0.29    -0.05  -0.16  -0.26
     4   1    -0.06  -0.03   0.00     0.43   0.24  -0.02     0.45   0.25  -0.03
     5   6    -0.03   0.00   0.03     0.00   0.00   0.00     0.00   0.00   0.01
     6   1     0.43   0.26   0.00    -0.00  -0.00   0.00    -0.01  -0.00   0.00
     7   1    -0.03  -0.27  -0.41    -0.00  -0.05  -0.07    -0.00  -0.05  -0.07
     8   6    -0.03   0.00  -0.03     0.00   0.00  -0.00    -0.00  -0.00   0.01
     9   1     0.43   0.26  -0.00    -0.00  -0.00  -0.00     0.01   0.00   0.00
    10   1    -0.03  -0.27   0.41    -0.00  -0.05   0.07     0.00   0.05  -0.07
    11   6     0.01  -0.00   0.00    -0.01  -0.03  -0.02     0.01   0.03   0.02
    12   1    -0.02   0.02  -0.00    -0.26   0.24  -0.04     0.26  -0.24   0.03
    13   1    -0.06  -0.03  -0.00     0.43   0.24   0.02    -0.45  -0.25  -0.03
    14   1     0.01   0.02  -0.04    -0.05  -0.18   0.29     0.05   0.16  -0.26
                     31                     32                     33
                      A                      B                      A
 Frequencies --   3123.5097              3127.1608              3165.8195
 Red. masses --      1.0940                 1.1034                 1.1005
 Frc consts  --      6.2886                 6.3577                 6.4987
 IR Inten    --     30.2364                32.2493                 2.1471
  Atom  AN      X      Y      Z        X      Y      Z        X      Y      Z
     1   6     0.00   0.00   0.01     0.01   0.01   0.01    -0.06   0.00  -0.01
     2   1    -0.02   0.02   0.00    -0.04   0.04   0.01     0.36  -0.34  -0.05
     3   1    -0.02  -0.08  -0.14    -0.03  -0.11  -0.17     0.01   0.10   0.16
     4   1     0.01   0.00   0.00    -0.09  -0.04   0.01     0.39   0.22  -0.03
     5   6    -0.02  -0.04  -0.05    -0.03  -0.04  -0.03    -0.01  -0.01  -0.00
     6   1     0.18   0.10  -0.01     0.40   0.23  -0.01     0.07   0.05  -0.00
     7   1     0.02   0.35   0.55     0.01   0.26   0.40     0.00   0.01   0.03
     8   6     0.02   0.04  -0.05    -0.03  -0.04   0.03     0.01   0.01  -0.00
     9   1    -0.18  -0.10  -0.01     0.40   0.23   0.01    -0.07  -0.05  -0.00
    10   1    -0.02  -0.35   0.55     0.01   0.26  -0.40    -0.00  -0.01   0.03
    11   6    -0.00  -0.00   0.01     0.01   0.01  -0.01     0.06  -0.00  -0.01
    12   1     0.02  -0.02   0.00    -0.04   0.04  -0.01    -0.36   0.34  -0.05
    13   1    -0.01  -0.00   0.00    -0.09  -0.04  -0.01    -0.39  -0.22  -0.03
    14   1     0.02   0.08  -0.14    -0.03  -0.11   0.17    -0.01  -0.10   0.16
                     34                     35                     36
                      B                      B                      A
 Frequencies --   3165.9611              3173.0331              3180.6804
 Red. masses --      1.1012                 1.1026                 1.1014
 Frc consts  --      6.5031                 6.5407                 6.5650
 IR Inten    --     92.0343                59.5072                36.3475
  Atom  AN      X      Y      Z        X      Y      Z        X      Y      Z
     1   6    -0.06  -0.01  -0.01     0.02  -0.05  -0.04     0.00  -0.05  -0.04
     2   1     0.27  -0.27  -0.04    -0.34   0.31   0.03    -0.26   0.23   0.02
     3   1     0.03   0.14   0.24     0.08   0.25   0.43     0.08   0.29   0.50
     4   1     0.42   0.24  -0.03     0.04   0.01  -0.01     0.12   0.05  -0.02
     5   6    -0.01  -0.01  -0.01    -0.00  -0.01  -0.01    -0.00  -0.01  -0.01
     6   1     0.14   0.08  -0.01     0.05   0.03  -0.00     0.03   0.02  -0.00
     7   1     0.00   0.05   0.09     0.00   0.06   0.10     0.00   0.06   0.10
     8   6    -0.01  -0.01   0.01    -0.00  -0.01   0.01     0.00   0.01  -0.01
     9   1     0.14   0.08   0.01     0.05   0.03   0.00    -0.03  -0.02  -0.00
    10   1     0.00   0.05  -0.09     0.00   0.06  -0.10    -0.00  -0.06   0.10
    11   6    -0.06  -0.01   0.01     0.02  -0.05   0.04    -0.00   0.05  -0.04
    12   1     0.27  -0.27   0.04    -0.34   0.31  -0.03     0.26  -0.23   0.02
    13   1     0.42   0.24   0.03     0.04   0.01   0.01    -0.12  -0.05  -0.02
    14   1     0.03   0.14  -0.24     0.08   0.25  -0.43    -0.08  -0.29   0.50

 -------------------
 - Thermochemistry -
 -------------------
 Temperature   298.150 Kelvin.  Pressure   1.00000 Atm.
 Atom     1 has atomic number  6 and mass  12.00000
 Atom     2 has atomic number  1 and mass   1.00783
 Atom     3 has atomic number  1 and mass   1.00783
 Atom     4 has atomic number  1 and mass   1.00783
 Atom     5 has atomic number  6 and mass  12.00000
 Atom     6 has atomic number  1 and mass   1.00783
 Atom     7 has atomic number  1 and mass   1.00783
 Atom     8 has atomic number  6 and mass  12.00000
 Atom     9 has atomic number  1 and mass   1.00783
 Atom    10 has atomic number  1 and mass   1.00783
 Atom    11 has atomic number  6 and mass  12.00000
 Atom    12 has atomic number  1 and mass   1.00783
 Atom    13 has atomic number  1 and mass   1.00783
 Atom    14 has atomic number  1 and mass   1.00783
 Molecular mass:    58.07825 amu.
 Principal axes and moments of inertia in atomic units:
                           1         2         3
     Eigenvalues --   138.18328 370.78858 439.62953
           X           -0.45347   0.00000   0.89127
           Y            0.89127  -0.00000   0.45347
           Z            0.00000   1.00000  -0.00000
 This molecule is an asymmetric top.
 Rotational symmetry number  2.
 Rotational temperatures (Kelvin)      0.62680     0.23359     0.19702
 Rotational constants (GHZ):          13.06049     4.86731     4.10514
 Zero-point vibrational energy     353795.2 (Joules/Mol)
                                   84.55908 (Kcal/Mol)
 Warning -- explicit consideration of   5 degrees of freedom as
           vibrations may cause significant error
 Vibrational temperatures:    155.79   294.70   403.08   460.08   630.22
          (Kelvin)           1089.11  1169.09  1228.63  1411.92  1426.58
                             1452.87  1603.50  1685.52  1750.03  1880.38
                             1915.47  2004.60  2022.66  2081.71  2086.10
                             2189.96  2197.37  2216.43  2220.98  2224.38
                             2236.85  4443.92  4445.90  4464.29  4466.52
                             4494.03  4499.29  4554.91  4555.11  4565.29
                             4576.29
 
 Zero-point correction=                           0.134753 (Hartree/Particle)
 Thermal correction to Energy=                    0.140449
 Thermal correction to Enthalpy=                  0.141393
 Thermal correction to Gibbs Free Energy=         0.107360
 Sum of electronic and zero-point Energies=           -158.283010
 Sum of electronic and thermal Energies=              -158.277315
 Sum of electronic and thermal Enthalpies=            -158.276371
 Sum of electronic and thermal Free Energies=         -158.310404
 
                     E (Thermal)             CV                S
                      KCal/Mol        Cal/Mol-Kelvin    Cal/Mol-Kelvin
 Total                   88.133             19.292             71.629
 Electronic               0.000              0.000              0.000
 Translational            0.889              2.981             38.098
 Rotational               0.889              2.981             23.247
 Vibrational             86.355             13.330             10.283
 Vibration     1          0.606              1.943              3.300
 Vibration     2          0.640              1.833              2.089
 Vibration     3          0.680              1.710              1.533
 Vibration     4          0.706              1.636              1.311
 Vibration     5          0.798              1.387              0.833
                       Q            Log10(Q)             Ln(Q)
 Total Bot       0.414923D-49        -49.382032       -113.706331
 Total V=0       0.398294D+13         12.600204         29.013042
 Vib (Bot)       0.887858D-61        -61.051656       -140.576634
 Vib (Bot)    1  0.189224D+01          0.276975          0.637759
 Vib (Bot)    2  0.971667D+00         -0.012483         -0.028742
 Vib (Bot)    3  0.686205D+00         -0.163546         -0.376579
 Vib (Bot)    4  0.587939D+00         -0.230667         -0.531132
 Vib (Bot)    5  0.395283D+00         -0.403092         -0.928154
 Vib (V=0)       0.852275D+01          0.930580          2.142739
 Vib (V=0)    1  0.245718D+01          0.390437          0.899015
 Vib (V=0)    2  0.159277D+01          0.202152          0.465472
 Vib (V=0)    3  0.134904D+01          0.130026          0.299397
 Vib (V=0)    4  0.127180D+01          0.104418          0.240432
 Vib (V=0)    5  0.113738D+01          0.055904          0.128724
 Electronic      0.100000D+01          0.000000          0.000000
 Translational   0.173970D+08          7.240474         16.671808
 Rotational      0.268627D+05          4.429150         10.198495
                           ----------------------------
                           ! Normal Mode     1        !
 --------------------------                            --------------------------
 ! Name  Definition              Value          Relative Weight (%)             !
 --------------------------------------------------------------------------------
 ! D1    D(2,1,5,6)             -0.0826                  2.7                    !
 ! D2    D(2,1,5,7)             -0.0806                  2.7                    !
 ! D3    D(2,1,5,8)             -0.0783                  2.6                    !
 ! D4    D(3,1,5,6)             -0.0843                  2.8                    !
 ! D5    D(3,1,5,7)             -0.0823                  2.7                    !
 ! D6    D(3,1,5,8)             -0.08                    2.6                    !
 ! D7    D(4,1,5,6)             -0.0853                  2.8                    !
 ! D8    D(4,1,5,7)             -0.0832                  2.8                    !
 ! D9    D(4,1,5,8)             -0.0809                  2.7                    !
 ! D10   D(1,5,8,9)             -0.1674                  5.5                    !
 ! D11   D(1,5,8,10)            -0.168                   5.6                    !
 ! D12   D(1,5,8,11)            -0.1751                  5.8                    !
 ! D13   D(6,5,8,9)             -0.1598                  5.3                    !
 ! D14   D(6,5,8,10)            -0.1604                  5.3                    !
 ! D15   D(6,5,8,11)            -0.1674                  5.5                    !
 ! D16   D(7,5,8,9)             -0.1604                  5.3                    !
 ! D17   D(7,5,8,10)            -0.1609                  5.3                    !
 ! D18   D(7,5,8,11)            -0.168                   5.6                    !
 ! D19   D(5,8,11,12)           -0.0783                  2.6                    !
 ! D20   D(5,8,11,13)           -0.0809                  2.7                    !
 ! D21   D(5,8,11,14)           -0.08                    2.6                    !
 ! D22   D(9,8,11,12)           -0.0826                  2.7                    !
 ! D23   D(9,8,11,13)           -0.0853                  2.8                    !
 ! D24   D(9,8,11,14)           -0.0843                  2.8                    !
 ! D25   D(10,8,11,12)          -0.0806                  2.7                    !
 ! D26   D(10,8,11,13)          -0.0832                  2.8                    !
 ! D27   D(10,8,11,14)          -0.0823                  2.7                    !
 --------------------------------------------------------------------------------
                           ----------------------------
                           ! Normal Mode     2        !
 --------------------------                            --------------------------
 ! Name  Definition              Value          Relative Weight (%)             !
 --------------------------------------------------------------------------------
 ! D1    D(2,1,5,6)             -0.2038                  5.2                    !
 ! D2    D(2,1,5,7)             -0.2015                  5.2                    !
 ! D3    D(2,1,5,8)             -0.2203                  5.7                    !
 ! D4    D(3,1,5,6)             -0.2007                  5.2                    !
 ! D5    D(3,1,5,7)             -0.1983                  5.1                    !
 ! D6    D(3,1,5,8)             -0.2172                  5.6                    !
 ! D7    D(4,1,5,6)             -0.2007                  5.2                    !
 ! D8    D(4,1,5,7)             -0.1983                  5.1                    !
 ! D9    D(4,1,5,8)             -0.2172                  5.6                    !
 ! D19   D(5,8,11,12)            0.2203                  5.7                    !
 ! D20   D(5,8,11,13)            0.2172                  5.6                    !
 ! D21   D(5,8,11,14)            0.2172                  5.6                    !
 ! D22   D(9,8,11,12)            0.2038                  5.2                    !
 ! D23   D(9,8,11,13)            0.2007                  5.2                    !
 ! D24   D(9,8,11,14)            0.2007                  5.2                    !
 ! D25   D(10,8,11,12)           0.2015                  5.2                    !
 ! D26   D(10,8,11,13)           0.1983                  5.1                    !
 ! D27   D(10,8,11,14)           0.1983                  5.1                    !
 --------------------------------------------------------------------------------
                           ----------------------------
                           ! Normal Mode     3        !
 --------------------------                            --------------------------
 ! Name  Definition              Value          Relative Weight (%)             !
 --------------------------------------------------------------------------------
 ! D1    D(2,1,5,6)             -0.1784                  4.5                    !
 ! D2    D(2,1,5,7)             -0.1914                  4.8                    !
 ! D3    D(2,1,5,8)             -0.203                   5.1                    !
 ! D4    D(3,1,5,6)             -0.1749                  4.4                    !
 ! D5    D(3,1,5,7)             -0.1879                  4.7                    !
 ! D6    D(3,1,5,8)             -0.1995                  5.0                    !
 ! D7    D(4,1,5,6)             -0.1725                  4.3                    !
 ! D8    D(4,1,5,7)             -0.1856                  4.7                    !
 ! D9    D(4,1,5,8)             -0.1972                  4.9                    !
 ! D11   D(1,5,8,10)             0.0574                  1.4                    !
 ! D12   D(1,5,8,11)             0.0604                  1.5                    !
 ! D17   D(7,5,8,10)             0.0544                  1.4                    !
 ! D18   D(7,5,8,11)             0.0574                  1.4                    !
 ! D19   D(5,8,11,12)           -0.203                   5.1                    !
 ! D20   D(5,8,11,13)           -0.1972                  4.9                    !
 ! D21   D(5,8,11,14)           -0.1995                  5.0                    !
 ! D22   D(9,8,11,12)           -0.1784                  4.5                    !
 ! D23   D(9,8,11,13)           -0.1725                  4.3                    !
 ! D24   D(9,8,11,14)           -0.1749                  4.4                    !
 ! D25   D(10,8,11,12)          -0.1914                  4.8                    !
 ! D26   D(10,8,11,13)          -0.1856                  4.7                    !
 ! D27   D(10,8,11,14)          -0.1879                  4.7                    !
 --------------------------------------------------------------------------------
                           ----------------------------
                           ! Normal Mode     4        !
 --------------------------                            --------------------------
 ! Name  Definition              Value          Relative Weight (%)             !
 --------------------------------------------------------------------------------
 ! A9    A(1,5,8)                0.088                   1.5                    !
 ! A15   A(5,8,11)               0.088                   1.5                    !
 ! D1    D(2,1,5,6)             -0.2401                  4.1                    !
 ! D2    D(2,1,5,7)             -0.2054                  3.5                    !
 ! D3    D(2,1,5,8)             -0.2046                  3.5                    !
 ! D4    D(3,1,5,6)             -0.2205                  3.8                    !
 ! D5    D(3,1,5,7)             -0.1857                  3.2                    !
 ! D6    D(3,1,5,8)             -0.1849                  3.2                    !
 ! D7    D(4,1,5,6)             -0.2417                  4.2                    !
 ! D8    D(4,1,5,7)             -0.2069                  3.6                    !
 ! D9    D(4,1,5,8)             -0.2061                  3.6                    !
 ! D10   D(1,5,8,9)              0.1825                  3.1                    !
 ! D11   D(1,5,8,10)             0.1453                  2.5                    !
 ! D12   D(1,5,8,11)             0.1568                  2.7                    !
 ! D13   D(6,5,8,9)              0.2081                  3.6                    !
 ! D14   D(6,5,8,10)             0.1709                  2.9                    !
 ! D15   D(6,5,8,11)             0.1825                  3.1                    !
 ! D16   D(7,5,8,9)              0.1709                  2.9                    !
 ! D17   D(7,5,8,10)             0.1337                  2.3                    !
 ! D18   D(7,5,8,11)             0.1453                  2.5                    !
 ! D19   D(5,8,11,12)           -0.2046                  3.5                    !
 ! D20   D(5,8,11,13)           -0.2061                  3.6                    !
 ! D21   D(5,8,11,14)           -0.1849                  3.2                    !
 ! D22   D(9,8,11,12)           -0.2401                  4.1                    !
 ! D23   D(9,8,11,13)           -0.2417                  4.2                    !
 ! D24   D(9,8,11,14)           -0.2205                  3.8                    !
 ! D25   D(10,8,11,12)          -0.2054                  3.5                    !
 ! D26   D(10,8,11,13)          -0.2069                  3.6                    !
 ! D27   D(10,8,11,14)          -0.1857                  3.2                    !
 --------------------------------------------------------------------------------
                           ----------------------------
                           ! Normal Mode     5        !
 --------------------------                            --------------------------
 ! Name  Definition              Value          Relative Weight (%)             !
 --------------------------------------------------------------------------------
 ! R4    R(1,5)                 -0.0264                  0.7                    !
 ! R10   R(8,11)                 0.0264                  0.7                    !
 ! A3    A(2,1,5)                0.0704                  2.0                    !
 ! A5    A(3,1,5)               -0.0368                  1.0                    !
 ! A6    A(4,1,5)               -0.0378                  1.1                    !
 ! A7    A(1,5,6)                0.0556                  1.5                    !
 ! A8    A(1,5,7)                0.0317                  0.9                    !
 ! A9    A(1,5,8)               -0.1543                  4.3                    !
 ! A11   A(6,5,8)                0.0725                  2.0                    !
 ! A13   A(5,8,9)               -0.0725                  2.0                    !
 ! A15   A(5,8,11)               0.1543                  4.3                    !
 ! A17   A(9,8,11)              -0.0556                  1.5                    !
 ! A18   A(10,8,11)             -0.0317                  0.9                    !
 ! A19   A(8,11,12)             -0.0704                  2.0                    !
 ! A20   A(8,11,13)              0.0378                  1.1                    !
 ! A21   A(8,11,14)              0.0368                  1.0                    !
 ! D1    D(2,1,5,6)             -0.1066                  3.0                    !
 ! D2    D(2,1,5,7)             -0.1784                  5.0                    !
 ! D3    D(2,1,5,8)             -0.0788                  2.2                    !
 ! D4    D(3,1,5,6)             -0.1398                  3.9                    !
 ! D5    D(3,1,5,7)             -0.2116                  5.9                    !
 ! D6    D(3,1,5,8)             -0.112                   3.1                    !
 ! D7    D(4,1,5,6)             -0.0775                  2.2                    !
 ! D8    D(4,1,5,7)             -0.1492                  4.1                    !
 ! D9    D(4,1,5,8)             -0.0496                  1.4                    !
 ! D11   D(1,5,8,10)            -0.0733                  2.0                    !
 ! D14   D(6,5,8,10)            -0.0543                  1.5                    !
 ! D16   D(7,5,8,9)              0.0543                  1.5                    !
 ! D18   D(7,5,8,11)             0.0733                  2.0                    !
 ! D19   D(5,8,11,12)            0.0788                  2.2                    !
 ! D20   D(5,8,11,13)            0.0496                  1.4                    !
 ! D21   D(5,8,11,14)            0.112                   3.1                    !
 ! D22   D(9,8,11,12)            0.1066                  3.0                    !
 ! D23   D(9,8,11,13)            0.0775                  2.2                    !
 ! D24   D(9,8,11,14)            0.1398                  3.9                    !
 ! D25   D(10,8,11,12)           0.1784                  5.0                    !
 ! D26   D(10,8,11,13)           0.1492                  4.1                    !
 ! D27   D(10,8,11,14)           0.2116                  5.9                    !
 --------------------------------------------------------------------------------
                           ----------------------------
                           ! Normal Mode     6        !
 --------------------------                            --------------------------
 ! Name  Definition              Value          Relative Weight (%)             !
 --------------------------------------------------------------------------------
 ! A5    A(3,1,5)                0.1422                  2.7                    !
 ! A6    A(4,1,5)               -0.0813                  1.5                    !
 ! A7    A(1,5,6)                0.0963                  1.8                    !
 ! A8    A(1,5,7)               -0.1493                  2.8                    !
 ! A11   A(6,5,8)                0.108                   2.0                    !
 ! A12   A(7,5,8)               -0.0835                  1.6                    !
 ! A13   A(5,8,9)               -0.108                   2.0                    !
 ! A14   A(5,8,10)               0.0835                  1.6                    !
 ! A17   A(9,8,11)              -0.0963                  1.8                    !
 ! A18   A(10,8,11)              0.1493                  2.8                    !
 ! A20   A(8,11,13)              0.0813                  1.5                    !
 ! A21   A(8,11,14)             -0.1422                  2.7                    !
 ! D1    D(2,1,5,6)             -0.1524                  2.9                    !
 ! D2    D(2,1,5,7)             -0.1189                  2.3                    !
 ! D3    D(2,1,5,8)              0.0768                  1.5                    !
 ! D4    D(3,1,5,6)             -0.2236                  4.2                    !
 ! D5    D(3,1,5,7)             -0.1901                  3.6                    !
 ! D7    D(4,1,5,6)             -0.2766                  5.2                    !
 ! D8    D(4,1,5,7)             -0.2431                  4.6                    !
 ! D10   D(1,5,8,9)             -0.222                   4.2                    !
 ! D11   D(1,5,8,10)            -0.2322                  4.4                    !
 ! D15   D(6,5,8,11)             0.222                   4.2                    !
 ! D18   D(7,5,8,11)             0.2322                  4.4                    !
 ! D19   D(5,8,11,12)           -0.0768                  1.5                    !
 ! D22   D(9,8,11,12)            0.1524                  2.9                    !
 ! D23   D(9,8,11,13)            0.2766                  5.2                    !
 ! D24   D(9,8,11,14)            0.2236                  4.2                    !
 ! D25   D(10,8,11,12)           0.1189                  2.3                    !
 ! D26   D(10,8,11,13)           0.2431                  4.6                    !
 ! D27   D(10,8,11,14)           0.1901                  3.6                    !
 --------------------------------------------------------------------------------
                           ----------------------------
                           ! Normal Mode     7        !
 --------------------------                            --------------------------
 ! Name  Definition              Value          Relative Weight (%)             !
 --------------------------------------------------------------------------------
 ! R4    R(1,5)                 -0.0731                  1.2                    !
 ! R7    R(5,8)                 -0.0969                  1.6                    !
 ! R10   R(8,11)                -0.0731                  1.2                    !
 ! A5    A(3,1,5)                0.1418                  2.3                    !
 ! A6    A(4,1,5)               -0.1349                  2.2                    !
 ! A7    A(1,5,6)                0.1448                  2.3                    !
 ! A8    A(1,5,7)               -0.1194                  1.9                    !
 ! A11   A(6,5,8)                0.052                   0.8                    !
 ! A12   A(7,5,8)               -0.0838                  1.3                    !
 ! A13   A(5,8,9)                0.052                   0.8                    !
 ! A14   A(5,8,10)              -0.0838                  1.3                    !
 ! A17   A(9,8,11)               0.1448                  2.3                    !
 ! A18   A(10,8,11)             -0.1194                  1.9                    !
 ! A20   A(8,11,13)             -0.1349                  2.2                    !
 ! A21   A(8,11,14)              0.1418                  2.3                    !
 ! D1    D(2,1,5,6)             -0.0645                  1.0                    !
 ! D2    D(2,1,5,7)             -0.0805                  1.3                    !
 ! D3    D(2,1,5,8)              0.1108                  1.8                    !
 ! D4    D(3,1,5,6)             -0.1862                  3.0                    !
 ! D5    D(3,1,5,7)             -0.2022                  3.3                    !
 ! D7    D(4,1,5,6)             -0.1938                  3.1                    !
 ! D8    D(4,1,5,7)             -0.2098                  3.4                    !
 ! D10   D(1,5,8,9)              0.178                   2.9                    !
 ! D11   D(1,5,8,10)             0.1625                  2.6                    !
 ! D12   D(1,5,8,11)            -0.0485                  0.8                    !
 ! D13   D(6,5,8,9)              0.4044                  6.5                    !
 ! D14   D(6,5,8,10)             0.3889                  6.3                    !
 ! D15   D(6,5,8,11)             0.178                   2.9                    !
 ! D16   D(7,5,8,9)              0.3889                  6.3                    !
 ! D17   D(7,5,8,10)             0.3735                  6.0                    !
 ! D18   D(7,5,8,11)             0.1625                  2.6                    !
 ! D19   D(5,8,11,12)            0.1108                  1.8                    !
 ! D22   D(9,8,11,12)           -0.0645                  1.0                    !
 ! D23   D(9,8,11,13)           -0.1938                  3.1                    !
 ! D24   D(9,8,11,14)           -0.1862                  3.0                    !
 ! D25   D(10,8,11,12)          -0.0805                  1.3                    !
 ! D26   D(10,8,11,13)          -0.2098                  3.4                    !
 ! D27   D(10,8,11,14)          -0.2022                  3.3                    !
 --------------------------------------------------------------------------------
                           ----------------------------
                           ! Normal Mode     8        !
 --------------------------                            --------------------------
 ! Name  Definition              Value          Relative Weight (%)             !
 --------------------------------------------------------------------------------
 ! R4    R(1,5)                 -0.1357                  3.2                    !
 ! R7    R(5,8)                 -0.2629                  6.1                    !
 ! R10   R(8,11)                -0.1357                  3.2                    !
 ! A1    A(2,1,3)               -0.0274                  0.6                    !
 ! A3    A(2,1,5)               -0.1565                  3.6                    !
 ! A4    A(3,1,4)                0.0339                  0.8                    !
 ! A5    A(3,1,5)               -0.0301                  0.7                    !
 ! A6    A(4,1,5)                0.168                   3.9                    !
 ! A7    A(1,5,6)               -0.1136                  2.6                    !
 ! A8    A(1,5,7)                0.0522                  1.2                    !
 ! A9    A(1,5,8)                0.0559                  1.3                    !
 ! A15   A(5,8,11)               0.0559                  1.3                    !
 ! A17   A(9,8,11)              -0.1136                  2.6                    !
 ! A18   A(10,8,11)              0.0522                  1.2                    !
 ! A19   A(8,11,12)             -0.1565                  3.6                    !
 ! A20   A(8,11,13)              0.168                   3.9                    !
 ! A21   A(8,11,14)             -0.0301                  0.7                    !
 ! A23   A(12,11,14)            -0.0274                  0.6                    !
 ! A24   A(13,11,14)             0.0339                  0.8                    !
 ! D1    D(2,1,5,6)             -0.0402                  0.9                    !
 ! D3    D(2,1,5,8)             -0.1015                  2.4                    !
 ! D4    D(3,1,5,6)              0.1213                  2.8                    !
 ! D5    D(3,1,5,7)              0.158                   3.7                    !
 ! D6    D(3,1,5,8)              0.06                    1.4                    !
 ! D9    D(4,1,5,8)             -0.0766                  1.8                    !
 ! D10   D(1,5,8,9)             -0.0853                  2.0                    !
 ! D11   D(1,5,8,10)            -0.085                   2.0                    !
 ! D12   D(1,5,8,11)             0.0321                  0.7                    !
 ! D13   D(6,5,8,9)             -0.2027                  4.7                    !
 ! D14   D(6,5,8,10)            -0.2024                  4.7                    !
 ! D15   D(6,5,8,11)            -0.0853                  2.0                    !
 ! D16   D(7,5,8,9)             -0.2024                  4.7                    !
 ! D17   D(7,5,8,10)            -0.2021                  4.7                    !
 ! D18   D(7,5,8,11)            -0.085                   2.0                    !
 ! D19   D(5,8,11,12)           -0.1015                  2.4                    !
 ! D20   D(5,8,11,13)           -0.0766                  1.8                    !
 ! D21   D(5,8,11,14)            0.06                    1.4                    !
 ! D22   D(9,8,11,12)           -0.0402                  0.9                    !
 ! D24   D(9,8,11,14)            0.1213                  2.8                    !
 ! D27   D(10,8,11,14)           0.158                   3.7                    !
 --------------------------------------------------------------------------------
                           ----------------------------
                           ! Normal Mode     9        !
 --------------------------                            --------------------------
 ! Name  Definition              Value          Relative Weight (%)             !
 --------------------------------------------------------------------------------
 ! R4    R(1,5)                 -0.0454                  1.0                    !
 ! R10   R(8,11)                 0.0454                  1.0                    !
 ! A1    A(2,1,3)               -0.0502                  1.1                    !
 ! A3    A(2,1,5)               -0.1703                  3.9                    !
 ! A4    A(3,1,4)                0.039                   0.9                    !
 ! A5    A(3,1,5)               -0.0637                  1.5                    !
 ! A6    A(4,1,5)                0.2264                  5.2                    !
 ! A7    A(1,5,6)               -0.1191                  2.7                    !
 ! A11   A(6,5,8)                0.2006                  4.6                    !
 ! A12   A(7,5,8)               -0.0746                  1.7                    !
 ! A13   A(5,8,9)               -0.2006                  4.6                    !
 ! A14   A(5,8,10)               0.0746                  1.7                    !
 ! A17   A(9,8,11)               0.1191                  2.7                    !
 ! A19   A(8,11,12)              0.1703                  3.9                    !
 ! A20   A(8,11,13)             -0.2264                  5.2                    !
 ! A21   A(8,11,14)              0.0637                  1.5                    !
 ! A23   A(12,11,14)             0.0502                  1.1                    !
 ! A24   A(13,11,14)            -0.039                   0.9                    !
 ! D1    D(2,1,5,6)             -0.243                   5.5                    !
 ! D2    D(2,1,5,7)             -0.1785                  4.1                    !
 ! D3    D(2,1,5,8)             -0.0778                  1.8                    !
 ! D5    D(3,1,5,7)              0.0441                  1.0                    !
 ! D6    D(3,1,5,8)              0.1447                  3.3                    !
 ! D7    D(4,1,5,6)             -0.1804                  4.1                    !
 ! D8    D(4,1,5,7)             -0.116                   2.6                    !
 ! D11   D(1,5,8,10)            -0.058                   1.3                    !
 ! D14   D(6,5,8,10)            -0.0708                  1.6                    !
 ! D16   D(7,5,8,9)              0.0708                  1.6                    !
 ! D18   D(7,5,8,11)             0.058                   1.3                    !
 ! D19   D(5,8,11,12)            0.0778                  1.8                    !
 ! D21   D(5,8,11,14)           -0.1447                  3.3                    !
 ! D22   D(9,8,11,12)            0.243                   5.5                    !
 ! D23   D(9,8,11,13)            0.1804                  4.1                    !
 ! D25   D(10,8,11,12)           0.1785                  4.1                    !
 ! D26   D(10,8,11,13)           0.116                   2.6                    !
 ! D27   D(10,8,11,14)          -0.0441                  1.0                    !
 --------------------------------------------------------------------------------
                           ----------------------------
                           ! Normal Mode    10        !
 --------------------------                            --------------------------
 ! Name  Definition              Value          Relative Weight (%)             !
 --------------------------------------------------------------------------------
 ! R4    R(1,5)                  0.2987                  7.5                    !
 ! R10   R(8,11)                -0.2987                  7.5                    !
 ! A1    A(2,1,3)               -0.0309                  0.8                    !
 ! A3    A(2,1,5)                0.1018                  2.6                    !
 ! A4    A(3,1,4)               -0.034                   0.9                    !
 ! A5    A(3,1,5)               -0.1431                  3.6                    !
 ! A6    A(4,1,5)                0.0816                  2.0                    !
 ! A7    A(1,5,6)               -0.0263                  0.7                    !
 ! A8    A(1,5,7)                0.0895                  2.2                    !
 ! A9    A(1,5,8)               -0.039                   1.0                    !
 ! A11   A(6,5,8)                0.0874                  2.2                    !
 ! A12   A(7,5,8)               -0.1177                  3.0                    !
 ! A13   A(5,8,9)               -0.0874                  2.2                    !
 ! A14   A(5,8,10)               0.1177                  3.0                    !
 ! A15   A(5,8,11)               0.039                   1.0                    !
 ! A17   A(9,8,11)               0.0263                  0.7                    !
 ! A18   A(10,8,11)             -0.0895                  2.2                    !
 ! A19   A(8,11,12)             -0.1018                  2.6                    !
 ! A20   A(8,11,13)             -0.0816                  2.0                    !
 ! A21   A(8,11,14)              0.1431                  3.6                    !
 ! A23   A(12,11,14)             0.0309                  0.8                    !
 ! A24   A(13,11,14)             0.034                   0.9                    !
 ! D1    D(2,1,5,6)             -0.1664                  4.2                    !
 ! D2    D(2,1,5,7)             -0.2124                  5.3                    !
 ! D3    D(2,1,5,8)             -0.0999                  2.5                    !
 ! D4    D(3,1,5,6)             -0.1001                  2.5                    !
 ! D5    D(3,1,5,7)             -0.146                   3.7                    !
 ! D6    D(3,1,5,8)             -0.0336                  0.8                    !
 ! D8    D(4,1,5,7)             -0.0629                  1.6                    !
 ! D9    D(4,1,5,8)              0.0496                  1.2                    !
 ! D19   D(5,8,11,12)            0.0999                  2.5                    !
 ! D20   D(5,8,11,13)           -0.0496                  1.2                    !
 ! D21   D(5,8,11,14)            0.0336                  0.8                    !
 ! D22   D(9,8,11,12)            0.1664                  4.2                    !
 ! D24   D(9,8,11,14)            0.1001                  2.5                    !
 ! D25   D(10,8,11,12)           0.2124                  5.3                    !
 ! D26   D(10,8,11,13)           0.0629                  1.6                    !
 ! D27   D(10,8,11,14)           0.146                   3.7                    !
 --------------------------------------------------------------------------------
                           ----------------------------
                           ! Normal Mode    11        !
 --------------------------                            --------------------------
 ! Name  Definition              Value          Relative Weight (%)             !
 --------------------------------------------------------------------------------
 ! R4    R(1,5)                  0.1208                  2.5                    !
 ! R10   R(8,11)                 0.1208                  2.5                    !
 ! A2    A(2,1,4)               -0.0566                  1.2                    !
 ! A3    A(2,1,5)               -0.237                   5.0                    !
 ! A4    A(3,1,4)                0.0489                  1.0                    !
 ! A5    A(3,1,5)                0.2135                  4.5                    !
 ! A6    A(4,1,5)                0.0342                  0.7                    !
 ! A7    A(1,5,6)               -0.0305                  0.6                    !
 ! A8    A(1,5,7)               -0.1125                  2.4                    !
 ! A9    A(1,5,8)               -0.0376                  0.8                    !
 ! A12   A(7,5,8)                0.1878                  3.9                    !
 ! A14   A(5,8,10)               0.1878                  3.9                    !
 ! A15   A(5,8,11)              -0.0376                  0.8                    !
 ! A17   A(9,8,11)              -0.0305                  0.6                    !
 ! A18   A(10,8,11)             -0.1125                  2.4                    !
 ! A19   A(8,11,12)             -0.237                   5.0                    !
 ! A20   A(8,11,13)              0.0342                  0.7                    !
 ! A21   A(8,11,14)              0.2135                  4.5                    !
 ! A22   A(12,11,13)            -0.0566                  1.2                    !
 ! A24   A(13,11,14)             0.0489                  1.0                    !
 ! D1    D(2,1,5,6)              0.1126                  2.4                    !
 ! D2    D(2,1,5,7)              0.1937                  4.1                    !
 ! D3    D(2,1,5,8)              0.0596                  1.2                    !
 ! D4    D(3,1,5,6)              0.1357                  2.8                    !
 ! D5    D(3,1,5,7)              0.2169                  4.5                    !
 ! D6    D(3,1,5,8)              0.0828                  1.7                    !
 ! D7    D(4,1,5,6)             -0.0914                  1.9                    !
 ! D9    D(4,1,5,8)             -0.1443                  3.0                    !
 ! D11   D(1,5,8,10)             0.0812                  1.7                    !
 ! D12   D(1,5,8,11)             0.0473                  1.0                    !
 ! D13   D(6,5,8,9)             -0.0877                  1.8                    !
 ! D17   D(7,5,8,10)             0.115                   2.4                    !
 ! D18   D(7,5,8,11)             0.0812                  1.7                    !
 ! D19   D(5,8,11,12)            0.0596                  1.2                    !
 ! D20   D(5,8,11,13)           -0.1443                  3.0                    !
 ! D21   D(5,8,11,14)            0.0828                  1.7                    !
 ! D22   D(9,8,11,12)            0.1126                  2.4                    !
 ! D23   D(9,8,11,13)           -0.0914                  1.9                    !
 ! D24   D(9,8,11,14)            0.1357                  2.8                    !
 ! D25   D(10,8,11,12)           0.1937                  4.1                    !
 ! D27   D(10,8,11,14)           0.2169                  4.5                    !
 --------------------------------------------------------------------------------
                           ----------------------------
                           ! Normal Mode    12        !
 --------------------------                            --------------------------
 ! Name  Definition              Value          Relative Weight (%)             !
 --------------------------------------------------------------------------------
 ! R4    R(1,5)                 -0.2615                  7.8                    !
 ! R7    R(5,8)                  0.3162                  9.5                    !
 ! R10   R(8,11)                -0.2615                  7.8                    !
 ! A3    A(2,1,5)               -0.0467                  1.4                    !
 ! A4    A(3,1,4)                0.0276                  0.8                    !
 ! A5    A(3,1,5)                0.0329                  1.0                    !
 ! A6    A(4,1,5)               -0.0257                  0.8                    !
 ! A7    A(1,5,6)               -0.1098                  3.3                    !
 ! A8    A(1,5,7)               -0.0744                  2.2                    !
 ! A11   A(6,5,8)                0.0669                  2.0                    !
 ! A12   A(7,5,8)                0.1301                  3.9                    !
 ! A13   A(5,8,9)                0.0669                  2.0                    !
 ! A14   A(5,8,10)               0.1301                  3.9                    !
 ! A17   A(9,8,11)              -0.1098                  3.3                    !
 ! A18   A(10,8,11)             -0.0744                  2.2                    !
 ! A19   A(8,11,12)             -0.0467                  1.4                    !
 ! A20   A(8,11,13)             -0.0257                  0.8                    !
 ! A21   A(8,11,14)              0.0329                  1.0                    !
 ! A24   A(13,11,14)             0.0276                  0.8                    !
 ! D2    D(2,1,5,7)              0.089                   2.7                    !
 ! D5    D(3,1,5,7)              0.0801                  2.4                    !
 ! D6    D(3,1,5,8)             -0.0229                  0.7                    !
 ! D7    D(4,1,5,6)             -0.058                   1.7                    !
 ! D8    D(4,1,5,7)              0.0408                  1.2                    !
 ! D9    D(4,1,5,8)             -0.0623                  1.9                    !
 ! D10   D(1,5,8,9)             -0.0623                  1.9                    !
 ! D11   D(1,5,8,10)             0.0514                  1.5                    !
 ! D12   D(1,5,8,11)             0.0401                  1.2                    !
 ! D13   D(6,5,8,9)             -0.1647                  4.9                    !
 ! D14   D(6,5,8,10)            -0.051                   1.5                    !
 ! D15   D(6,5,8,11)            -0.0623                  1.9                    !
 ! D16   D(7,5,8,9)             -0.051                   1.5                    !
 ! D17   D(7,5,8,10)             0.0627                  1.9                    !
 ! D18   D(7,5,8,11)             0.0514                  1.5                    !
 ! D20   D(5,8,11,13)           -0.0623                  1.9                    !
 ! D21   D(5,8,11,14)           -0.0229                  0.7                    !
 ! D23   D(9,8,11,13)           -0.058                   1.7                    !
 ! D25   D(10,8,11,12)           0.089                   2.7                    !
 ! D26   D(10,8,11,13)           0.0408                  1.2                    !
 ! D27   D(10,8,11,14)           0.0801                  2.4                    !
 --------------------------------------------------------------------------------
                           ----------------------------
                           ! Normal Mode    13        !
 --------------------------                            --------------------------
 ! Name  Definition              Value          Relative Weight (%)             !
 --------------------------------------------------------------------------------
 ! R4    R(1,5)                  0.1399                  2.2                    !
 ! R10   R(8,11)                -0.1399                  2.2                    !
 ! A2    A(2,1,4)               -0.0919                  1.5                    !
 ! A3    A(2,1,5)               -0.261                   4.2                    !
 ! A4    A(3,1,4)                0.0767                  1.2                    !
 ! A5    A(3,1,5)                0.2588                  4.2                    !
 ! A6    A(4,1,5)                0.0469                  0.8                    !
 ! A8    A(1,5,7)                0.0975                  1.6                    !
 ! A9    A(1,5,8)               -0.1536                  2.5                    !
 ! A11   A(6,5,8)               -0.1106                  1.8                    !
 ! A12   A(7,5,8)                0.1481                  2.4                    !
 ! A13   A(5,8,9)                0.1106                  1.8                    !
 ! A14   A(5,8,10)              -0.1481                  2.4                    !
 ! A15   A(5,8,11)               0.1536                  2.5                    !
 ! A18   A(10,8,11)             -0.0975                  1.6                    !
 ! A19   A(8,11,12)              0.261                   4.2                    !
 ! A20   A(8,11,13)             -0.0469                  0.8                    !
 ! A21   A(8,11,14)             -0.2588                  4.2                    !
 ! A22   A(12,11,13)             0.0919                  1.5                    !
 ! A24   A(13,11,14)            -0.0767                  1.2                    !
 ! D1    D(2,1,5,6)              0.2371                  3.8                    !
 ! D2    D(2,1,5,7)              0.1506                  2.4                    !
 ! D4    D(3,1,5,6)              0.2826                  4.5                    !
 ! D5    D(3,1,5,7)              0.196                   3.1                    !
 ! D6    D(3,1,5,8)              0.0395                  0.6                    !
 ! D8    D(4,1,5,7)             -0.1051                  1.7                    !
 ! D9    D(4,1,5,8)             -0.2616                  4.2                    !
 ! D10   D(1,5,8,9)              0.1763                  2.8                    !
 ! D11   D(1,5,8,10)             0.1285                  2.1                    !
 ! D14   D(6,5,8,10)            -0.0479                  0.8                    !
 ! D15   D(6,5,8,11)            -0.1763                  2.8                    !
 ! D16   D(7,5,8,9)              0.0479                  0.8                    !
 ! D18   D(7,5,8,11)            -0.1285                  2.1                    !
 ! D20   D(5,8,11,13)            0.2616                  4.2                    !
 ! D21   D(5,8,11,14)           -0.0395                  0.6                    !
 ! D22   D(9,8,11,12)           -0.2371                  3.8                    !
 ! D24   D(9,8,11,14)           -0.2826                  4.5                    !
 ! D25   D(10,8,11,12)          -0.1506                  2.4                    !
 ! D26   D(10,8,11,13)           0.1051                  1.7                    !
 ! D27   D(10,8,11,14)          -0.196                   3.1                    !
 --------------------------------------------------------------------------------
                           ----------------------------
                           ! Normal Mode    14        !
 --------------------------                            --------------------------
 ! Name  Definition              Value          Relative Weight (%)             !
 --------------------------------------------------------------------------------
 ! R7    R(5,8)                 -0.1309                  1.6                    !
 ! A1    A(2,1,3)                0.1119                  1.4                    !
 ! A3    A(2,1,5)                0.1206                  1.5                    !
 ! A5    A(3,1,5)                0.1492                  1.8                    !
 ! A6    A(4,1,5)               -0.2914                  3.6                    !
 ! A7    A(1,5,6)               -0.1375                  1.7                    !
 ! A8    A(1,5,7)                0.1144                  1.4                    !
 ! A9    A(1,5,8)                0.1014                  1.2                    !
 ! A11   A(6,5,8)               -0.2153                  2.6                    !
 ! A12   A(7,5,8)                0.1432                  1.7                    !
 ! A13   A(5,8,9)               -0.2153                  2.6                    !
 ! A14   A(5,8,10)               0.1432                  1.7                    !
 ! A15   A(5,8,11)               0.1014                  1.2                    !
 ! A17   A(9,8,11)              -0.1375                  1.7                    !
 ! A18   A(10,8,11)              0.1144                  1.4                    !
 ! A19   A(8,11,12)              0.1206                  1.5                    !
 ! A20   A(8,11,13)             -0.2914                  3.6                    !
 ! A21   A(8,11,14)              0.1492                  1.8                    !
 ! A23   A(12,11,14)             0.1119                  1.4                    !
 ! D1    D(2,1,5,6)              0.3438                  4.2                    !
 ! D2    D(2,1,5,7)              0.3697                  4.5                    !
 ! D6    D(3,1,5,8)             -0.2892                  3.5                    !
 ! D7    D(4,1,5,6)              0.1664                  2.0                    !
 ! D8    D(4,1,5,7)              0.1923                  2.3                    !
 ! D9    D(4,1,5,8)             -0.142                   1.7                    !
 ! D11   D(1,5,8,10)            -0.0696                  0.8                    !
 ! D12   D(1,5,8,11)             0.2479                  3.0                    !
 ! D13   D(6,5,8,9)             -0.2818                  3.4                    !
 ! D14   D(6,5,8,10)            -0.3344                  4.1                    !
 ! D16   D(7,5,8,9)             -0.3344                  4.1                    !
 ! D17   D(7,5,8,10)            -0.3871                  4.7                    !
 ! D18   D(7,5,8,11)            -0.0696                  0.8                    !
 ! D20   D(5,8,11,13)           -0.142                   1.7                    !
 ! D21   D(5,8,11,14)           -0.2892                  3.5                    !
 ! D22   D(9,8,11,12)            0.3438                  4.2                    !
 ! D23   D(9,8,11,13)            0.1664                  2.0                    !
 ! D25   D(10,8,11,12)           0.3697                  4.5                    !
 ! D26   D(10,8,11,13)           0.1923                  2.3                    !
 --------------------------------------------------------------------------------
                           ----------------------------
                           ! Normal Mode    15        !
 --------------------------                            --------------------------
 ! Name  Definition              Value          Relative Weight (%)             !
 --------------------------------------------------------------------------------
 ! A1    A(2,1,3)                0.0816                  1.5                    !
 ! A2    A(2,1,4)               -0.0681                  1.3                    !
 ! A5    A(3,1,5)                0.1287                  2.4                    !
 ! A6    A(4,1,5)               -0.1617                  3.0                    !
 ! A7    A(1,5,6)               -0.3126                  5.9                    !
 ! A8    A(1,5,7)                0.1621                  3.0                    !
 ! A11   A(6,5,8)                0.2036                  3.8                    !
 ! A12   A(7,5,8)               -0.0689                  1.3                    !
 ! A13   A(5,8,9)               -0.2036                  3.8                    !
 ! A14   A(5,8,10)               0.0689                  1.3                    !
 ! A17   A(9,8,11)               0.3126                  5.9                    !
 ! A18   A(10,8,11)             -0.1621                  3.0                    !
 ! A20   A(8,11,13)              0.1617                  3.0                    !
 ! A21   A(8,11,14)             -0.1287                  2.4                    !
 ! A22   A(12,11,13)             0.0681                  1.3                    !
 ! A23   A(12,11,14)            -0.0816                  1.5                    !
 ! D2    D(2,1,5,7)              0.1293                  2.4                    !
 ! D3    D(2,1,5,8)              0.0972                  1.8                    !
 ! D4    D(3,1,5,6)             -0.163                   3.1                    !
 ! D5    D(3,1,5,7)             -0.0937                  1.8                    !
 ! D6    D(3,1,5,8)             -0.1259                  2.4                    !
 ! D7    D(4,1,5,6)             -0.1006                  1.9                    !
 ! D10   D(1,5,8,9)              0.2497                  4.7                    !
 ! D11   D(1,5,8,10)             0.1612                  3.0                    !
 ! D14   D(6,5,8,10)            -0.0885                  1.7                    !
 ! D15   D(6,5,8,11)            -0.2497                  4.7                    !
 ! D16   D(7,5,8,9)              0.0885                  1.7                    !
 ! D18   D(7,5,8,11)            -0.1612                  3.0                    !
 ! D19   D(5,8,11,12)           -0.0972                  1.8                    !
 ! D21   D(5,8,11,14)            0.1259                  2.4                    !
 ! D23   D(9,8,11,13)            0.1006                  1.9                    !
 ! D24   D(9,8,11,14)            0.163                   3.1                    !
 ! D25   D(10,8,11,12)          -0.1293                  2.4                    !
 ! D27   D(10,8,11,14)           0.0937                  1.8                    !
 --------------------------------------------------------------------------------
                           ----------------------------
                           ! Normal Mode    16        !
 --------------------------                            --------------------------
 ! Name  Definition              Value          Relative Weight (%)             !
 --------------------------------------------------------------------------------
 ! R7    R(5,8)                 -0.103                   1.9                    !
 ! A2    A(2,1,4)                0.0643                  1.2                    !
 ! A3    A(2,1,5)                0.0835                  1.5                    !
 ! A4    A(3,1,4)               -0.0486                  0.9                    !
 ! A5    A(3,1,5)               -0.1268                  2.3                    !
 ! A6    A(4,1,5)                0.0368                  0.7                    !
 ! A7    A(1,5,6)                0.1325                  2.4                    !
 ! A8    A(1,5,7)               -0.2875                  5.3                    !
 ! A11   A(6,5,8)               -0.1373                  2.5                    !
 ! A12   A(7,5,8)                0.2467                  4.5                    !
 ! A13   A(5,8,9)               -0.1373                  2.5                    !
 ! A14   A(5,8,10)               0.2467                  4.5                    !
 ! A17   A(9,8,11)               0.1325                  2.4                    !
 ! A18   A(10,8,11)             -0.2875                  5.3                    !
 ! A19   A(8,11,12)              0.0835                  1.5                    !
 ! A20   A(8,11,13)              0.0368                  0.7                    !
 ! A21   A(8,11,14)             -0.1268                  2.3                    !
 ! A22   A(12,11,13)             0.0643                  1.2                    !
 ! A24   A(13,11,14)            -0.0486                  0.9                    !
 ! D2    D(2,1,5,7)              0.0684                  1.3                    !
 ! D3    D(2,1,5,8)             -0.0628                  1.2                    !
 ! D5    D(3,1,5,7)              0.1073                  2.0                    !
 ! D7    D(4,1,5,6)              0.154                   2.8                    !
 ! D8    D(4,1,5,7)              0.2283                  4.2                    !
 ! D9    D(4,1,5,8)              0.0971                  1.8                    !
 ! D10   D(1,5,8,9)              0.0565                  1.0                    !
 ! D11   D(1,5,8,10)             0.131                   2.4                    !
 ! D12   D(1,5,8,11)            -0.0366                  0.7                    !
 ! D13   D(6,5,8,9)              0.1495                  2.7                    !
 ! D14   D(6,5,8,10)             0.2241                  4.1                    !
 ! D15   D(6,5,8,11)             0.0565                  1.0                    !
 ! D16   D(7,5,8,9)              0.2241                  4.1                    !
 ! D17   D(7,5,8,10)             0.2986                  5.5                    !
 ! D18   D(7,5,8,11)             0.131                   2.4                    !
 ! D19   D(5,8,11,12)           -0.0628                  1.2                    !
 ! D20   D(5,8,11,13)            0.0971                  1.8                    !
 ! D23   D(9,8,11,13)            0.154                   2.8                    !
 ! D25   D(10,8,11,12)           0.0684                  1.3                    !
 ! D26   D(10,8,11,13)           0.2283                  4.2                    !
 ! D27   D(10,8,11,14)           0.1073                  2.0                    !
 --------------------------------------------------------------------------------
                           ----------------------------
                           ! Normal Mode    17        !
 --------------------------                            --------------------------
 ! Name  Definition              Value          Relative Weight (%)             !
 --------------------------------------------------------------------------------
 ! R4    R(1,5)                  0.0724                  1.2                    !
 ! R10   R(8,11)                -0.0724                  1.2                    !
 ! A1    A(2,1,3)               -0.1061                  1.7                    !
 ! A2    A(2,1,4)               -0.0845                  1.3                    !
 ! A3    A(2,1,5)                0.1569                  2.5                    !
 ! A4    A(3,1,4)               -0.14                    2.2                    !
 ! A5    A(3,1,5)                0.0674                  1.1                    !
 ! A6    A(4,1,5)                0.0882                  1.4                    !
 ! A7    A(1,5,6)               -0.1628                  2.6                    !
 ! A8    A(1,5,7)               -0.2845                  4.5                    !
 ! A11   A(6,5,8)                0.1466                  2.3                    !
 ! A12   A(7,5,8)                0.3403                  5.4                    !
 ! A13   A(5,8,9)               -0.1466                  2.3                    !
 ! A14   A(5,8,10)              -0.3403                  5.4                    !
 ! A17   A(9,8,11)               0.1628                  2.6                    !
 ! A18   A(10,8,11)              0.2845                  4.5                    !
 ! A19   A(8,11,12)             -0.1569                  2.5                    !
 ! A20   A(8,11,13)             -0.0882                  1.4                    !
 ! A21   A(8,11,14)             -0.0674                  1.1                    !
 ! A22   A(12,11,13)             0.0845                  1.3                    !
 ! A23   A(12,11,14)             0.1061                  1.7                    !
 ! A24   A(13,11,14)             0.14                    2.2                    !
 ! D1    D(2,1,5,6)             -0.0958                  1.5                    !
 ! D2    D(2,1,5,7)              0.1768                  2.8                    !
 ! D3    D(2,1,5,8)             -0.0401                  0.6                    !
 ! D4    D(3,1,5,6)             -0.1133                  1.8                    !
 ! D5    D(3,1,5,7)              0.1593                  2.5                    !
 ! D6    D(3,1,5,8)             -0.0576                  0.9                    !
 ! D7    D(4,1,5,6)             -0.0408                  0.6                    !
 ! D8    D(4,1,5,7)              0.2317                  3.7                    !
 ! D10   D(1,5,8,9)              0.1162                  1.8                    !
 ! D11   D(1,5,8,10)            -0.1325                  2.1                    !
 ! D14   D(6,5,8,10)            -0.2487                  4.0                    !
 ! D15   D(6,5,8,11)            -0.1162                  1.8                    !
 ! D16   D(7,5,8,9)              0.2487                  4.0                    !
 ! D18   D(7,5,8,11)             0.1325                  2.1                    !
 ! D19   D(5,8,11,12)            0.0401                  0.6                    !
 ! D21   D(5,8,11,14)            0.0576                  0.9                    !
 ! D22   D(9,8,11,12)            0.0958                  1.5                    !
 ! D23   D(9,8,11,13)            0.0408                  0.6                    !
 ! D24   D(9,8,11,14)            0.1133                  1.8                    !
 ! D25   D(10,8,11,12)          -0.1768                  2.8                    !
 ! D26   D(10,8,11,13)          -0.2317                  3.7                    !
 ! D27   D(10,8,11,14)          -0.1593                  2.5                    !
 --------------------------------------------------------------------------------
                           ----------------------------
                           ! Normal Mode    18        !
 --------------------------                            --------------------------
 ! Name  Definition              Value          Relative Weight (%)             !
 --------------------------------------------------------------------------------
 ! R4    R(1,5)                  0.1163                  1.7                    !
 ! R7    R(5,8)                 -0.266                   3.9                    !
 ! R10   R(8,11)                 0.1163                  1.7                    !
 ! A3    A(2,1,5)                0.1303                  1.9                    !
 ! A4    A(3,1,4)               -0.1359                  2.0                    !
 ! A7    A(1,5,6)               -0.3241                  4.7                    !
 ! A8    A(1,5,7)               -0.1902                  2.8                    !
 ! A11   A(6,5,8)                0.3858                  5.6                    !
 ! A12   A(7,5,8)                0.1175                  1.7                    !
 ! A13   A(5,8,9)                0.3858                  5.6                    !
 ! A14   A(5,8,10)               0.1175                  1.7                    !
 ! A17   A(9,8,11)              -0.3241                  4.7                    !
 ! A18   A(10,8,11)             -0.1902                  2.8                    !
 ! A19   A(8,11,12)              0.1303                  1.9                    !
 ! A24   A(13,11,14)            -0.1359                  2.0                    !
 ! D1    D(2,1,5,6)             -0.2329                  3.4                    !
 ! D2    D(2,1,5,7)              0.0772                  1.1                    !
 ! D3    D(2,1,5,8)              0.0456                  0.7                    !
 ! D4    D(3,1,5,6)             -0.335                   4.9                    !
 ! D6    D(3,1,5,8)             -0.0564                  0.8                    !
 ! D7    D(4,1,5,6)             -0.1435                  2.1                    !
 ! D8    D(4,1,5,7)              0.1666                  2.4                    !
 ! D9    D(4,1,5,8)              0.135                   2.0                    !
 ! D10   D(1,5,8,9)             -0.1651                  2.4                    !
 ! D11   D(1,5,8,10)             0.0918                  1.3                    !
 ! D12   D(1,5,8,11)            -0.0487                  0.7                    !
 ! D13   D(6,5,8,9)             -0.2816                  4.1                    !
 ! D15   D(6,5,8,11)            -0.1651                  2.4                    !
 ! D17   D(7,5,8,10)             0.2323                  3.4                    !
 ! D18   D(7,5,8,11)             0.0918                  1.3                    !
 ! D19   D(5,8,11,12)            0.0456                  0.7                    !
 ! D20   D(5,8,11,13)            0.135                   2.0                    !
 ! D21   D(5,8,11,14)           -0.0564                  0.8                    !
 ! D22   D(9,8,11,12)           -0.2329                  3.4                    !
 ! D23   D(9,8,11,13)           -0.1435                  2.1                    !
 ! D24   D(9,8,11,14)           -0.335                   4.9                    !
 ! D25   D(10,8,11,12)           0.0772                  1.1                    !
 ! D26   D(10,8,11,13)           0.1666                  2.4                    !
 --------------------------------------------------------------------------------
                           ----------------------------
                           ! Normal Mode    19        !
 --------------------------                            --------------------------
 ! Name  Definition              Value          Relative Weight (%)             !
 --------------------------------------------------------------------------------
 ! R4    R(1,5)                 -0.1177                  2.7                    !
 ! R7    R(5,8)                  0.0382                  0.9                    !
 ! R10   R(8,11)                -0.1177                  2.7                    !
 ! A1    A(2,1,3)               -0.2246                  5.1                    !
 ! A2    A(2,1,4)               -0.2888                  6.6                    !
 ! A3    A(2,1,5)                0.2284                  5.2                    !
 ! A4    A(3,1,4)               -0.2437                  5.5                    !
 ! A5    A(3,1,5)                0.2377                  5.4                    !
 ! A6    A(4,1,5)                0.2487                  5.7                    !
 ! A10   A(6,5,7)                0.0604                  1.4                    !
 ! A11   A(6,5,8)               -0.0552                  1.3                    !
 ! A13   A(5,8,9)               -0.0552                  1.3                    !
 ! A16   A(9,8,10)               0.0604                  1.4                    !
 ! A19   A(8,11,12)              0.2284                  5.2                    !
 ! A20   A(8,11,13)              0.2487                  5.7                    !
 ! A21   A(8,11,14)              0.2377                  5.4                    !
 ! A22   A(12,11,13)            -0.2888                  6.6                    !
 ! A23   A(12,11,14)            -0.2246                  5.1                    !
 ! A24   A(13,11,14)            -0.2437                  5.5                    !
 ! D1    D(2,1,5,6)              0.0805                  1.8                    !
 ! D4    D(3,1,5,6)              0.05                    1.1                    !
 ! D5    D(3,1,5,7)             -0.0359                  0.8                    !
 ! D7    D(4,1,5,6)              0.0317                  0.7                    !
 ! D8    D(4,1,5,7)             -0.0542                  1.2                    !
 ! D9    D(4,1,5,8)             -0.0284                  0.6                    !
 ! D13   D(6,5,8,9)             -0.0283                  0.6                    !
 ! D17   D(7,5,8,10)             0.0307                  0.7                    !
 ! D20   D(5,8,11,13)           -0.0284                  0.6                    !
 ! D22   D(9,8,11,12)            0.0805                  1.8                    !
 ! D23   D(9,8,11,13)            0.0317                  0.7                    !
 ! D24   D(9,8,11,14)            0.05                    1.1                    !
 ! D26   D(10,8,11,13)          -0.0542                  1.2                    !
 ! D27   D(10,8,11,14)          -0.0359                  0.8                    !
 --------------------------------------------------------------------------------
                           ----------------------------
                           ! Normal Mode    20        !
 --------------------------                            --------------------------
 ! Name  Definition              Value          Relative Weight (%)             !
 --------------------------------------------------------------------------------
 ! R4    R(1,5)                 -0.1606                  3.0                    !
 ! R10   R(8,11)                 0.1606                  3.0                    !
 ! A1    A(2,1,3)               -0.2693                  5.0                    !
 ! A2    A(2,1,4)               -0.253                   4.7                    !
 ! A3    A(2,1,5)                0.2179                  4.0                    !
 ! A4    A(3,1,4)               -0.1945                  3.6                    !
 ! A5    A(3,1,5)                0.2305                  4.3                    !
 ! A6    A(4,1,5)                0.2288                  4.2                    !
 ! A7    A(1,5,6)                0.0824                  1.5                    !
 ! A8    A(1,5,7)                0.1233                  2.3                    !
 ! A11   A(6,5,8)               -0.0651                  1.2                    !
 ! A12   A(7,5,8)               -0.1573                  2.9                    !
 ! A13   A(5,8,9)                0.0651                  1.2                    !
 ! A14   A(5,8,10)               0.1573                  2.9                    !
 ! A17   A(9,8,11)              -0.0824                  1.5                    !
 ! A18   A(10,8,11)             -0.1233                  2.3                    !
 ! A19   A(8,11,12)             -0.2179                  4.0                    !
 ! A20   A(8,11,13)             -0.2288                  4.2                    !
 ! A21   A(8,11,14)             -0.2305                  4.3                    !
 ! A22   A(12,11,13)             0.253                   4.7                    !
 ! A23   A(12,11,14)             0.2693                  5.0                    !
 ! A24   A(13,11,14)             0.1945                  3.6                    !
 ! D2    D(2,1,5,7)             -0.0882                  1.6                    !
 ! D4    D(3,1,5,6)              0.0624                  1.2                    !
 ! D5    D(3,1,5,7)             -0.05                    0.9                    !
 ! D6    D(3,1,5,8)              0.0508                  0.9                    !
 ! D8    D(4,1,5,7)             -0.1122                  2.1                    !
 ! D10   D(1,5,8,9)             -0.0702                  1.3                    !
 ! D11   D(1,5,8,10)             0.0561                  1.0                    !
 ! D14   D(6,5,8,10)             0.1263                  2.3                    !
 ! D15   D(6,5,8,11)             0.0702                  1.3                    !
 ! D16   D(7,5,8,9)             -0.1263                  2.3                    !
 ! D18   D(7,5,8,11)            -0.0561                  1.0                    !
 ! D21   D(5,8,11,14)           -0.0508                  0.9                    !
 ! D24   D(9,8,11,14)           -0.0624                  1.2                    !
 ! D25   D(10,8,11,12)           0.0882                  1.6                    !
 ! D26   D(10,8,11,13)           0.1122                  2.1                    !
 ! D27   D(10,8,11,14)           0.05                    0.9                    !
 --------------------------------------------------------------------------------
                           ----------------------------
                           ! Normal Mode    21        !
 --------------------------                            --------------------------
 ! Name  Definition              Value          Relative Weight (%)             !
 --------------------------------------------------------------------------------
 ! A1    A(2,1,3)                0.2268                  2.9                    !
 ! A2    A(2,1,4)               -0.1329                  1.7                    !
 ! A4    A(3,1,4)               -0.1012                  1.3                    !
 ! A6    A(4,1,5)                0.0538                  0.7                    !
 ! A7    A(1,5,6)                0.1061                  1.4                    !
 ! A8    A(1,5,7)                0.1088                  1.4                    !
 ! A10   A(6,5,7)               -0.4511                  5.8                    !
 ! A11   A(6,5,8)                0.0934                  1.2                    !
 ! A12   A(7,5,8)                0.0729                  0.9                    !
 ! A13   A(5,8,9)               -0.0934                  1.2                    !
 ! A14   A(5,8,10)              -0.0729                  0.9                    !
 ! A16   A(9,8,10)               0.4511                  5.8                    !
 ! A17   A(9,8,11)              -0.1061                  1.4                    !
 ! A18   A(10,8,11)             -0.1088                  1.4                    !
 ! A20   A(8,11,13)             -0.0538                  0.7                    !
 ! A22   A(12,11,13)             0.1329                  1.7                    !
 ! A23   A(12,11,14)            -0.2268                  2.9                    !
 ! A24   A(13,11,14)             0.1012                  1.3                    !
 ! D1    D(2,1,5,6)             -0.0797                  1.0                    !
 ! D2    D(2,1,5,7)              0.3406                  4.3                    !
 ! D3    D(2,1,5,8)              0.1438                  1.8                    !
 ! D4    D(3,1,5,6)             -0.3349                  4.3                    !
 ! D5    D(3,1,5,7)              0.0854                  1.1                    !
 ! D6    D(3,1,5,8)             -0.1114                  1.4                    !
 ! D7    D(4,1,5,6)             -0.2213                  2.8                    !
 ! D8    D(4,1,5,7)              0.1991                  2.5                    !
 ! D10   D(1,5,8,9)             -0.2299                  2.9                    !
 ! D11   D(1,5,8,10)             0.2165                  2.8                    !
 ! D14   D(6,5,8,10)             0.4464                  5.7                    !
 ! D15   D(6,5,8,11)             0.2299                  2.9                    !
 ! D16   D(7,5,8,9)             -0.4464                  5.7                    !
 ! D18   D(7,5,8,11)            -0.2165                  2.8                    !
 ! D19   D(5,8,11,12)           -0.1438                  1.8                    !
 ! D21   D(5,8,11,14)            0.1114                  1.4                    !
 ! D22   D(9,8,11,12)            0.0797                  1.0                    !
 ! D23   D(9,8,11,13)            0.2213                  2.8                    !
 ! D24   D(9,8,11,14)            0.3349                  4.3                    !
 ! D25   D(10,8,11,12)          -0.3406                  4.3                    !
 ! D26   D(10,8,11,13)          -0.1991                  2.5                    !
 ! D27   D(10,8,11,14)          -0.0854                  1.1                    !
 --------------------------------------------------------------------------------
                           ----------------------------
                           ! Normal Mode    22        !
 --------------------------                            --------------------------
 ! Name  Definition              Value          Relative Weight (%)             !
 --------------------------------------------------------------------------------
 ! R4    R(1,5)                 -0.0498                  0.6                    !
 ! R10   R(8,11)                -0.0498                  0.6                    !
 ! A1    A(2,1,3)               -0.0552                  0.7                    !
 ! A2    A(2,1,4)                0.2402                  3.1                    !
 ! A4    A(3,1,4)               -0.2588                  3.4                    !
 ! A5    A(3,1,5)                0.0881                  1.1                    !
 ! A7    A(1,5,6)                0.1119                  1.5                    !
 ! A8    A(1,5,7)                0.105                   1.4                    !
 ! A10   A(6,5,7)               -0.3968                  5.2                    !
 ! A12   A(7,5,8)                0.083                   1.1                    !
 ! A14   A(5,8,10)               0.083                   1.1                    !
 ! A16   A(9,8,10)              -0.3968                  5.2                    !
 ! A17   A(9,8,11)               0.1119                  1.5                    !
 ! A18   A(10,8,11)              0.105                   1.4                    !
 ! A21   A(8,11,14)              0.0881                  1.1                    !
 ! A22   A(12,11,13)             0.2402                  3.1                    !
 ! A23   A(12,11,14)            -0.0552                  0.7                    !
 ! A24   A(13,11,14)            -0.2588                  3.4                    !
 ! D1    D(2,1,5,6)             -0.2798                  3.6                    !
 ! D2    D(2,1,5,7)              0.0742                  1.0                    !
 ! D3    D(2,1,5,8)             -0.1234                  1.6                    !
 ! D4    D(3,1,5,6)             -0.248                   3.2                    !
 ! D5    D(3,1,5,7)              0.106                   1.4                    !
 ! D6    D(3,1,5,8)             -0.0917                  1.2                    !
 ! D8    D(4,1,5,7)              0.3651                  4.8                    !
 ! D9    D(4,1,5,8)              0.1674                  2.2                    !
 ! D10   D(1,5,8,9)              0.1969                  2.6                    !
 ! D11   D(1,5,8,10)            -0.2055                  2.7                    !
 ! D13   D(6,5,8,9)              0.3897                  5.1                    !
 ! D15   D(6,5,8,11)             0.1969                  2.6                    !
 ! D17   D(7,5,8,10)            -0.4151                  5.4                    !
 ! D18   D(7,5,8,11)            -0.2055                  2.7                    !
 ! D19   D(5,8,11,12)           -0.1234                  1.6                    !
 ! D20   D(5,8,11,13)            0.1674                  2.2                    !
 ! D21   D(5,8,11,14)           -0.0917                  1.2                    !
 ! D22   D(9,8,11,12)           -0.2798                  3.6                    !
 ! D24   D(9,8,11,14)           -0.248                   3.2                    !
 ! D25   D(10,8,11,12)           0.0742                  1.0                    !
 ! D26   D(10,8,11,13)           0.3651                  4.8                    !
 ! D27   D(10,8,11,14)           0.106                   1.4                    !
 --------------------------------------------------------------------------------
                           ----------------------------
                           ! Normal Mode    23        !
 --------------------------                            --------------------------
 ! Name  Definition              Value          Relative Weight (%)             !
 --------------------------------------------------------------------------------
 ! A1    A(2,1,3)                0.2692                  3.9                    !
 ! A2    A(2,1,4)               -0.4122                  6.0                    !
 ! A4    A(3,1,4)                0.139                   2.0                    !
 ! A5    A(3,1,5)               -0.1086                  1.6                    !
 ! A6    A(4,1,5)                0.0796                  1.2                    !
 ! A8    A(1,5,7)               -0.0601                  0.9                    !
 ! A10   A(6,5,7)                0.1937                  2.8                    !
 ! A11   A(6,5,8)               -0.0491                  0.7                    !
 ! A13   A(5,8,9)                0.0491                  0.7                    !
 ! A16   A(9,8,10)              -0.1937                  2.8                    !
 ! A18   A(10,8,11)              0.0601                  0.9                    !
 ! A20   A(8,11,13)             -0.0796                  1.2                    !
 ! A21   A(8,11,14)              0.1086                  1.6                    !
 ! A22   A(12,11,13)             0.4122                  6.0                    !
 ! A23   A(12,11,14)            -0.2692                  3.9                    !
 ! A24   A(13,11,14)            -0.139                   2.0                    !
 ! D1    D(2,1,5,6)              0.3355                  4.9                    !
 ! D2    D(2,1,5,7)              0.1552                  2.3                    !
 ! D3    D(2,1,5,8)              0.2395                  3.5                    !
 ! D4    D(3,1,5,6)              0.047                   0.7                    !
 ! D5    D(3,1,5,7)             -0.1333                  2.0                    !
 ! D6    D(3,1,5,8)             -0.049                   0.7                    !
 ! D7    D(4,1,5,6)             -0.1104                  1.6                    !
 ! D8    D(4,1,5,7)             -0.2907                  4.3                    !
 ! D9    D(4,1,5,8)             -0.2064                  3.0                    !
 ! D10   D(1,5,8,9)              0.0865                  1.3                    !
 ! D11   D(1,5,8,10)            -0.1037                  1.5                    !
 ! D14   D(6,5,8,10)            -0.1902                  2.8                    !
 ! D15   D(6,5,8,11)            -0.0865                  1.3                    !
 ! D16   D(7,5,8,9)              0.1902                  2.8                    !
 ! D18   D(7,5,8,11)             0.1037                  1.5                    !
 ! D19   D(5,8,11,12)           -0.2395                  3.5                    !
 ! D20   D(5,8,11,13)            0.2064                  3.0                    !
 ! D21   D(5,8,11,14)            0.049                   0.7                    !
 ! D22   D(9,8,11,12)           -0.3355                  4.9                    !
 ! D23   D(9,8,11,13)            0.1104                  1.6                    !
 ! D24   D(9,8,11,14)           -0.047                   0.7                    !
 ! D25   D(10,8,11,12)          -0.1552                  2.3                    !
 ! D26   D(10,8,11,13)           0.2907                  4.3                    !
 ! D27   D(10,8,11,14)           0.1333                  2.0                    !
 --------------------------------------------------------------------------------
                           ----------------------------
                           ! Normal Mode    24        !
 --------------------------                            --------------------------
 ! Name  Definition              Value          Relative Weight (%)             !
 --------------------------------------------------------------------------------
 ! R7    R(5,8)                 -0.0646                  0.9                    !
 ! A1    A(2,1,3)                0.1346                  1.8                    !
 ! A2    A(2,1,4)               -0.3585                  4.8                    !
 ! A3    A(2,1,5)                0.0746                  1.0                    !
 ! A4    A(3,1,4)                0.2089                  2.8                    !
 ! A5    A(3,1,5)               -0.0985                  1.3                    !
 ! A7    A(1,5,6)                0.0667                  0.9                    !
 ! A8    A(1,5,7)                0.05                    0.7                    !
 ! A10   A(6,5,7)               -0.3273                  4.4                    !
 ! A11   A(6,5,8)                0.0801                  1.1                    !
 ! A12   A(7,5,8)                0.0964                  1.3                    !
 ! A13   A(5,8,9)                0.0801                  1.1                    !
 ! A14   A(5,8,10)               0.0964                  1.3                    !
 ! A16   A(9,8,10)              -0.3273                  4.4                    !
 ! A17   A(9,8,11)               0.0667                  0.9                    !
 ! A18   A(10,8,11)              0.05                    0.7                    !
 ! A19   A(8,11,12)              0.0746                  1.0                    !
 ! A21   A(8,11,14)             -0.0985                  1.3                    !
 ! A22   A(12,11,13)            -0.3585                  4.8                    !
 ! A23   A(12,11,14)             0.1346                  1.8                    !
 ! A24   A(13,11,14)             0.2089                  2.8                    !
 ! D2    D(2,1,5,7)              0.3386                  4.6                    !
 ! D3    D(2,1,5,8)              0.1714                  2.3                    !
 ! D4    D(3,1,5,6)             -0.1437                  1.9                    !
 ! D5    D(3,1,5,7)              0.1834                  2.5                    !
 ! D7    D(4,1,5,6)             -0.3664                  4.9                    !
 ! D9    D(4,1,5,8)             -0.2066                  2.8                    !
 ! D10   D(1,5,8,9)              0.1651                  2.2                    !
 ! D11   D(1,5,8,10)            -0.1279                  1.7                    !
 ! D13   D(6,5,8,9)              0.3171                  4.3                    !
 ! D15   D(6,5,8,11)             0.1651                  2.2                    !
 ! D17   D(7,5,8,10)            -0.2689                  3.6                    !
 ! D18   D(7,5,8,11)            -0.1279                  1.7                    !
 ! D19   D(5,8,11,12)            0.1714                  2.3                    !
 ! D20   D(5,8,11,13)           -0.2066                  2.8                    !
 ! D23   D(9,8,11,13)           -0.3664                  4.9                    !
 ! D24   D(9,8,11,14)           -0.1437                  1.9                    !
 ! D25   D(10,8,11,12)           0.3386                  4.6                    !
 ! D27   D(10,8,11,14)           0.1834                  2.5                    !
 --------------------------------------------------------------------------------
                           ----------------------------
                           ! Normal Mode    25        !
 --------------------------                            --------------------------
 ! Name  Definition              Value          Relative Weight (%)             !
 --------------------------------------------------------------------------------
 ! A1    A(2,1,3)                0.2674                  4.0                    !
 ! A2    A(2,1,4)                0.123                   1.8                    !
 ! A3    A(2,1,5)               -0.1025                  1.5                    !
 ! A4    A(3,1,4)               -0.4356                  6.5                    !
 ! A5    A(3,1,5)                0.0508                  0.8                    !
 ! A6    A(4,1,5)                0.0942                  1.4                    !
 ! A10   A(6,5,7)                0.1729                  2.6                    !
 ! A11   A(6,5,8)               -0.0611                  0.9                    !
 ! A13   A(5,8,9)                0.0611                  0.9                    !
 ! A16   A(9,8,10)              -0.1729                  2.6                    !
 ! A19   A(8,11,12)              0.1025                  1.5                    !
 ! A20   A(8,11,13)             -0.0942                  1.4                    !
 ! A21   A(8,11,14)             -0.0508                  0.8                    !
 ! A22   A(12,11,13)            -0.123                   1.8                    !
 ! A23   A(12,11,14)            -0.2674                  4.0                    !
 ! A24   A(13,11,14)             0.4356                  6.5                    !
 ! D1    D(2,1,5,6)              0.1416                  2.1                    !
 ! D3    D(2,1,5,8)              0.0448                  0.7                    !
 ! D4    D(3,1,5,6)             -0.1623                  2.4                    !
 ! D5    D(3,1,5,7)             -0.34                    5.1                    !
 ! D6    D(3,1,5,8)             -0.2591                  3.9                    !
 ! D7    D(4,1,5,6)              0.2911                  4.4                    !
 ! D8    D(4,1,5,7)              0.1134                  1.7                    !
 ! D9    D(4,1,5,8)              0.1943                  2.9                    !
 ! D10   D(1,5,8,9)              0.0733                  1.1                    !
 ! D11   D(1,5,8,10)            -0.0768                  1.2                    !
 ! D14   D(6,5,8,10)            -0.15                    2.3                    !
 ! D15   D(6,5,8,11)            -0.0733                  1.1                    !
 ! D16   D(7,5,8,9)              0.15                    2.3                    !
 ! D18   D(7,5,8,11)             0.0768                  1.2                    !
 ! D19   D(5,8,11,12)           -0.0448                  0.7                    !
 ! D20   D(5,8,11,13)           -0.1943                  2.9                    !
 ! D21   D(5,8,11,14)            0.2591                  3.9                    !
 ! D22   D(9,8,11,12)           -0.1416                  2.1                    !
 ! D23   D(9,8,11,13)           -0.2911                  4.4                    !
 ! D24   D(9,8,11,14)            0.1623                  2.4                    !
 ! D26   D(10,8,11,13)          -0.1134                  1.7                    !
 ! D27   D(10,8,11,14)           0.34                    5.1                    !
 --------------------------------------------------------------------------------
                           ----------------------------
                           ! Normal Mode    26        !
 --------------------------                            --------------------------
 ! Name  Definition              Value          Relative Weight (%)             !
 --------------------------------------------------------------------------------
 ! R7    R(5,8)                  0.0465                  0.8                    !
 ! A1    A(2,1,3)                0.4463                  7.3                    !
 ! A2    A(2,1,4)               -0.0948                  1.6                    !
 ! A3    A(2,1,5)               -0.1062                  1.7                    !
 ! A4    A(3,1,4)               -0.3055                  5.0                    !
 ! A5    A(3,1,5)               -0.0425                  0.7                    !
 ! A6    A(4,1,5)                0.1032                  1.7                    !
 ! A10   A(6,5,7)                0.0758                  1.2                    !
 ! A12   A(7,5,8)               -0.0417                  0.7                    !
 ! A14   A(5,8,10)              -0.0417                  0.7                    !
 ! A16   A(9,8,10)               0.0758                  1.2                    !
 ! A19   A(8,11,12)             -0.1062                  1.7                    !
 ! A20   A(8,11,13)              0.1032                  1.7                    !
 ! A21   A(8,11,14)             -0.0425                  0.7                    !
 ! A22   A(12,11,13)            -0.0948                  1.6                    !
 ! A23   A(12,11,14)             0.4463                  7.3                    !
 ! A24   A(13,11,14)            -0.3055                  5.0                    !
 ! D1    D(2,1,5,6)              0.233                   3.8                    !
 ! D2    D(2,1,5,7)              0.1424                  2.3                    !
 ! D3    D(2,1,5,8)              0.1983                  3.3                    !
 ! D4    D(3,1,5,6)             -0.2326                  3.8                    !
 ! D5    D(3,1,5,7)             -0.3231                  5.3                    !
 ! D6    D(3,1,5,8)             -0.2672                  4.4                    !
 ! D7    D(4,1,5,6)              0.1124                  1.8                    !
 ! D9    D(4,1,5,8)              0.0778                  1.3                    !
 ! D11   D(1,5,8,10)             0.038                   0.6                    !
 ! D17   D(7,5,8,10)             0.0709                  1.2                    !
 ! D18   D(7,5,8,11)             0.038                   0.6                    !
 ! D19   D(5,8,11,12)            0.1983                  3.3                    !
 ! D20   D(5,8,11,13)            0.0778                  1.3                    !
 ! D21   D(5,8,11,14)           -0.2672                  4.4                    !
 ! D22   D(9,8,11,12)            0.233                   3.8                    !
 ! D23   D(9,8,11,13)            0.1124                  1.8                    !
 ! D24   D(9,8,11,14)           -0.2326                  3.8                    !
 ! D25   D(10,8,11,12)           0.1424                  2.3                    !
 ! D27   D(10,8,11,14)          -0.3231                  5.3                    !
 --------------------------------------------------------------------------------
                           ----------------------------
                           ! Normal Mode    27        !
 --------------------------                            --------------------------
 ! Name  Definition              Value          Relative Weight (%)             !
 --------------------------------------------------------------------------------
 ! R1    R(1,2)                  0.0435                  1.4                    !
 ! R3    R(1,4)                 -0.0713                  2.2                    !
 ! R4    R(1,5)                  0.0247                  0.8                    !
 ! R5    R(5,6)                 -0.7116                 22.3                    !
 ! R6    R(5,7)                 -0.2306                  7.2                    !
 ! R7    R(5,8)                  0.0481                  1.5                    !
 ! R8    R(8,9)                 -0.7116                 22.3                    !
 ! R9    R(8,10)                -0.2306                  7.2                    !
 ! R10   R(8,11)                 0.0247                  0.8                    !
 ! R11   R(11,12)                0.0435                  1.4                    !
 ! R12   R(11,13)               -0.0713                  2.2                    !
 ! A9    A(1,5,8)               -0.0298                  0.9                    !
 ! A10   A(6,5,7)                0.0238                  0.7                    !
 ! A11   A(6,5,8)                0.0273                  0.9                    !
 ! A12   A(7,5,8)               -0.0239                  0.7                    !
 ! A13   A(5,8,9)                0.0273                  0.9                    !
 ! A14   A(5,8,10)              -0.0239                  0.7                    !
 ! A15   A(5,8,11)              -0.0298                  0.9                    !
 ! A16   A(9,8,10)               0.0238                  0.7                    !
 ! D2    D(2,1,5,7)             -0.032                   1.0                    !
 ! D3    D(2,1,5,8)              0.0256                  0.8                    !
 ! D6    D(3,1,5,8)              0.042                   1.3                    !
 ! D8    D(4,1,5,7)             -0.0275                  0.9                    !
 ! D9    D(4,1,5,8)              0.0301                  0.9                    !
 ! D10   D(1,5,8,9)             -0.0273                  0.9                    !
 ! D12   D(1,5,8,11)            -0.0465                  1.5                    !
 ! D14   D(6,5,8,10)             0.0222                  0.7                    !
 ! D15   D(6,5,8,11)            -0.0273                  0.9                    !
 ! D16   D(7,5,8,9)              0.0222                  0.7                    !
 ! D17   D(7,5,8,10)             0.0524                  1.6                    !
 ! D19   D(5,8,11,12)            0.0256                  0.8                    !
 ! D20   D(5,8,11,13)            0.0301                  0.9                    !
 ! D21   D(5,8,11,14)            0.042                   1.3                    !
 ! D25   D(10,8,11,12)          -0.032                   1.0                    !
 ! D26   D(10,8,11,13)          -0.0275                  0.9                    !
 --------------------------------------------------------------------------------
                           ----------------------------
                           ! Normal Mode    28        !
 --------------------------                            --------------------------
 ! Name  Definition              Value          Relative Weight (%)             !
 --------------------------------------------------------------------------------
 ! R1    R(1,2)                  0.0322                  1.0                    !
 ! R2    R(1,3)                 -0.0446                  1.4                    !
 ! R3    R(1,4)                 -0.0728                  2.3                    !
 ! R4    R(1,5)                  0.0298                  1.0                    !
 ! R5    R(5,6)                 -0.5307                 17.1                    !
 ! R6    R(5,7)                 -0.5168                 16.6                    !
 ! R8    R(8,9)                  0.5307                 17.1                    !
 ! R9    R(8,10)                 0.5168                 16.6                    !
 ! R10   R(8,11)                -0.0298                  1.0                    !
 ! R11   R(11,12)               -0.0322                  1.0                    !
 ! R12   R(11,13)                0.0728                  2.3                    !
 ! R13   R(11,14)                0.0446                  1.4                    !
 ! A9    A(1,5,8)               -0.0364                  1.2                    !
 ! A10   A(6,5,7)                0.0237                  0.8                    !
 ! A15   A(5,8,11)               0.0364                  1.2                    !
 ! A16   A(9,8,10)              -0.0237                  0.8                    !
 ! D4    D(3,1,5,6)              0.0235                  0.8                    !
 ! D8    D(4,1,5,7)             -0.0214                  0.7                    !
 ! D9    D(4,1,5,8)             -0.0196                  0.6                    !
 ! D10   D(1,5,8,9)              0.0243                  0.8                    !
 ! D14   D(6,5,8,10)            -0.0353                  1.1                    !
 ! D15   D(6,5,8,11)            -0.0243                  0.8                    !
 ! D16   D(7,5,8,9)              0.0353                  1.1                    !
 ! D20   D(5,8,11,13)            0.0196                  0.6                    !
 ! D24   D(9,8,11,14)           -0.0235                  0.8                    !
 ! D26   D(10,8,11,13)           0.0214                  0.7                    !
 --------------------------------------------------------------------------------
                           ----------------------------
                           ! Normal Mode    29        !
 --------------------------                            --------------------------
 ! Name  Definition              Value          Relative Weight (%)             !
 --------------------------------------------------------------------------------
 ! R1    R(1,2)                  0.3665                 12.2                    !
 ! R2    R(1,3)                  0.3555                 11.8                    !
 ! R3    R(1,4)                  0.5142                 17.1                    !
 ! R4    R(1,5)                 -0.0335                  1.1                    !
 ! R6    R(5,7)                 -0.0857                  2.9                    !
 ! R9    R(8,10)                 0.0857                  2.9                    !
 ! R10   R(8,11)                 0.0335                  1.1                    !
 ! R11   R(11,12)               -0.3665                 12.2                    !
 ! R12   R(11,13)               -0.5142                 17.1                    !
 ! R13   R(11,14)               -0.3555                 11.8                    !
 --------------------------------------------------------------------------------
                           ----------------------------
                           ! Normal Mode    30        !
 --------------------------                            --------------------------
 ! Name  Definition              Value          Relative Weight (%)             !
 --------------------------------------------------------------------------------
 ! R1    R(1,2)                  0.3646                 11.9                    !
 ! R2    R(1,3)                  0.315                  10.3                    !
 ! R3    R(1,4)                  0.5409                 17.7                    !
 ! R4    R(1,5)                 -0.0322                  1.1                    !
 ! R6    R(5,7)                 -0.0973                  3.2                    !
 ! R9    R(8,10)                -0.0973                  3.2                    !
 ! R10   R(8,11)                -0.0322                  1.1                    !
 ! R11   R(11,12)                0.3646                 11.9                    !
 ! R12   R(11,13)                0.5409                 17.7                    !
 ! R13   R(11,14)                0.315                  10.3                    !
 ! A2    A(2,1,4)               -0.0164                  0.5                    !
 ! A3    A(2,1,5)                0.0115                  0.4                    !
 ! A4    A(3,1,4)               -0.0134                  0.4                    !
 ! A5    A(3,1,5)                0.0183                  0.6                    !
 ! A19   A(8,11,12)              0.0115                  0.4                    !
 ! A21   A(8,11,14)              0.0183                  0.6                    !
 ! A22   A(12,11,13)            -0.0164                  0.5                    !
 ! A24   A(13,11,14)            -0.0134                  0.4                    !
 ! D1    D(2,1,5,6)              0.0109                  0.4                    !
 ! D2    D(2,1,5,7)              0.0108                  0.4                    !
 ! D6    D(3,1,5,8)             -0.0114                  0.4                    !
 ! D12   D(1,5,8,11)             0.0166                  0.5                    !
 ! D21   D(5,8,11,14)           -0.0114                  0.4                    !
 ! D22   D(9,8,11,12)            0.0109                  0.4                    !
 ! D25   D(10,8,11,12)           0.0108                  0.4                    !
 --------------------------------------------------------------------------------
                           ----------------------------
                           ! Normal Mode    31        !
 --------------------------                            --------------------------
 ! Name  Definition              Value          Relative Weight (%)             !
 --------------------------------------------------------------------------------
 ! R1    R(1,2)                  0.0237                  0.7                    !
 ! R2    R(1,3)                  0.1744                  5.0                    !
 ! R5    R(5,6)                 -0.2408                  6.9                    !
 ! R6    R(5,7)                  0.7115                 20.4                    !
 ! R7    R(5,8)                 -0.0241                  0.7                    !
 ! R8    R(8,9)                 -0.2408                  6.9                    !
 ! R9    R(8,10)                 0.7115                 20.4                    !
 ! R11   R(11,12)                0.0237                  0.7                    !
 ! R13   R(11,14)                0.1744                  5.0                    !
 ! A5    A(3,1,5)               -0.0255                  0.7                    !
 ! A7    A(1,5,6)                0.0253                  0.7                    !
 ! A8    A(1,5,7)               -0.0286                  0.8                    !
 ! A11   A(6,5,8)                0.0374                  1.1                    !
 ! A13   A(5,8,9)                0.0374                  1.1                    !
 ! A17   A(9,8,11)               0.0253                  0.7                    !
 ! A18   A(10,8,11)             -0.0286                  0.8                    !
 ! A21   A(8,11,14)             -0.0255                  0.7                    !
 ! D1    D(2,1,5,6)             -0.0393                  1.1                    !
 ! D2    D(2,1,5,7)             -0.022                   0.6                    !
 ! D3    D(2,1,5,8)              0.023                   0.7                    !
 ! D4    D(3,1,5,6)             -0.0259                  0.7                    !
 ! D6    D(3,1,5,8)              0.0364                  1.0                    !
 ! D9    D(4,1,5,8)              0.0466                  1.3                    !
 ! D12   D(1,5,8,11)            -0.071                   2.0                    !
 ! D13   D(6,5,8,9)              0.04                    1.1                    !
 ! D14   D(6,5,8,10)             0.0367                  1.1                    !
 ! D16   D(7,5,8,9)              0.0367                  1.1                    !
 ! D17   D(7,5,8,10)             0.0333                  1.0                    !
 ! D19   D(5,8,11,12)            0.023                   0.7                    !
 ! D20   D(5,8,11,13)            0.0466                  1.3                    !
 ! D21   D(5,8,11,14)            0.0364                  1.0                    !
 ! D22   D(9,8,11,12)           -0.0393                  1.1                    !
 ! D24   D(9,8,11,14)           -0.0259                  0.7                    !
 ! D25   D(10,8,11,12)          -0.022                   0.6                    !
 --------------------------------------------------------------------------------
                           ----------------------------
                           ! Normal Mode    32        !
 --------------------------                            --------------------------
 ! Name  Definition              Value          Relative Weight (%)             !
 --------------------------------------------------------------------------------
 ! R1    R(1,2)                  0.0576                  1.5                    !
 ! R2    R(1,3)                  0.2229                  5.7                    !
 ! R3    R(1,4)                 -0.1131                  2.9                    !
 ! R5    R(5,6)                 -0.5132                 13.2                    !
 ! R6    R(5,7)                  0.526                  13.5                    !
 ! R8    R(8,9)                  0.5132                 13.2                    !
 ! R9    R(8,10)                -0.526                  13.5                    !
 ! R11   R(11,12)               -0.0576                  1.5                    !
 ! R12   R(11,13)                0.1131                  2.9                    !
 ! R13   R(11,14)               -0.2229                  5.7                    !
 ! A5    A(3,1,5)               -0.0284                  0.7                    !
 ! A6    A(4,1,5)                0.0303                  0.8                    !
 ! A7    A(1,5,6)                0.0332                  0.9                    !
 ! A8    A(1,5,7)               -0.0325                  0.8                    !
 ! A12   A(7,5,8)               -0.027                   0.7                    !
 ! A14   A(5,8,10)               0.027                   0.7                    !
 ! A17   A(9,8,11)              -0.0332                  0.9                    !
 ! A18   A(10,8,11)              0.0325                  0.8                    !
 ! A20   A(8,11,13)             -0.0303                  0.8                    !
 ! A21   A(8,11,14)              0.0284                  0.7                    !
 ! D1    D(2,1,5,6)             -0.0378                  1.0                    !
 ! D2    D(2,1,5,7)             -0.0389                  1.0                    !
 ! D6    D(3,1,5,8)              0.0335                  0.9                    !
 ! D9    D(4,1,5,8)              0.0345                  0.9                    !
 ! D10   D(1,5,8,9)             -0.0596                  1.5                    !
 ! D11   D(1,5,8,10)            -0.0488                  1.3                    !
 ! D15   D(6,5,8,11)             0.0596                  1.5                    !
 ! D18   D(7,5,8,11)             0.0488                  1.3                    !
 ! D20   D(5,8,11,13)           -0.0345                  0.9                    !
 ! D21   D(5,8,11,14)           -0.0335                  0.9                    !
 ! D22   D(9,8,11,12)            0.0378                  1.0                    !
 ! D25   D(10,8,11,12)           0.0389                  1.0                    !
 --------------------------------------------------------------------------------
                           ----------------------------
                           ! Normal Mode    33        !
 --------------------------                            --------------------------
 ! Name  Definition              Value          Relative Weight (%)             !
 --------------------------------------------------------------------------------
 ! R1    R(1,2)                 -0.5459                 15.3                    !
 ! R2    R(1,3)                 -0.2004                  5.6                    !
 ! R3    R(1,4)                  0.5053                 14.1                    !
 ! R5    R(5,6)                 -0.0965                  2.7                    !
 ! R6    R(5,7)                  0.0341                  1.0                    !
 ! R8    R(8,9)                 -0.0965                  2.7                    !
 ! R9    R(8,10)                 0.0341                  1.0                    !
 ! R11   R(11,12)               -0.5459                 15.3                    !
 ! R12   R(11,13)                0.5053                 14.1                    !
 ! R13   R(11,14)               -0.2004                  5.6                    !
 ! A1    A(2,1,3)                0.029                   0.8                    !
 ! A3    A(2,1,5)                0.0225                  0.6                    !
 ! A6    A(4,1,5)               -0.0315                  0.9                    !
 ! A19   A(8,11,12)              0.0225                  0.6                    !
 ! A20   A(8,11,13)             -0.0315                  0.9                    !
 ! A23   A(12,11,14)             0.029                   0.8                    !
 ! D2    D(2,1,5,7)              0.0246                  0.7                    !
 ! D3    D(2,1,5,8)              0.0224                  0.6                    !
 ! D4    D(3,1,5,6)             -0.0383                  1.1                    !
 ! D5    D(3,1,5,7)             -0.0293                  0.8                    !
 ! D6    D(3,1,5,8)             -0.0315                  0.9                    !
 ! D19   D(5,8,11,12)            0.0224                  0.6                    !
 ! D21   D(5,8,11,14)           -0.0315                  0.9                    !
 ! D24   D(9,8,11,14)           -0.0383                  1.1                    !
 ! D25   D(10,8,11,12)           0.0246                  0.7                    !
 ! D27   D(10,8,11,14)          -0.0293                  0.8                    !
 --------------------------------------------------------------------------------
                           ----------------------------
                           ! Normal Mode    34        !
 --------------------------                            --------------------------
 ! Name  Definition              Value          Relative Weight (%)             !
 --------------------------------------------------------------------------------
 ! R1    R(1,2)                 -0.4222                 11.1                    !
 ! R2    R(1,3)                 -0.3                     7.9                    !
 ! R3    R(1,4)                  0.5393                 14.2                    !
 ! R5    R(5,6)                 -0.1814                  4.8                    !
 ! R6    R(5,7)                  0.1136                  3.0                    !
 ! R8    R(8,9)                  0.1814                  4.8                    !
 ! R9    R(8,10)                -0.1136                  3.0                    !
 ! R11   R(11,12)                0.4222                 11.1                    !
 ! R12   R(11,13)               -0.5393                 14.2                    !
 ! R13   R(11,14)                0.3                     7.9                    !
 ! A1    A(2,1,3)                0.0296                  0.8                    !
 ! A6    A(4,1,5)               -0.0284                  0.7                    !
 ! A20   A(8,11,13)              0.0284                  0.7                    !
 ! A23   A(12,11,14)            -0.0296                  0.8                    !
 ! D2    D(2,1,5,7)              0.0241                  0.6                    !
 ! D4    D(3,1,5,6)             -0.0343                  0.9                    !
 ! D5    D(3,1,5,7)             -0.0296                  0.8                    !
 ! D6    D(3,1,5,8)             -0.031                   0.8                    !
 ! D21   D(5,8,11,14)            0.031                   0.8                    !
 ! D24   D(9,8,11,14)            0.0343                  0.9                    !
 ! D25   D(10,8,11,12)          -0.0241                  0.6                    !
 ! D27   D(10,8,11,14)           0.0296                  0.8                    !
 --------------------------------------------------------------------------------
                           ----------------------------
                           ! Normal Mode    35        !
 --------------------------                            --------------------------
 ! Name  Definition              Value          Relative Weight (%)             !
 --------------------------------------------------------------------------------
 ! R1    R(1,2)                  0.5166                 15.4                    !
 ! R2    R(1,3)                 -0.5625                 16.7                    !
 ! R3    R(1,4)                  0.0437                  1.3                    !
 ! R5    R(5,6)                 -0.0599                  1.8                    !
 ! R6    R(5,7)                  0.1326                  3.9                    !
 ! R8    R(8,9)                  0.0599                  1.8                    !
 ! R9    R(8,10)                -0.1326                  3.9                    !
 ! R11   R(11,12)               -0.5166                 15.4                    !
 ! R12   R(11,13)               -0.0437                  1.3                    !
 ! R13   R(11,14)                0.5625                 16.7                    !
 ! A2    A(2,1,4)               -0.027                   0.8                    !
 ! A3    A(2,1,5)               -0.0271                  0.8                    !
 ! A4    A(3,1,4)                0.0247                  0.7                    !
 ! A5    A(3,1,5)                0.0274                  0.8                    !
 ! A19   A(8,11,12)              0.0271                  0.8                    !
 ! A21   A(8,11,14)             -0.0274                  0.8                    !
 ! A22   A(12,11,13)             0.027                   0.8                    !
 ! A24   A(13,11,14)            -0.0247                  0.7                    !
 ! D7    D(4,1,5,6)             -0.031                   0.9                    !
 ! D8    D(4,1,5,7)             -0.0388                  1.2                    !
 ! D9    D(4,1,5,8)             -0.0347                  1.0                    !
 ! D20   D(5,8,11,13)            0.0347                  1.0                    !
 ! D23   D(9,8,11,13)            0.031                   0.9                    !
 ! D26   D(10,8,11,13)           0.0388                  1.2                    !
 --------------------------------------------------------------------------------
                           ----------------------------
                           ! Normal Mode    36        !
 --------------------------                            --------------------------
 ! Name  Definition              Value          Relative Weight (%)             !
 --------------------------------------------------------------------------------
 ! R1    R(1,2)                  0.3876                 10.9                    !
 ! R2    R(1,3)                 -0.6447                 18.1                    !
 ! R3    R(1,4)                  0.1445                  4.1                    !
 ! R5    R(5,6)                 -0.0462                  1.3                    !
 ! R6    R(5,7)                  0.1281                  3.6                    !
 ! R8    R(8,9)                 -0.0462                  1.3                    !
 ! R9    R(8,10)                 0.1281                  3.6                    !
 ! R11   R(11,12)                0.3876                 10.9                    !
 ! R12   R(11,13)                0.1445                  4.1                    !
 ! R13   R(11,14)               -0.6447                 18.1                    !
 ! A2    A(2,1,4)               -0.0276                  0.8                    !
 ! A3    A(2,1,5)               -0.0234                  0.7                    !
 ! A4    A(3,1,4)                0.0214                  0.6                    !
 ! A5    A(3,1,5)                0.0292                  0.8                    !
 ! A8    A(1,5,7)                0.0182                  0.5                    !
 ! A9    A(1,5,8)               -0.015                   0.4                    !
 ! A15   A(5,8,11)              -0.015                   0.4                    !
 ! A18   A(10,8,11)              0.0182                  0.5                    !
 ! A19   A(8,11,12)             -0.0234                  0.7                    !
 ! A21   A(8,11,14)              0.0292                  0.8                    !
 ! A22   A(12,11,13)            -0.0276                  0.8                    !
 ! A24   A(13,11,14)             0.0214                  0.6                    !
 ! D1    D(2,1,5,6)              0.0258                  0.7                    !
 ! D2    D(2,1,5,7)              0.0214                  0.6                    !
 ! D3    D(2,1,5,8)              0.0231                  0.7                    !
 ! D7    D(4,1,5,6)             -0.03                    0.8                    !
 ! D8    D(4,1,5,7)             -0.0344                  1.0                    !
 ! D9    D(4,1,5,8)             -0.0327                  0.9                    !
 ! D10   D(1,5,8,9)              0.017                   0.5                    !
 ! D11   D(1,5,8,10)             0.0157                  0.4                    !
 ! D12   D(1,5,8,11)             0.0263                  0.7                    !
 ! D15   D(6,5,8,11)             0.017                   0.5                    !
 ! D18   D(7,5,8,11)             0.0157                  0.4                    !
 ! D19   D(5,8,11,12)            0.0231                  0.7                    !
 ! D20   D(5,8,11,13)           -0.0327                  0.9                    !
 ! D22   D(9,8,11,12)            0.0258                  0.7                    !
 ! D23   D(9,8,11,13)           -0.03                    0.8                    !
 ! D25   D(10,8,11,12)           0.0214                  0.6                    !
 ! D26   D(10,8,11,13)          -0.0344                  1.0                    !
 --------------------------------------------------------------------------------
 Max01P=     38 Av01P=   26.44 Stan. Dev.=    9.71
 Max05P=     18 Av05P=    4.00 Stan. Dev.=    3.56
 Max10P=      6 Av10P=    1.11 Stan. Dev.=    1.94
 MaxNDP=     94 AvNDP=   68.75 Stan. Dev.=   20.80
 ***** Axes restored to original set *****
 -------------------------------------------------------------------
 Center     Atomic                   Forces (Hartrees/Bohr)
 Number     Number              X              Y              Z
 -------------------------------------------------------------------
      1        6           0.000000411    0.000000798   -0.000000121
      2        1           0.000000407    0.000000334   -0.000000720
      3        1           0.000000403   -0.000000151   -0.000000365
      4        1          -0.000000036    0.000000511   -0.000000243
      5        6           0.000000357   -0.000000366   -0.000000625
      6        1           0.000000415   -0.000000414   -0.000000233
      7        1           0.000000280    0.000000218   -0.000000173
      8        6          -0.000000681    0.000000304    0.000000310
      9        1          -0.000000305    0.000000435    0.000000340
     10        1          -0.000000125   -0.000000189    0.000000323
     11        6           0.000000038   -0.000000713    0.000000558
     12        1          -0.000000639   -0.000000378    0.000000493
     13        1          -0.000000140   -0.000000544    0.000000071
     14        1          -0.000000384    0.000000155    0.000000383
 -------------------------------------------------------------------
 Cartesian Forces:  Max     0.000000798 RMS     0.000000406
 FormGI is forming the generalized inverse of G from B-inverse, IUseBI=4.
 Leave Link  716 at Wed Aug 12 19:12:58 2026, MaxMem= 12884901888 cpu:               1.8 elap:               0.1
 (Enter /home/falbo/g16/l103.exe)

 GradGradGradGradGradGradGradGradGradGradGradGradGradGradGradGradGradGrad
 Berny optimization.
 Red2BG is reusing G-inverse.
 Internal  Forces:  Max     0.000000611 RMS     0.000000188
 Search for a local minimum.
 Step number   1 out of a maximum of    2
 All quantities printed in internal units (Hartrees-Bohrs-Radians)
 Second derivative matrix not updated -- analytic derivatives used.
 ITU=  0
     Eigenvalues ---    0.00171   0.00201   0.00344   0.03376   0.03873
     Eigenvalues ---    0.04031   0.04208   0.04701   0.04771   0.04797
     Eigenvalues ---    0.04934   0.07198   0.07400   0.10203   0.11327
     Eigenvalues ---    0.12615   0.12736   0.13761   0.14796   0.16033
     Eigenvalues ---    0.16397   0.22152   0.22719   0.29770   0.30674
     Eigenvalues ---    0.32348   0.33855   0.33937   0.34700   0.34731
     Eigenvalues ---    0.34810   0.34978   0.35072   0.35645   0.35996
     Eigenvalues ---    0.36119
 Angle between quadratic step and forces=  59.51 degrees.
 Linear search not attempted -- first point.
 Iteration  1 RMS(Cart)=  0.00000539 RMS(Int)=  0.00000000
 Iteration  2 RMS(Cart)=  0.00000000 RMS(Int)=  0.00000000
 ITry= 1 IFail=0 DXMaxC= 1.80D-05 DCOld= 1.00D+10 DXMaxT= 7.00D-02 DXLimC= 3.00D+00 Rises=F
 ClnCor:  largest displacement from symmetrization is 1.90D-12 for atom    12.
 Variable       Old X    -DE/DX   Delta X   Delta X   Delta X     New X
                                 (Linear)    (Quad)   (Total)
    R1        2.06345   0.00000   0.00000   0.00000   0.00000   2.06345
    R2        2.06293  -0.00000   0.00000  -0.00000  -0.00000   2.06293
    R3        2.06709  -0.00000   0.00000  -0.00000  -0.00000   2.06709
    R4        2.88988  -0.00000   0.00000  -0.00000  -0.00000   2.88988
    R5        2.07017   0.00000   0.00000   0.00000   0.00000   2.07017
    R6        2.06735  -0.00000   0.00000  -0.00000  -0.00000   2.06735
    R7        2.89416   0.00000   0.00000   0.00000   0.00000   2.89416
    R8        2.07017   0.00000   0.00000   0.00000   0.00000   2.07017
    R9        2.06735  -0.00000   0.00000  -0.00000  -0.00000   2.06735
   R10        2.88988  -0.00000   0.00000  -0.00000  -0.00000   2.88988
   R11        2.06345   0.00000   0.00000   0.00000   0.00000   2.06345
   R12        2.06709  -0.00000   0.00000  -0.00000  -0.00000   2.06709
   R13        2.06293  -0.00000   0.00000  -0.00000  -0.00000   2.06293
    A1        1.87787  -0.00000   0.00000  -0.00000  -0.00000   1.87787
    A2        1.88312   0.00000   0.00000  -0.00000  -0.00000   1.88312
    A3        1.93845  -0.00000   0.00000  -0.00000  -0.00000   1.93844
    A4        1.88246  -0.00000   0.00000   0.00000   0.00000   1.88246
    A5        1.94778   0.00000   0.00000   0.00000   0.00000   1.94778
    A6        1.93157  -0.00000   0.00000   0.00000   0.00000   1.93157
    A7        1.91091  -0.00000   0.00000  -0.00000  -0.00000   1.91091
    A8        1.90497  -0.00000   0.00000  -0.00000  -0.00000   1.90496
    A9        1.97904   0.00000   0.00000   0.00000   0.00000   1.97904
   A10        1.86032   0.00000   0.00000  -0.00000  -0.00000   1.86032
   A11        1.90403  -0.00000   0.00000   0.00000   0.00000   1.90403
   A12        1.90082  -0.00000   0.00000  -0.00000  -0.00000   1.90082
   A13        1.90403  -0.00000   0.00000   0.00000   0.00000   1.90403
   A14        1.90082  -0.00000   0.00000  -0.00000  -0.00000   1.90082
   A15        1.97904   0.00000   0.00000   0.00000   0.00000   1.97904
   A16        1.86032   0.00000   0.00000  -0.00000  -0.00000   1.86032
   A17        1.91091  -0.00000   0.00000  -0.00000  -0.00000   1.91091
   A18        1.90497  -0.00000   0.00000  -0.00000  -0.00000   1.90496
   A19        1.93845  -0.00000   0.00000  -0.00000  -0.00000   1.93844
   A20        1.93157  -0.00000   0.00000   0.00000   0.00000   1.93157
   A21        1.94778   0.00000   0.00000   0.00000   0.00000   1.94778
   A22        1.88312   0.00000   0.00000  -0.00000  -0.00000   1.88312
   A23        1.87787  -0.00000   0.00000  -0.00000  -0.00000   1.87787
   A24        1.88246  -0.00000   0.00000   0.00000   0.00000   1.88246
    D1        1.10536  -0.00000   0.00000   0.00000   0.00000   1.10536
    D2       -0.92487   0.00000   0.00000   0.00000   0.00000  -0.92486
    D3       -3.04712   0.00000   0.00000   0.00000   0.00000  -3.04712
    D4       -0.99004   0.00000   0.00000   0.00000   0.00000  -0.99004
    D5       -3.02027   0.00000   0.00000   0.00001   0.00001  -3.02027
    D6        1.14066   0.00000   0.00000   0.00000   0.00000   1.14066
    D7       -3.08660  -0.00000   0.00000  -0.00000  -0.00000  -3.08660
    D8        1.16636  -0.00000   0.00000   0.00000   0.00000   1.16636
    D9       -0.95589  -0.00000   0.00000  -0.00000  -0.00000  -0.95589
   D10        1.05023  -0.00000   0.00000  -0.00000  -0.00000   1.05022
   D11        3.07431  -0.00000   0.00000  -0.00000  -0.00000   3.07430
   D12       -1.08430  -0.00000   0.00000  -0.00000  -0.00000  -1.08431
   D13       -3.09843   0.00000   0.00000  -0.00000  -0.00000  -3.09844
   D14       -1.07435  -0.00000   0.00000  -0.00000  -0.00000  -1.07435
   D15        1.05023  -0.00000   0.00000  -0.00000  -0.00000   1.05022
   D16       -1.07435  -0.00000   0.00000  -0.00000  -0.00000  -1.07435
   D17        0.94973  -0.00000   0.00000  -0.00000  -0.00000   0.94973
   D18        3.07431  -0.00000   0.00000  -0.00000  -0.00000   3.07430
   D19       -3.04712   0.00000   0.00000   0.00000   0.00000  -3.04712
   D20       -0.95589  -0.00000   0.00000  -0.00000  -0.00000  -0.95589
   D21        1.14066   0.00000   0.00000   0.00000   0.00000   1.14066
   D22        1.10536  -0.00000   0.00000   0.00000   0.00000   1.10536
   D23       -3.08660  -0.00000   0.00000  -0.00000  -0.00000  -3.08660
   D24       -0.99004   0.00000   0.00000   0.00000   0.00000  -0.99004
   D25       -0.92487   0.00000   0.00000   0.00000   0.00000  -0.92486
   D26        1.16636  -0.00000   0.00000   0.00000   0.00000   1.16636
   D27       -3.02027   0.00000   0.00000   0.00001   0.00001  -3.02027
         Item               Value     Threshold  Converged?
 Maximum Force            0.000001     0.000015     YES
 RMS     Force            0.000000     0.000010     YES
 Maximum Displacement     0.000018     0.000060     YES
 RMS     Displacement     0.000005     0.000040     YES
 Predicted change in Energy=-7.579462D-12
 Optimization completed.
    -- Stationary point found.
                           ----------------------------
                           !   Optimized Parameters   !
                           ! (Angstroms and Degrees)  !
 --------------------------                            --------------------------
 ! Name  Definition              Value          Derivative Info.                !
 --------------------------------------------------------------------------------
 ! R1    R(1,2)                  1.0919         -DE/DX =    0.0                 !
 ! R2    R(1,3)                  1.0917         -DE/DX =    0.0                 !
 ! R3    R(1,4)                  1.0939         -DE/DX =    0.0                 !
 ! R4    R(1,5)                  1.5293         -DE/DX =    0.0                 !
 ! R5    R(5,6)                  1.0955         -DE/DX =    0.0                 !
 ! R6    R(5,7)                  1.094          -DE/DX =    0.0                 !
 ! R7    R(5,8)                  1.5315         -DE/DX =    0.0                 !
 ! R8    R(8,9)                  1.0955         -DE/DX =    0.0                 !
 ! R9    R(8,10)                 1.094          -DE/DX =    0.0                 !
 ! R10   R(8,11)                 1.5293         -DE/DX =    0.0                 !
 ! R11   R(11,12)                1.0919         -DE/DX =    0.0                 !
 ! R12   R(11,13)                1.0939         -DE/DX =    0.0                 !
 ! R13   R(11,14)                1.0917         -DE/DX =    0.0                 !
 ! A1    A(2,1,3)              107.5942         -DE/DX =    0.0                 !
 ! A2    A(2,1,4)              107.895          -DE/DX =    0.0                 !
 ! A3    A(2,1,5)              111.0649         -DE/DX =    0.0                 !
 ! A4    A(3,1,4)              107.8569         -DE/DX =    0.0                 !
 ! A5    A(3,1,5)              111.5994         -DE/DX =    0.0                 !
 ! A6    A(4,1,5)              110.671          -DE/DX =    0.0                 !
 ! A7    A(1,5,6)              109.4871         -DE/DX =    0.0                 !
 ! A8    A(1,5,7)              109.1465         -DE/DX =    0.0                 !
 ! A9    A(1,5,8)              113.3907         -DE/DX =    0.0                 !
 ! A10   A(6,5,7)              106.5886         -DE/DX =    0.0                 !
 ! A11   A(6,5,8)              109.0928         -DE/DX =    0.0                 !
 ! A12   A(7,5,8)              108.9089         -DE/DX =    0.0                 !
 ! A13   A(5,8,9)              109.0928         -DE/DX =    0.0                 !
 ! A14   A(5,8,10)             108.9089         -DE/DX =    0.0                 !
 ! A15   A(5,8,11)             113.3907         -DE/DX =    0.0                 !
 ! A16   A(9,8,10)             106.5886         -DE/DX =    0.0                 !
 ! A17   A(9,8,11)             109.4871         -DE/DX =    0.0                 !
 ! A18   A(10,8,11)            109.1465         -DE/DX =    0.0                 !
 ! A19   A(8,11,12)            111.0649         -DE/DX =    0.0                 !
 ! A20   A(8,11,13)            110.671          -DE/DX =    0.0                 !
 ! A21   A(8,11,14)            111.5994         -DE/DX =    0.0                 !
 ! A22   A(12,11,13)           107.895          -DE/DX =    0.0                 !
 ! A23   A(12,11,14)           107.5942         -DE/DX =    0.0                 !
 ! A24   A(13,11,14)           107.8569         -DE/DX =    0.0                 !
 ! D1    D(2,1,5,6)             63.3326         -DE/DX =    0.0                 !
 ! D2    D(2,1,5,7)            -52.9909         -DE/DX =    0.0                 !
 ! D3    D(2,1,5,8)           -174.5872         -DE/DX =    0.0                 !
 ! D4    D(3,1,5,6)            -56.7254         -DE/DX =    0.0                 !
 ! D5    D(3,1,5,7)           -173.0488         -DE/DX =    0.0                 !
 ! D6    D(3,1,5,8)             65.3548         -DE/DX =    0.0                 !
 ! D7    D(4,1,5,6)           -176.849          -DE/DX =    0.0                 !
 ! D8    D(4,1,5,7)             66.8276         -DE/DX =    0.0                 !
 ! D9    D(4,1,5,8)            -54.7687         -DE/DX =    0.0                 !
 ! D10   D(1,5,8,9)             60.1735         -DE/DX =    0.0                 !
 ! D11   D(1,5,8,10)           176.1449         -DE/DX =    0.0                 !
 ! D12   D(1,5,8,11)           -62.1259         -DE/DX =    0.0                 !
 ! D13   D(6,5,8,9)           -177.527          -DE/DX =    0.0                 !
 ! D14   D(6,5,8,10)           -61.5557         -DE/DX =    0.0                 !
 ! D15   D(6,5,8,11)            60.1735         -DE/DX =    0.0                 !
 ! D16   D(7,5,8,9)            -61.5557         -DE/DX =    0.0                 !
 ! D17   D(7,5,8,10)            54.4157         -DE/DX =    0.0                 !
 ! D18   D(7,5,8,11)           176.1449         -DE/DX =    0.0                 !
 ! D19   D(5,8,11,12)         -174.5872         -DE/DX =    0.0                 !
 ! D20   D(5,8,11,13)          -54.7687         -DE/DX =    0.0                 !
 ! D21   D(5,8,11,14)           65.3548         -DE/DX =    0.0                 !
 ! D22   D(9,8,11,12)           63.3326         -DE/DX =    0.0                 !
 ! D23   D(9,8,11,13)         -176.849          -DE/DX =    0.0                 !
 ! D24   D(9,8,11,14)          -56.7254         -DE/DX =    0.0                 !
 ! D25   D(10,8,11,12)         -52.9909         -DE/DX =    0.0                 !
 ! D26   D(10,8,11,13)          66.8276         -DE/DX =    0.0                 !
 ! D27   D(10,8,11,14)        -173.0488         -DE/DX =    0.0                 !
 --------------------------------------------------------------------------------
 GradGradGradGradGradGradGradGradGradGradGradGradGradGradGradGradGradGrad

 Leave Link  103 at Wed Aug 12 19:12:58 2026, MaxMem= 12884901888 cpu:               1.9 elap:               0.1
 (Enter /home/falbo/g16/l9999.exe)

 ----------------------------------------------------------------------

 Electric dipole moment (input orientation):
 (Debye = 10**-18 statcoulomb cm , SI units = C m)
                  (au)            (Debye)         (10**-30 SI)
   Tot        0.376299D-01      0.956455D-01      0.319039D+00
   x         -0.267102D-01     -0.678905D-01     -0.226458D+00
   y         -0.508223D-02     -0.129177D-01     -0.430890D-01
   z         -0.260143D-01     -0.661217D-01     -0.220558D+00

 Dipole polarizability, Alpha (input orientation).
 (esu units = cm**3 , SI units = C**2 m**2 J**-1)
 Alpha(0;0):
               (au)            (10**-24 esu)      (10**-40 SI)
   iso        0.470653D+02      0.697436D+01      0.776003D+01
   aniso      0.591151D+01      0.875995D+00      0.974676D+00
   xx         0.463690D+02      0.687117D+01      0.764521D+01
   yx        -0.226919D+01     -0.336260D+00     -0.374139D+00
   yy         0.492218D+02      0.729392D+01      0.811558D+01
   zx         0.237678D-01      0.352203D-02      0.391878D-02
   zy         0.169273D+01      0.250837D+00      0.279094D+00
   zz         0.456053D+02      0.675800D+01      0.751929D+01

 ----------------------------------------------------------------------

 Dipole orientation:
     6         -2.81640751         -1.20242572         -1.43288419
     1         -2.30113019          0.78903523         -1.27035132
     1         -3.85236756         -1.43614903         -3.20145598
     1         -1.07082225         -2.30094813         -1.57085510
     6         -4.38364719         -2.05859122          0.83915508
     1         -6.16840893         -1.01052357          0.88136985
     1         -3.37526445         -1.57729737          2.57854399
     6         -4.95202648         -4.89639117          0.83915508
     1         -3.16726474         -5.94445882          0.88136985
     1         -5.96040921         -5.37768502          2.57854399
     6         -6.51926616         -5.75255667         -1.43288419
     1         -7.03454347         -7.74401762         -1.27035132
     1         -8.26485141         -4.65403426         -1.57085510
     1         -5.48330611         -5.51883336         -3.20145598

 Electric dipole moment (dipole orientation):
 (Debye = 10**-18 statcoulomb cm , SI units = C m)
                  (au)            (Debye)         (10**-30 SI)
   Tot        0.376299D-01      0.956455D-01      0.319039D+00
   x          0.000000D+00      0.000000D+00      0.000000D+00
   y          0.000000D+00      0.000000D+00      0.000000D+00
   z          0.376299D-01      0.956455D-01      0.319039D+00

 Dipole polarizability, Alpha (dipole orientation).
 (esu units = cm**3 , SI units = C**2 m**2 J**-1)
 Alpha(0;0):
               (au)            (10**-24 esu)      (10**-40 SI)
   iso        0.470653D+02      0.697436D+01      0.776003D+01
   aniso      0.591151D+01      0.875995D+00      0.974676D+00
   xx         0.462865D+02      0.685895D+01      0.763161D+01
   yx         0.299340D+01      0.443576D+00      0.493544D+00
   yy         0.489492D+02      0.725352D+01      0.807063D+01
   zx         0.000000D+00      0.000000D+00      0.000000D+00
   zy         0.000000D+00      0.000000D+00      0.000000D+00
   zz         0.459604D+02      0.681062D+01      0.757784D+01

 ----------------------------------------------------------------------
 1\1\GINC-WN01\Freq\RM052X\6-31+G(d)\C4H10\FALBO\12-Aug-2026\0\\#P Geom
 =AllCheck Guess=TCheck SCRF=Check GenChk RM052X/6-31+G(d) Freq\\HessFi
 t high-level Opt+Freq starting from 02_conf_010\\0,1\C,-0.5442532526,0
 .8163186643,1.4961471591\H,-0.3541253204,-0.253223207,1.385470121\H,-0
 .2718565308,1.0961385627,2.5155657715\H,0.1231729478,1.3488650828,0.81
 24382001\C,-2.0056397547,1.1491218119,1.1924566782\H,-2.6531672333,0.6
 510057111,1.9223055675\H,-2.2698951551,0.7426190173,0.211766424\C,-2.3
 019327332,2.6516733757,1.2031323985\H,-1.686118437,3.1437553057,0.4423
 965616\H,-3.3443658555,2.8095482747,0.9111777527\C,-2.056485516,3.3092
 413532,2.5618068887\H,-2.3687137012,4.3555508104,2.5535647952\H,-2.620
 2632406,2.7964164689,3.3464639327\H,-1.0002705284,3.2822207468,2.83638
 51905\\Version=ES64L-G16RevB.01\State=1-A\HF=-158.4177635\RMSD=1.122e-
 09\RMSF=4.060e-07\ZeroPoint=0.1347535\Thermal=0.1404487\Dipole=-0.0267
 102,-0.0050822,-0.0260143\DipoleDeriv=-0.0059425,0.0336186,-0.0335983,
 0.0502483,0.0488655,0.0001289,-0.0397016,-0.0003335,0.0992028,0.028471
 7,0.0461199,-0.0058413,0.0839066,-0.1753259,-0.0194605,0.0049456,-0.02
 84352,0.0757624,0.0187423,-0.0095933,-0.0294875,-0.0327436,0.0675352,-
 0.0666194,-0.068094,-0.0474385,-0.1287562,-0.0457168,-0.0412513,0.0541
 362,-0.0959207,0.0100455,0.0878563,0.0959673,0.0733516,-0.0297872,0.13
 6449,-0.0012068,-0.0190382,0.0123798,0.0875611,-0.0048941,-0.0084218,-
 0.0207005,0.1259389,-0.0806126,-0.050577,0.0841838,-0.0358421,-0.02191
 51,0.0574213,0.1050197,0.1008655,-0.0474273,0.0067433,0.0036808,-0.054
 414,-0.0046832,-0.0268367,-0.088043,-0.0783861,-0.1046356,-0.1429975,0
 .1195223,0.0253568,-0.0108247,0.0072617,0.0922544,-0.0051792,-0.020560
 3,0.0059981,0.1381723,-0.0154094,-0.0791474,0.1129704,-0.041052,-0.030
 7032,0.0457413,0.0818134,0.0565407,-0.1038424,-0.175976,0.0595263,-0.0
 895022,0.0480878,0.0004453,-0.0094624,-0.0616614,-0.013202,0.0124397,0
 .0968792,0.0035445,-0.031381,0.0034962,0.030525,-0.0640378,-0.0285171,
 -0.0465505,0.0147216,0.0577012,0.0761738,0.0062279,0.0636833,-0.174513
 6,-0.0422771,-0.0095009,-0.0073297,0.0457206,0.0029388,-0.0586843,0.08
 83124,-0.0783172,0.0083164,0.1024874,0.0609973,0.0407022,-0.0767137,-0
 .1437906,-0.0075605,-0.0717435,0.0194953,0.083746,0.0063383,-0.0339001
 ,-0.0088326,0.017566\Polar=46.368972,-2.269192,49.2217786,0.0237678,1.
 6927314,45.6052529\Quadrupole=-0.0250087,0.0081312,0.0168775,0.0813003
 ,-0.1048568,-0.1068787\PG=C02 [X(C4H10)]\NImag=0\\0.49935877,0.0191609
 2,0.59217445,-0.01428406,0.00481602,0.58855221,-0.05591899,0.04310323,
 0.00534112,0.06065971,0.04407412,-0.31500361,-0.02825204,-0.04889789,0
 .34082202,0.00546979,-0.02866987,-0.05294755,-0.00392056,0.03120855,0.
 05244648,-0.06473336,-0.01744045,-0.06038607,0.00056305,0.00056109,0.0
 0567271,0.07020270,-0.01748688,-0.06844361,-0.06668447,-0.00806037,-0.
 00764943,-0.03233686,0.01803917,0.07099769,-0.06119316,-0.06599518,-0.
 29131653,0.00027677,-0.00110840,-0.00220966,0.06781250,0.07466095,0.31
 492621,-0.14570675,-0.07977089,0.10221084,0.00358179,0.00215553,-0.004
 69951,0.00529307,0.00532791,-0.00471821,0.16104513,-0.07999306,-0.1152
 5090,0.08295622,-0.02027957,-0.01527995,0.02190703,0.00704949,0.004631
 43,-0.00594726,0.08703546,0.12071300,0.10237334,0.08297559,-0.15851887
 ,-0.00388833,-0.00201694,0.00262966,0.01920383,0.01680236,-0.01927481,
 -0.11227392,-0.09283893,0.16826725,-0.19796505,0.02181879,-0.02411327,
 -0.00428809,-0.00053631,-0.00106802,-0.00738339,0.00075081,-0.00119847
 ,-0.02116989,0.00487569,-0.00446086,0.52159739,0.02277111,-0.08600095,
 0.00290634,0.03423303,-0.00482955,0.00804083,-0.00991545,0.00188764,-0
 .00086832,-0.01602314,0.00323919,-0.00393586,0.03915772,0.50914871,-0.
 02537631,0.00514318,-0.08833349,0.00359899,-0.00057173,-0.00048216,-0.
 03260090,0.00747927,-0.00465891,0.02227014,-0.00531760,0.00506480,-0.0
 1703701,0.00436787,0.61381893,-0.02108933,-0.01477974,0.02245249,0.000
 88381,0.00048619,0.00023133,0.00137171,-0.00057981,-0.00039073,-0.0062
 2885,0.00210327,-0.00191481,-0.13978206,-0.07034960,0.10339632,0.15455
 576,0.00491862,0.00374264,-0.00566867,-0.00045327,0.00022675,-0.000452
 06,-0.00066301,0.00009271,0.00014352,0.00183903,0.00035758,0.00043898,
 -0.07034833,-0.10251425,0.07823269,0.07446123,0.11334775,-0.00554080,-
 0.00406060,0.00556025,0.00075466,-0.00023629,-0.00002860,0.00050172,-0
 .00037449,0.00086325,-0.00228124,-0.00007655,0.00103680,0.10427582,0.0
 7887274,-0.17066449,-0.11346357,-0.08810594,0.18220870,-0.00952588,-0.
 01116665,-0.03181434,0.00153874,0.00016863,0.00027479,-0.00670598,0.00
 154882,-0.00103801,0.00101251,-0.00068789,0.00049918,-0.06447318,-0.02
 446901,-0.05472217,0.00497827,0.00830497,0.01789942,0.07143123,0.00267
 203,0.00258816,0.00805758,-0.00038012,0.00043553,0.00041838,0.00208860
 ,0.00037150,0.00030528,-0.00039621,-0.00013629,-0.00048057,-0.02485343
 ,-0.08512420,-0.08708850,0.00456838,0.00602162,0.01392807,0.02242641,0
 .09416605,-0.00149000,-0.00147116,-0.00515313,-0.00023014,0.00060301,0
 .00014003,-0.00123985,0.00051481,0.00153716,-0.00042165,-0.00007127,0.
 00054299,-0.05524460,-0.08793387,-0.26769354,-0.00482442,-0.00801081,-
 0.02095367,0.06232147,0.09616358,0.28838125,-0.00759223,0.03545990,0.0
 0071702,-0.00691387,0.00190413,-0.00200258,0.00090178,-0.00035486,-0.0
 0031711,0.00148172,0.00079017,0.00006517,-0.08591508,0.02027882,0.0006
 0165,0.00404769,-0.02025325,-0.00023439,0.00084903,-0.00749639,0.00057
 275,0.61146815,0.00671758,-0.00804517,0.00176140,-0.00090885,0.0012014
 3,-0.00003172,-0.00077710,0.00030739,-0.00054860,-0.00166566,0.0012363
 8,-0.00020224,0.02039274,-0.19796222,0.00193600,0.00354184,-0.01777867
 ,0.00006038,0.00214438,-0.01337675,0.00162816,0.01314686,0.49599669,-0
 .00046884,0.00726444,0.00057771,-0.00143930,0.00039638,-0.00021793,-0.
 00002936,0.00077802,-0.00047336,0.00088420,-0.00117550,0.00050366,-0.0
 0212223,0.00130676,-0.08232234,-0.00445478,0.02370921,-0.00075418,0.00
 646781,-0.03244889,0.00085157,-0.01265784,-0.03678658,0.53710019,0.001
 42351,0.00036717,-0.00115817,0.00010347,-0.00014810,0.00004159,-0.0000
 4288,0.00004574,-0.00002077,0.00017182,-0.00030306,0.00043168,0.003033
 10,0.00312271,-0.00479326,0.00078769,0.00165875,-0.00083360,-0.0000141
 8,-0.00076004,-0.00012093,-0.13723847,-0.06662315,0.10352818,0.1450286
 3,-0.00163218,0.00153714,0.00014170,-0.00003195,0.00034485,-0.00045466
 ,0.00012148,-0.00003382,-0.00003878,0.00127426,0.00018756,-0.00030723,
 -0.01982416,-0.01774005,0.02425074,0.00179569,-0.00671213,-0.00033596,
 -0.00030081,0.00101337,-0.00057002,-0.06615929,-0.10110024,0.08186632,
 0.07351427,0.11333231,-0.00003162,-0.00014015,-0.00011889,-0.00024794,
 -0.00015519,0.00016118,0.00003862,0.00001501,0.00001379,-0.00058247,0.
 00042378,-0.00004003,0.00011800,-0.00009276,0.00022178,0.00002292,-0.0
 0030636,0.00120048,-0.00037296,0.00038400,0.00051592,0.10255781,0.0817
 0384,-0.17462210,-0.11320411,-0.08721333,0.19175127,0.00120323,0.00222
 100,0.00047018,-0.00050821,0.00015866,-0.00036267,0.00013712,-0.000133
 02,-0.00004557,0.00052512,-0.00016184,-0.00004827,-0.00542589,-0.00024
 728,-0.00079441,0.00049389,0.00041108,-0.00035369,0.00018542,0.0003778
 4,0.00059392,-0.29480435,0.03539818,-0.06521536,-0.01872969,0.00235297
 ,-0.00420632,0.31842327,-0.00083324,-0.00713663,-0.00057296,0.00208397
 ,-0.00057551,0.00050175,-0.00010771,0.00007498,0.00023844,-0.00013696,
 0.00012836,-0.00027178,0.03472301,-0.00557142,0.00845159,-0.00055200,0
 .00117002,0.00049613,-0.00016730,0.00136316,-0.00048672,0.03468305,-0.
 05406598,0.01158434,-0.01476986,0.00206788,-0.00471901,-0.03945573,0.0
 6167494,0.00047215,-0.00014811,0.00070234,-0.00008452,-0.00019525,0.00
 029268,0.00023265,-0.00025188,0.00014708,-0.00044740,0.00001849,0.0000
 2302,0.00015218,0.00038163,-0.00067885,-0.00032786,-0.00001020,-0.0001
 4880,0.00053995,0.00003395,0.00021974,-0.06447811,0.01130074,-0.068420
 59,0.02259268,-0.00419753,0.00670802,0.07248056,-0.00794490,0.07388032
 ,0.00097358,-0.00011912,0.00164724,-0.00019204,-0.00018101,-0.00036206
 ,0.00030246,0.00021972,-0.00076489,0.00003030,-0.00005901,0.00026735,0
 .00202253,0.00156361,0.00726396,-0.00006844,-0.00063509,-0.00095070,0.
 00028765,0.00216234,0.00048880,-0.08704649,-0.00709621,-0.01933125,0.0
 0377391,0.00914885,0.01758340,-0.00389265,-0.01552745,-0.03100643,0.59
 033388,-0.00028559,-0.00002072,0.00062685,-0.00045419,0.00018842,-0.00
 041065,0.00032809,-0.00059909,-0.00078848,0.00036660,0.00008906,-0.000
 15444,-0.00532765,-0.01713470,-0.03277087,-0.00023639,0.00166604,-0.00
 062638,0.00161090,-0.00664959,-0.00056947,-0.00948529,-0.10165592,-0.0
 4475009,0.00321298,0.00707092,0.01325571,0.00009791,0.00106468,0.00283
 980,-0.00732752,0.57880071,0.00044671,0.00056055,0.00076381,-0.0005394
 4,0.00019275,-0.00004019,0.00006510,-0.00025407,-0.00012640,0.00002944
 ,0.00005094,0.00001133,0.00180921,-0.00483224,0.00005249,-0.00029265,0
 .00155398,0.00124418,0.00000181,0.00242513,0.00113088,-0.01994150,-0.0
 4594404,-0.18359709,-0.00540191,-0.01145616,-0.02263129,-0.00103114,-0
 .00485446,-0.00926289,-0.00982023,-0.03699210,0.51095084,-0.00008051,0
 .00028056,-0.00045310,0.00015219,0.00010842,0.00028111,0.00016014,-0.0
 0011943,0.00052804,0.00002545,-0.00007656,-0.00001585,-0.00012198,-0.0
 0053004,-0.00158012,0.00005135,0.00039262,-0.00006364,0.00031832,-0.00
 040017,-0.00025996,0.00083187,-0.00729499,0.00021236,-0.00014122,0.000
 43902,0.00024856,0.00034319,-0.00036618,0.00038862,-0.07308268,0.07684
 500,-0.00079829,0.07459023,-0.00035681,0.00029074,0.00001729,0.0000360
 8,-0.00005747,-0.00001228,-0.00012274,0.00010712,0.00005522,0.00006661
 ,-0.00000280,-0.00006841,-0.00096920,0.00048090,-0.00368753,0.00004978
 ,0.00046517,0.00008227,0.00042082,-0.00102822,-0.00012647,0.00356417,-
 0.01213637,0.00182872,0.00028351,0.00039508,-0.00034004,-0.00066590,0.
 00032268,0.00012951,0.07636805,-0.30181739,0.00521306,-0.08383521,0.32
 702240,-0.00055934,0.00024676,-0.00025403,0.00010880,0.00002539,0.0001
 5436,0.00023716,0.00005349,0.00028418,0.00004685,0.00003542,0.00004256
 ,-0.00148059,-0.00082210,-0.00628929,-0.00026350,-0.00008954,0.0000929
 8,0.00023394,-0.00195732,-0.00008115,0.00955054,-0.03133363,0.00170471
 ,0.00061873,0.00068064,0.00082810,-0.00016497,0.00056984,0.00144843,-0
 .00102346,0.00613803,-0.04897009,0.00279603,-0.00412210,0.05231559,-0.
 00000260,0.00017901,0.00022111,0.00003490,0.00006809,-0.00004419,-0.00
 032126,-0.00010184,0.00001070,0.00006207,-0.00007737,-0.00026991,0.000
 27727,0.00007012,0.00021525,-0.00000942,0.00032379,0.00031063,-0.00002
 491,0.00022428,-0.00011941,0.00337260,0.00332025,-0.00434880,0.0010538
 1,-0.00060290,-0.00144304,0.00041319,0.00064903,0.00024268,-0.12439904
 ,-0.06640823,0.09955283,0.00562275,0.00450175,-0.00874564,0.13014533,-
 0.00004819,0.00005661,0.00010404,-0.00001578,0.00000871,0.00007554,0.0
 0003722,0.00005662,0.00018230,-0.00014155,0.00005356,0.00002737,0.0010
 6981,0.00166346,-0.00080723,-0.00051336,-0.00002674,0.00042247,-0.0001
 3403,0.00022229,0.00020991,0.00874526,0.00676746,-0.01116183,-0.000177
 05,-0.00080460,-0.00348757,0.00008826,0.00023196,0.00092212,-0.0664097
 6,-0.11089523,0.09173122,-0.01813857,-0.01450004,0.02284416,0.07450916
 ,0.11706485,0.00011073,-0.00036085,0.00007668,0.00006287,-0.00005374,0
 .00002160,0.00022435,-0.00006093,-0.00015579,-0.00023367,0.00009677,0.
 00004241,0.00035921,0.00176747,0.00128103,-0.00023182,-0.00132559,0.00
 035551,-0.00044367,0.00010674,0.00047911,0.01723950,0.01448445,-0.0230
 0595,-0.00194429,-0.00329453,-0.00508368,-0.00051161,0.00045617,0.0007
 7405,0.09943403,0.09148217,-0.18418224,-0.00075074,0.00048693,-0.00019
 120,-0.10958524,-0.09880106,0.20281519,-0.00034439,0.00068627,-0.00085
 098,0.00030352,0.00007844,0.00048827,0.00025485,0.00090405,0.00105893,
 -0.00012348,-0.00021574,0.00003140,-0.00040568,0.00033740,-0.00044214,
 0.00000795,0.00004285,-0.00002061,0.00014296,-0.00023352,-0.00002598,-
 0.00344234,-0.00029585,-0.00102480,0.00079050,-0.00009525,-0.00048085,
 0.00163634,-0.00022262,-0.00075714,-0.30904298,0.00706337,-0.06407994,
 -0.00866910,0.00065910,-0.00135454,-0.01622468,0.00112858,-0.00372964,
 0.33511655,0.00032157,-0.00048814,-0.00020931,0.00002568,0.00016782,0.
 00021602,0.00080132,-0.00180112,-0.00029068,0.00006902,0.00003383,0.00
 003211,-0.00092948,0.00045745,0.00038212,0.00000450,-0.00005847,-0.000
 04584,0.00030076,0.00013337,0.00012031,-0.01482327,0.00061198,-0.00241
 130,0.00057612,0.00044172,0.00067207,-0.00044212,-0.00074911,-0.002878
 37,0.00789260,-0.05010719,0.00260544,0.03269553,0.00045822,0.00773098,
 -0.01665514,0.00010108,-0.00498399,-0.00983708,0.05079856,0.00007143,-
 0.00016063,0.00040950,0.00020705,0.00016352,0.00008010,0.00026753,-0.0
 0034120,0.00044379,0.00021660,-0.00006154,-0.00033079,0.00001063,0.000
 84151,0.00068404,0.00006108,-0.00010920,-0.00001239,0.00015281,0.00015
 257,0.00008286,-0.03167290,0.00197184,-0.00732430,0.00026419,0.0009288
 1,0.00109544,-0.00081065,-0.00344843,-0.00568455,-0.06342578,0.0027199
 1,-0.06534334,-0.00053302,0.00054384,-0.00108515,0.02400302,-0.0022614
 5,0.00677329,0.07118802,-0.00093954,0.07021149\\-0.00000041,-0.0000008
 0,0.00000012,-0.00000041,-0.00000033,0.00000072,-0.00000040,0.00000015
 ,0.00000037,0.00000004,-0.00000051,0.00000024,-0.00000036,0.00000037,0
 .00000063,-0.00000041,0.00000041,0.00000023,-0.00000028,-0.00000022,0.
 00000017,0.00000068,-0.00000030,-0.00000031,0.00000031,-0.00000044,-0.
 00000034,0.00000013,0.00000019,-0.00000032,-0.00000004,0.00000071,-0.0
 0000056,0.00000064,0.00000038,-0.00000049,0.00000014,0.00000054,-0.000
 00007,0.00000038,-0.00000015,-0.00000038\\\@


 ... IT IS NO ONE DREAME THAT
     CAN PLEASE THESE ALL ...

                -- BEN JONSON
 Job cpu time:       0 days  0 hours  9 minutes 19.3 seconds.
 Elapsed time:       0 days  0 hours  0 minutes 12.2 seconds.
 File lengths (MBytes):  RWF=     88 Int=      0 D2E=      0 Chk=      3 Scr=      2
 Normal termination of Gaussian 16 at Wed Aug 12 19:12:58 2026.
