14
 energy: -13.665126236687 gnorm: 0.000129893294 xtb: 6.7.1 (edcfbbe)
C           -2.49104611790191        0.36312036973032        0.00073000310590
H           -3.57792013866058        0.36912962377219       -0.04869211041589
H           -2.15331044496611       -0.67070075980509        0.00695248029937
H           -2.10620112901444        0.84469860878433       -0.89587652466682
C           -2.00922145128619        1.09394784596324        1.24777213029890
H           -0.91779589185061        1.06360043924788        1.28710910865000
H           -2.38616490453068        0.58254988306281        2.13662606043144
C           -2.47213759923884        2.54863193840648        1.27117923979350
H           -2.10363652311083        3.05741918048738        0.37724880209845
H           -3.56389675894093        2.57882340640162        1.24206559300948
C           -1.97822970438337        3.28334473754823        2.51118482949761
H           -0.89070975574663        3.28783114957716        2.54393847655129
H           -2.32572664238357        4.31397268698490        2.51086915930112
H           -2.34451673798530        2.79782722983857        3.41335298204565
