      -----------------------------------------------------------      
     |                   =====================                   |     
     |                           x T B                           |     
     |                   =====================                   |     
     |                         S. Grimme                         |     
     |          Mulliken Center for Theoretical Chemistry        |     
     |                    University of Bonn                     |     
      -----------------------------------------------------------      

   * xtb version 6.7.1 (edcfbbe) compiled by 'conda@5dfe00f5fb80' on 2026-06-10

   xtb is free software: you can redistribute it and/or modify it under
   the terms of the GNU Lesser General Public License as published by
   the Free Software Foundation, either version 3 of the License, or
   (at your option) any later version.
   
   xtb is distributed in the hope that it will be useful,
   but WITHOUT ANY WARRANTY; without even the implied warranty of
   MERCHANTABILITY or FITNESS FOR A PARTICULAR PURPOSE.  See the
   GNU Lesser General Public License for more details.
   
   Cite this work as:
   * C. Bannwarth, E. Caldeweyher, S. Ehlert, A. Hansen, P. Pracht,
     J. Seibert, S. Spicher, S. Grimme, WIREs Comput. Mol. Sci., 2020, 11,
     e01493. DOI: 10.1002/wcms.1493
   
   for GFN2-xTB:
   * C. Bannwarth, S. Ehlert and S. Grimme., J. Chem. Theory Comput., 2019,
     15, 1652-1671. DOI: 10.1021/acs.jctc.8b01176
   for GFN1-xTB:
   * S. Grimme, C. Bannwarth, P. Shushkov, J. Chem. Theory Comput., 2017,
     13, 1989-2009. DOI: 10.1021/acs.jctc.7b00118
   for GFN0-xTB:
   * P. Pracht, E. Caldeweyher, S. Ehlert, S. Grimme, ChemRxiv, 2019, preprint.
     DOI: 10.26434/chemrxiv.8326202.v1
   for GFN-FF:
   * S. Spicher and S. Grimme, Angew. Chem. Int. Ed., 2020, 59, 15665-15673.
     DOI: 10.1002/anie.202004239
   
   for ALPB and GBSA implicit solvation:
   * S. Ehlert, M. Stahn, S. Spicher, S. Grimme, J. Chem. Theory Comput.,
     2021, 17, 4250-4261. DOI: 10.1021/acs.jctc.1c00471
   
   for ddCOSMO and CPCM-X implicit solvation:
   * M. Stahn, S. Ehlert, S. Grimme, J. Phys. Chem. A,
     2023, XX, XXXX-XXXX. DOI: 10.1021/acs.jpca.3c04382
   
   for DFT-D4:
   * E. Caldeweyher, C. Bannwarth and S. Grimme, J. Chem. Phys., 2017,
     147, 034112. DOI: 10.1063/1.4993215
   * E. Caldeweyher, S. Ehlert, A. Hansen, H. Neugebauer, S. Spicher,
     C. Bannwarth and S. Grimme, J. Chem. Phys., 2019, 150, 154122.
     DOI: 10.1063/1.5090222
   * E. Caldeweyher, J.-M. Mewes, S. Ehlert and S. Grimme, Phys. Chem. Chem. Phys.
     2020, 22, 8499-8512. DOI: 10.1039/D0CP00502A
   
   for sTDA-xTB:
   * S. Grimme and C. Bannwarth, J. Chem. Phys., 2016, 145, 054103.
     DOI: 10.1063/1.4959605
   
   in the mass-spec context:
   * V. Asgeirsson, C. Bauer and S. Grimme, Chem. Sci., 2017, 8, 4879.
     DOI: 10.1039/c7sc00601b
   * J. Koopman and S. Grimme, ACS Omega 2019, 4, 12, 15120-15133.
     DOI: 10.1021/acsomega.9b02011
   
   for metadynamics refer to:
   * S. Grimme, J. Chem. Theory Comput., 2019, 155, 2847-2862
     DOI: 10.1021/acs.jctc.9b00143
   
   for SPH calculations refer to:
   * S. Spicher and S. Grimme, J. Chem. Theory Comput., 2021, 17, 1701-1714
     DOI: 10.1021/acs.jctc.0c01306
   
   for ONIOM refer to:
   * C. Plett, A. Katbashev, S. Ehlert, S. Grimme, M. Bursch,
     Phys. Chem. Chem. Phys., 2023, 25, 17860-17868. DOI: 10.1039/D3CP02178E
   
   for DIPRO refer to:
   * J. Kohn, N. Gildemeister, S. Grimme, D. Fazzi, A. Hansen,
     J. Chem. Phys., 2023, just accepted.
   
   for PTB refer to:
   * S. Grimme, M. Mueller, A. Hansen, J. Chem. Phys., 2023, 158, 124111.
     DOI: 10.1063/5.0137838
   
   with help from (in alphabetical order)
   P. Atkinson, C. Bannwarth, F. Bohle, G. Brandenburg, E. Caldeweyher
   M. Checinski, S. Dohm, S. Ehlert, S. Ehrlich, I. Gerasimov, C. Hölzer
   A. Katbashev, J. Kohn, J. Koopman, C. Lavigne, S. Lehtola, F. März, M. Müller,
   F. Musil, H. Neugebauer, J. Pisarek, C. Plett, P. Pracht, F. Pultar,
   J. Seibert, P. Shushkov, S. Spicher, M. Stahn, M. Steiner, T. Strunk,
   J. Stückrath, T. Rose, and J. Unsleber
   
 * started run on 2026/08/17 at 12:14:23.808     
   ID    Z sym.   atoms
    1    6 C      1, 5, 8, 11
    2    1 H      2-4, 6, 7, 9, 10, 12-14

           -------------------------------------------------
          |                Calculation Setup                |
           -------------------------------------------------

          program call               : xtb input.xyz --gfn2 --opt tight --chrg 0 --uhf 0 --iterations 250
          coordinate file            : input.xyz
          omp threads                :                     4


           -------------------------------------------------
          |                 G F N 2 - x T B                 |
           -------------------------------------------------

        Reference                      10.1021/acs.jctc.8b01176
      * Hamiltonian:
        H0-scaling (s, p, d)           1.850000    2.230000    2.230000
        zeta-weighting                 0.500000
      * Dispersion:
        s8                             2.700000
        a1                             0.520000
        a2                             5.000000
        s9                             5.000000
      * Repulsion:
        kExp                           1.500000    1.000000
        rExp                           1.000000
      * Coulomb:
        alpha                          2.000000
        third order                    shell-resolved
        anisotropic                    true
        a3                             3.000000
        a5                             4.000000
        cn-shift                       1.200000
        cn-exp                         4.000000
        max-rad                        5.000000

q/qsh data taken from xtbrestart
CAMM data taken from xtbrestart

          ...................................................
          :                      SETUP                      :
          :.................................................:
          :  # basis functions                  26          :
          :  # atomic orbitals                  26          :
          :  # shells                           18          :
          :  # electrons                        26          :
          :  max. iterations                   250          :
          :  Hamiltonian                  GFN2-xTB          :
          :  restarted?                       true          :
          :  GBSA solvation                  false          :
          :  PC potential                    false          :
          :  electronic temp.          300.0000000     K    :
          :  accuracy                    1.0000000          :
          :  -> integral cutoff          0.2500000E+02      :
          :  -> integral neglect         0.1000000E-07      :
          :  -> SCF convergence          0.1000000E-05 Eh   :
          :  -> wf. convergence          0.1000000E-03 e    :
          :  Broyden damping             0.4000000          :
          :  net charge                          0          :
          :  unpaired electrons                  0          :
          ...................................................

 iter      E             dE          RMSdq      gap      omega  full diag
   1    -13.8643610 -0.138644E+02  0.820E-01   13.25       0.0  T
   2    -13.8643844 -0.233978E-04  0.493E-01   13.24       1.0  T
   3    -13.8643928 -0.846020E-05  0.216E-02   13.24       1.2  T
   4    -13.8643932 -0.389760E-06  0.122E-02   13.24       2.2  T
   5    -13.8643932 -0.138994E-07  0.184E-03   13.24      14.5  T
   6    -13.8643933 -0.813056E-08  0.452E-04   13.24      59.1  T
   7    -13.8643933 -0.174659E-09  0.154E-04   13.24     173.1  T

   *** convergence criteria satisfied after 7 iterations ***

         #    Occupation            Energy/Eh            Energy/eV
      -------------------------------------------------------------
         1        2.0000           -0.6168324             -16.7849
       ...           ...                  ...                  ...
         7        2.0000           -0.4888178             -13.3014
         8        2.0000           -0.4807987             -13.0832
         9        2.0000           -0.4517695             -12.2933
        10        2.0000           -0.4407461             -11.9933
        11        2.0000           -0.4386027             -11.9350
        12        2.0000           -0.4265405             -11.6068
        13        2.0000           -0.4133223             -11.2471 (HOMO)
        14                          0.0732172               1.9923 (LUMO)
        15                          0.1123499               3.0572
        16                          0.1196674               3.2563
        17                          0.1506589               4.0996
        18                          0.1604227               4.3653
       ...                                ...                  ...
        26                          0.3292250               8.9587
      -------------------------------------------------------------
                  HL-Gap            0.4865396 Eh           13.2394 eV
             Fermi-level           -0.1700526 Eh           -4.6274 eV

 SCC (total)                   0 d,  0 h,  0 min,  0.081 sec
 SCC setup                      ...        0 min,  0.004 sec (  4.699%)
 Dispersion                     ...        0 min,  0.007 sec (  8.636%)
 classical contributions        ...        0 min,  0.002 sec (  2.341%)
 integral evaluation            ...        0 min,  0.007 sec (  9.023%)
 iterations                     ...        0 min,  0.059 sec ( 72.588%)
 molecular gradient             ...        0 min,  0.002 sec (  2.306%)
 printout                       ...        0 min,  0.000 sec (  0.235%)

         :::::::::::::::::::::::::::::::::::::::::::::::::::::
         ::                     SUMMARY                     ::
         :::::::::::::::::::::::::::::::::::::::::::::::::::::
         :: total energy             -13.658343149056 Eh    ::
         :: gradient norm              0.015008575861 Eh/a0 ::
         :: HOMO-LUMO gap             13.239415281256 eV    ::
         ::.................................................::
         :: SCC energy               -13.864389346923 Eh    ::
         :: -> isotropic ES            0.002972054997 Eh    ::
         :: -> anisotropic ES          0.005133819730 Eh    ::
         :: -> anisotropic XC          0.009175896999 Eh    ::
         :: -> dispersion             -0.006011337878 Eh    ::
         :: repulsion energy           0.206046197868 Eh    ::
         :: add. restraining           0.000000000000 Eh    ::
         :: total charge               0.000000000000 e     ::
         :::::::::::::::::::::::::::::::::::::::::::::::::::::

      ----------------------------------------------------------- 
     |                   =====================                   |
     |                        A N C O P T                        |
     |                   =====================                   |
     |               Approximate Normal Coordinate               |
     |                Rational Function Optimizer                |
      ----------------------------------------------------------- 
      ----------------------------------------------------------- 
     |                   =====================                   |
     |                        A N C O P T                        |
     |                   =====================                   |
     |               Approximate Normal Coordinate               |
     |                Rational Function Optimizer                |
      ----------------------------------------------------------- 

          ...................................................
          :                      SETUP                      :
          :.................................................:
          :   optimization level             tight          :
          :   max. optcycles                   200          :
          :   ANC micro-cycles                  20          :
          :   degrees of freedom                36          :
          :.................................................:
          :   RF solver                   davidson          :
          :   write xtbopt.log                true          :
          :   linear?                        false          :
          :   energy convergence         0.1000000E-05 Eh   :
          :   grad. convergence          0.8000000E-03 Eh/α :
          :   maxmium RF displ.          1.0000000          :
          :   Hlow (freq-cutoff)         0.1000000E-01      :
          :   Hmax (freq-cutoff)         5.0000000          :
          :   S6 in model hess.         20.0000000          :
          ...................................................

generating ANC from exact Hessian ...
Using Lindh-Hessian (1995)
 Shifting diagonal of input Hessian by    5.8698668405670115E-003
 Lowest  eigenvalues of input Hessian
    0.000000    0.000000    0.000000    0.000000    0.000000    0.000000
    0.010000    0.013088    0.013448    0.017798    0.022018    0.044633
    0.046983    0.057079    0.059150    0.060161    0.061296    0.069874
 Highest eigenvalues
    1.107175    1.129991    1.174288    1.192191    1.211892    1.288943


........................................................................
.............................. CYCLE    1 ..............................
........................................................................

 iter      E             dE          RMSdq      gap      omega  full diag
   1    -13.8643933 -0.138644E+02  0.264E-05   13.24       0.0  T
   2    -13.8643933 -0.671463E-12  0.144E-05   13.24    1852.3  T
   3    -13.8643933 -0.142109E-13  0.430E-06   13.24    6221.3  T
     SCC iter.                  ...        0 min,  0.002 sec
     gradient                   ...        0 min,  0.002 sec
 * total energy  :   -13.6583431 Eh     change       -0.3610445E-10 Eh
   gradient norm :     0.0150083 Eh/α   predicted     0.0000000E+00 (-100.00%)
   displ. norm   :     0.1621843 α      lambda       -0.8304442E-03
   maximum displ.:     0.1213234 α      in ANC's #4, #5, #3, ...

........................................................................
.............................. CYCLE    2 ..............................
........................................................................

 iter      E             dE          RMSdq      gap      omega  full diag
   1    -13.8674173 -0.138674E+02  0.870E-02   13.39       0.0  T
   2    -13.8674190 -0.172888E-05  0.509E-02   13.40       1.0  T
   3    -13.8674191 -0.831899E-07  0.433E-03   13.39       6.2  T
   4    -13.8674191 -0.284356E-07  0.102E-03   13.39      26.2  T
   5    -13.8674191 -0.962102E-09  0.529E-04   13.39      50.5  T
   6    -13.8674191 -0.116790E-09  0.736E-05   13.39     363.2  T
     SCC iter.                  ...        0 min,  0.003 sec
     gradient                   ...        0 min,  0.003 sec
 * total energy  :   -13.6589580 Eh     change       -0.6148991E-03 Eh
   gradient norm :     0.0057951 Eh/α   predicted    -0.4261422E-03 ( -30.70%)
   displ. norm   :     0.3384654 α      lambda       -0.9414998E-03
   maximum displ.:     0.3079194 α      in ANC's #4, #3, #5, ...

........................................................................
.............................. CYCLE    3 ..............................
........................................................................

 iter      E             dE          RMSdq      gap      omega  full diag
   1    -13.8693569 -0.138694E+02  0.115E-01   13.45       0.0  T
   2    -13.8693586 -0.174231E-05  0.685E-02   13.45       1.0  T
   3    -13.8693588 -0.150123E-06  0.436E-03   13.45       6.1  T
   4    -13.8693588 -0.401756E-07  0.158E-03   13.45      16.9  T
   5    -13.8693588 -0.765374E-09  0.592E-04   13.45      45.1  T
   6    -13.8693588 -0.165707E-09  0.920E-05   13.45     290.5  T
     SCC iter.                  ...        0 min,  0.008 sec
     gradient                   ...        0 min,  0.002 sec
 * total energy  :   -13.6597260 Eh     change       -0.7679209E-03 Eh
   gradient norm :     0.0075514 Eh/α   predicted    -0.5246762E-03 ( -31.68%)
   displ. norm   :     0.3685406 α      lambda       -0.8772573E-03
   maximum displ.:     0.3498106 α      in ANC's #4, #3, #2, ...

........................................................................
.............................. CYCLE    4 ..............................
........................................................................

 iter      E             dE          RMSdq      gap      omega  full diag
   1    -13.8683190 -0.138683E+02  0.116E-01   13.47       0.0  T
   2    -13.8683210 -0.201150E-05  0.690E-02   13.46       1.0  T
   3    -13.8683212 -0.125311E-06  0.564E-03   13.47       4.7  T
   4    -13.8683213 -0.881629E-07  0.183E-03   13.46      14.6  T
   5    -13.8683213 -0.559739E-09  0.680E-04   13.46      39.3  T
   6    -13.8683213 -0.267118E-09  0.833E-05   13.46     321.0  T
     SCC iter.                  ...        0 min,  0.005 sec
     gradient                   ...        0 min,  0.002 sec
 * total energy  :   -13.6604774 Eh     change       -0.7514126E-03 Eh
   gradient norm :     0.0135727 Eh/α   predicted    -0.4982032E-03 ( -33.70%)
   displ. norm   :     0.3167380 α      lambda       -0.9461251E-03
   maximum displ.:     0.3095487 α      in ANC's #4, #24, #5, ...

........................................................................
.............................. CYCLE    5 ..............................
........................................................................

 iter      E             dE          RMSdq      gap      omega  full diag
   1    -13.8679814 -0.138680E+02  0.105E-01   13.46       0.0  T
   2    -13.8679825 -0.106913E-05  0.623E-02   13.46       1.0  T
   3    -13.8679825 -0.846945E-07  0.380E-03   13.46       7.0  T
   4    -13.8679826 -0.445420E-07  0.140E-03   13.46      19.2  T
   5    -13.8679826 -0.115337E-08  0.626E-04   13.46      42.7  T
   6    -13.8679826 -0.234191E-09  0.972E-05   13.46     274.9  T
     SCC iter.                  ...        0 min,  0.004 sec
     gradient                   ...        0 min,  0.002 sec
 * total energy  :   -13.6613188 Eh     change       -0.8413762E-03 Eh
   gradient norm :     0.0125048 Eh/α   predicted    -0.5205203E-03 ( -38.13%)
   displ. norm   :     0.5719581 α      lambda       -0.1746374E-02
   maximum displ.:     0.5533485 α      in ANC's #4, #24, #5, ...

........................................................................
.............................. CYCLE    6 ..............................
........................................................................

 iter      E             dE          RMSdq      gap      omega  full diag
   1    -13.8650873 -0.138651E+02  0.189E-01   13.49       0.0  T
   2    -13.8650980 -0.106362E-04  0.111E-01   13.48       1.0  T
   3    -13.8650984 -0.465765E-06  0.134E-02   13.48       2.0  T
   4    -13.8650986 -0.151518E-06  0.303E-03   13.48       8.8  T
   5    -13.8650986 -0.352875E-08  0.137E-03   13.48      19.6  T
   6    -13.8650986 -0.970111E-09  0.210E-04   13.48     127.2  T
   7    -13.8650986 -0.670166E-10  0.973E-05   13.48     274.7  T
     SCC iter.                  ...        0 min,  0.005 sec
     gradient                   ...        0 min,  0.002 sec
 * total energy  :   -13.6625049 Eh     change       -0.1186155E-02 Eh
   gradient norm :     0.0155020 Eh/α   predicted    -0.1158840E-02 (  -2.30%)
   displ. norm   :     0.2657808 α      lambda       -0.8898068E-03
   maximum displ.:     0.2398065 α      in ANC's #4, #24, #5, ...

........................................................................
.............................. CYCLE    7 ..............................
........................................................................

 iter      E             dE          RMSdq      gap      omega  full diag
   1    -13.8684491 -0.138684E+02  0.932E-02   13.54       0.0  T
   2    -13.8684500 -0.868532E-06  0.554E-02   13.54       1.0  T
   3    -13.8684501 -0.121337E-06  0.450E-03   13.54       5.9  T
   4    -13.8684502 -0.927615E-07  0.194E-03   13.54      13.8  T
   5    -13.8684502 -0.136653E-08  0.325E-04   13.54      82.2  T
   6    -13.8684502 -0.170992E-09  0.124E-04   13.54     214.9  T
     SCC iter.                  ...        0 min,  0.003 sec
     gradient                   ...        0 min,  0.002 sec
 * total energy  :   -13.6631495 Eh     change       -0.6445446E-03 Eh
   gradient norm :     0.0135478 Eh/α   predicted    -0.4763307E-03 ( -26.10%)
   displ. norm   :     0.2695236 α      lambda       -0.7267997E-03
   maximum displ.:     0.2433338 α      in ANC's #4, #24, #11, ...

........................................................................
.............................. CYCLE    8 ..............................
........................................................................

 iter      E             dE          RMSdq      gap      omega  full diag
   1    -13.8719288 -0.138719E+02  0.816E-02   13.66       0.0  T
   2    -13.8719298 -0.911169E-06  0.488E-02   13.67       1.0  T
   3    -13.8719298 -0.808882E-07  0.378E-03   13.66       7.1  T
   4    -13.8719299 -0.458512E-07  0.143E-03   13.66      18.7  T
   5    -13.8719299 -0.479520E-09  0.481E-04   13.66      55.6  T
   6    -13.8719299 -0.954543E-10  0.697E-05   13.66     383.3  T
     SCC iter.                  ...        0 min,  0.003 sec
     gradient                   ...        0 min,  0.003 sec
 * total energy  :   -13.6636903 Eh     change       -0.5408433E-03 Eh
   gradient norm :     0.0116228 Eh/α   predicted    -0.3897975E-03 ( -27.93%)
   displ. norm   :     0.4158752 α      lambda       -0.6833464E-03
   maximum displ.:     0.3858989 α      in ANC's #4, #24, #1, ...

........................................................................
.............................. CYCLE    9 ..............................
........................................................................

 iter      E             dE          RMSdq      gap      omega  full diag
   1    -13.8684768 -0.138685E+02  0.128E-01   13.73       0.0  T
   2    -13.8684813 -0.447508E-05  0.757E-02   13.73       1.0  T
   3    -13.8684815 -0.260184E-06  0.929E-03   13.73       2.9  T
   4    -13.8684817 -0.158071E-06  0.265E-03   13.73      10.1  T
   5    -13.8684817 -0.421425E-08  0.130E-03   13.73      20.5  T
   6    -13.8684817 -0.880368E-09  0.149E-04   13.73     179.9  T
   7    -13.8684817 -0.226912E-10  0.663E-05   13.73     403.2  T
     SCC iter.                  ...        0 min,  0.004 sec
     gradient                   ...        0 min,  0.002 sec
 * total energy  :   -13.6639543 Eh     change       -0.2640383E-03 Eh
   gradient norm :     0.0158186 Eh/α   predicted    -0.4007654E-03 (  51.78%)
   displ. norm   :     0.2178218 α      lambda       -0.1091633E-02
   maximum displ.:     0.1176525 α      in ANC's #3, #4, #24, ...

........................................................................
.............................. CYCLE   10 ..............................
........................................................................

 iter      E             dE          RMSdq      gap      omega  full diag
   1    -13.8805380 -0.138805E+02  0.124E-01   13.84       0.0  T
   2    -13.8805586 -0.205518E-04  0.685E-02   13.85       1.0  T
   3    -13.8805592 -0.654891E-06  0.210E-02   13.84       1.3  T
   4    -13.8805593 -0.119348E-06  0.365E-03   13.84       7.3  T
   5    -13.8805593 -0.552750E-08  0.194E-03   13.84      13.8  T
   6    -13.8805593 -0.124956E-08  0.142E-04   13.84     188.7  T
   7    -13.8805593 -0.507221E-10  0.668E-05   13.84     400.3  T
     SCC iter.                  ...        0 min,  0.004 sec
     gradient                   ...        0 min,  0.004 sec
 * total energy  :   -13.6642188 Eh     change       -0.2644595E-03 Eh
   gradient norm :     0.0129927 Eh/α   predicted    -0.5717140E-03 ( 116.18%)
   displ. norm   :     0.2091083 α      lambda       -0.4959928E-03
   maximum displ.:     0.1905613 α      in ANC's #4, #3, #24, ...

........................................................................
.............................. CYCLE   11 ..............................
........................................................................

 iter      E             dE          RMSdq      gap      omega  full diag
   1    -13.8721199 -0.138721E+02  0.109E-01   13.76       0.0  T
   2    -13.8721319 -0.120017E-04  0.605E-02   13.75       1.0  T
   3    -13.8721325 -0.532357E-06  0.172E-02   13.75       1.6  T
   4    -13.8721326 -0.162809E-06  0.353E-03   13.76       7.6  T
   5    -13.8721326 -0.558110E-08  0.182E-03   13.76      14.7  T
   6    -13.8721326 -0.133589E-08  0.193E-04   13.75     138.3  T
   7    -13.8721326 -0.847713E-10  0.817E-05   13.75     326.9  T
     SCC iter.                  ...        0 min,  0.004 sec
     gradient                   ...        0 min,  0.002 sec
 * total energy  :   -13.6641854 Eh     change        0.3335290E-04 Eh
   gradient norm :     0.0163490 Eh/α   predicted    -0.2588411E-03 (-876.07%)
   displ. norm   :     0.1495274 α      lambda       -0.7227662E-03
   maximum displ.:     0.1006951 α      in ANC's #4, #3, #24, ...

........................................................................
.............................. CYCLE   12 ..............................
........................................................................

 iter      E             dE          RMSdq      gap      omega  full diag
   1    -13.8729973 -0.138730E+02  0.936E-02   13.73       0.0  T
   2    -13.8730104 -0.130275E-04  0.502E-02   13.73       1.0  T
   3    -13.8730109 -0.585308E-06  0.184E-02   13.73       1.5  T
   4    -13.8730111 -0.138989E-06  0.345E-03   13.73       7.8  T
   5    -13.8730111 -0.120321E-08  0.115E-03   13.73      23.2  T
   6    -13.8730111 -0.279153E-08  0.157E-04   13.73     169.7  T
   7    -13.8730111 -0.127933E-10  0.609E-05   13.73     439.0  T
     SCC iter.                  ...        0 min,  0.004 sec
     gradient                   ...        0 min,  0.011 sec
 * total energy  :   -13.6643533 Eh     change       -0.1678208E-03 Eh
   gradient norm :     0.0074366 Eh/α   predicted    -0.3694638E-03 ( 120.15%)
   displ. norm   :     0.0641910 α      lambda       -0.2664260E-03
   maximum displ.:     0.0501059 α      in ANC's #3, #6, #2, ...

........................................................................
.............................. CYCLE   13 ..............................
........................................................................

 iter      E             dE          RMSdq      gap      omega  full diag
   1    -13.8763355 -0.138763E+02  0.513E-02   13.76       0.0  T
   2    -13.8763382 -0.275626E-05  0.287E-02   13.76       1.0  T
   3    -13.8763383 -0.122619E-06  0.786E-03   13.76       3.4  T
   4    -13.8763384 -0.228506E-07  0.158E-03   13.76      16.9  T
   5    -13.8763384 -0.478069E-09  0.643E-04   13.76      41.6  T
   6    -13.8763384 -0.152768E-09  0.899E-05   13.76     297.2  T
     SCC iter.                  ...        0 min,  0.003 sec
     gradient                   ...        0 min,  0.002 sec
 * total energy  :   -13.6644801 Eh     change       -0.1268113E-03 Eh
   gradient norm :     0.0036656 Eh/α   predicted    -0.1337615E-03 (   5.48%)
   displ. norm   :     0.0518453 α      lambda       -0.5459139E-04
   maximum displ.:     0.0328919 α      in ANC's #3, #4, #1, ...

........................................................................
.............................. CYCLE   14 ..............................
........................................................................

 iter      E             dE          RMSdq      gap      omega  full diag
   1    -13.8758863 -0.138759E+02  0.202E-02   13.76       0.0  T
   2    -13.8758864 -0.120737E-06  0.119E-02   13.76       2.3  T
   3    -13.8758864 -0.880350E-08  0.167E-03   13.76      16.0  T
   4    -13.8758864 -0.548168E-08  0.501E-04   13.76      53.3  T
   5    -13.8758864 -0.145000E-09  0.186E-04   13.76     143.7  T
     SCC iter.                  ...        0 min,  0.002 sec
     gradient                   ...        0 min,  0.002 sec
 * total energy  :   -13.6645212 Eh     change       -0.4115760E-04 Eh
   gradient norm :     0.0042378 Eh/α   predicted    -0.2737053E-04 ( -33.50%)
   displ. norm   :     0.1197337 α      lambda       -0.1097916E-03
   maximum displ.:     0.0816358 α      in ANC's #3, #4, #1, ...

........................................................................
.............................. CYCLE   15 ..............................
........................................................................

 iter      E             dE          RMSdq      gap      omega  full diag
   1    -13.8747825 -0.138748E+02  0.381E-02   13.76       0.0  T
   2    -13.8747827 -0.275631E-06  0.225E-02   13.76       1.2  T
   3    -13.8747828 -0.217064E-07  0.223E-03   13.76      12.0  T
   4    -13.8747828 -0.115967E-07  0.758E-04   13.76      35.3  T
   5    -13.8747828 -0.231172E-09  0.316E-04   13.76      84.7  T
     SCC iter.                  ...        0 min,  0.002 sec
     gradient                   ...        0 min,  0.002 sec
 * total energy  :   -13.6646000 Eh     change       -0.7872297E-04 Eh
   gradient norm :     0.0052360 Eh/α   predicted    -0.5568189E-04 ( -29.27%)
   displ. norm   :     0.1563261 α      lambda       -0.1504662E-03
   maximum displ.:     0.1229991 α      in ANC's #3, #1, #25, ...

........................................................................
.............................. CYCLE   16 ..............................
........................................................................

 iter      E             dE          RMSdq      gap      omega  full diag
   1    -13.8745721 -0.138746E+02  0.505E-02   13.75       0.0  T
   2    -13.8745722 -0.157741E-06  0.301E-02   13.75       1.0  T
   3    -13.8745723 -0.291578E-07  0.164E-03   13.75      16.3  T
   4    -13.8745723 -0.778943E-08  0.769E-04   13.75      34.8  T
   5    -13.8745723 -0.408274E-09  0.157E-04   13.75     169.9  T
     SCC iter.                  ...        0 min,  0.002 sec
     gradient                   ...        0 min,  0.002 sec
 * total energy  :   -13.6647133 Eh     change       -0.1133108E-03 Eh
   gradient norm :     0.0061029 Eh/α   predicted    -0.7706933E-04 ( -31.98%)
   displ. norm   :     0.2232184 α      lambda       -0.2034718E-03
   maximum displ.:     0.1695761 α      in ANC's #3, #4, #25, ...

........................................................................
.............................. CYCLE   17 ..............................
........................................................................

 iter      E             dE          RMSdq      gap      omega  full diag
   1    -13.8743894 -0.138744E+02  0.660E-02   13.75       0.0  T
   2    -13.8743900 -0.635900E-06  0.393E-02   13.75       1.0  T
   3    -13.8743901 -0.490083E-07  0.308E-03   13.75       8.7  T
   4    -13.8743901 -0.215059E-07  0.103E-03   13.75      25.8  T
   5    -13.8743901 -0.207701E-09  0.331E-04   13.75      80.7  T
   6    -13.8743901 -0.174181E-09  0.626E-05   13.75     426.8  T
     SCC iter.                  ...        0 min,  0.003 sec
     gradient                   ...        0 min,  0.002 sec
 * total energy  :   -13.6648401 Eh     change       -0.1268369E-03 Eh
   gradient norm :     0.0059424 Eh/α   predicted    -0.1068033E-03 ( -15.79%)
   displ. norm   :     0.1070128 α      lambda       -0.1044999E-03
   maximum displ.:     0.0855626 α      in ANC's #3, #25, #6, ...

........................................................................
.............................. CYCLE   18 ..............................
........................................................................

 iter      E             dE          RMSdq      gap      omega  full diag
   1    -13.8751992 -0.138752E+02  0.357E-02   13.78       0.0  T
   2    -13.8751993 -0.923018E-07  0.213E-02   13.78       1.3  T
   3    -13.8751993 -0.108860E-07  0.143E-03   13.78      18.7  T
   4    -13.8751993 -0.998803E-08  0.572E-04   13.78      46.7  T
   5    -13.8751993 -0.116422E-09  0.132E-04   13.78     202.4  T
     SCC iter.                  ...        0 min,  0.002 sec
     gradient                   ...        0 min,  0.002 sec
 * total energy  :   -13.6649136 Eh     change       -0.7349343E-04 Eh
   gradient norm :     0.0040473 Eh/α   predicted    -0.5284815E-04 ( -28.09%)
   displ. norm   :     0.0954513 α      lambda       -0.9179176E-04
   maximum displ.:     0.0718441 α      in ANC's #3, #4, #25, ...

........................................................................
.............................. CYCLE   19 ..............................
........................................................................

 iter      E             dE          RMSdq      gap      omega  full diag
   1    -13.8765333 -0.138765E+02  0.350E-02   13.82       0.0  T
   2    -13.8765335 -0.202776E-06  0.207E-02   13.82       1.3  T
   3    -13.8765335 -0.227693E-07  0.198E-03   13.82      13.5  T
   4    -13.8765335 -0.949080E-08  0.729E-04   13.82      36.7  T
   5    -13.8765335 -0.266892E-09  0.253E-04   13.82     105.6  T
     SCC iter.                  ...        0 min,  0.002 sec
     gradient                   ...        0 min,  0.002 sec
 * total energy  :   -13.6649659 Eh     change       -0.5231706E-04 Eh
   gradient norm :     0.0028177 Eh/α   predicted    -0.4631471E-04 ( -11.47%)
   displ. norm   :     0.0831645 α      lambda       -0.3937646E-04
   maximum displ.:     0.0612714 α      in ANC's #3, #1, #25, ...

........................................................................
.............................. CYCLE   20 ..............................
........................................................................

 iter      E             dE          RMSdq      gap      omega  full diag
   1    -13.8759337 -0.138759E+02  0.264E-02   13.81       0.0  T
   2    -13.8759338 -0.111527E-06  0.158E-02   13.81       1.7  T
   3    -13.8759338 -0.842688E-08  0.112E-03   13.81      23.9  T
   4    -13.8759338 -0.198002E-08  0.379E-04   13.81      70.5  T
   5    -13.8759338 -0.180961E-09  0.172E-04   13.81     155.4  T
     SCC iter.                  ...        0 min,  0.002 sec
     gradient                   ...        0 min,  0.002 sec
 * total energy  :   -13.6649902 Eh     change       -0.2429261E-04 Eh
   gradient norm :     0.0030098 Eh/α   predicted    -0.1982335E-04 ( -18.40%)
   displ. norm   :     0.0633403 α      lambda       -0.2967028E-04
   maximum displ.:     0.0470080 α      in ANC's #1, #3, #2, ...
 * RMSD in coord.:     0.7529273 α      energy gain  -0.6647060E-02 Eh

generating ANC from exact Hessian ...
Using Lindh-Hessian (1995)
 Shifting diagonal of input Hessian by    5.7817734951029808E-003
 Lowest  eigenvalues of input Hessian
    0.000000    0.000000    0.000000    0.000000    0.000000    0.000000
    0.010000    0.013363    0.013766    0.018335    0.022482    0.045960
    0.048032    0.057717    0.060239    0.060585    0.062498    0.071011
 Highest eigenvalues
    1.131632    1.150490    1.194476    1.201584    1.226027    1.290429


........................................................................
.............................. CYCLE   21 ..............................
........................................................................

 iter      E             dE          RMSdq      gap      omega  full diag
   1    -13.8756816 -0.138757E+02  0.201E-02   13.80       0.0  T
   2    -13.8756816 -0.246114E-07  0.119E-02   13.80       2.2  T
   3    -13.8756816 -0.435937E-08  0.587E-04   13.80      45.5  T
   4    -13.8756816 -0.800508E-09  0.280E-04   13.80      95.5  T
     SCC iter.                  ...        0 min,  0.002 sec
     gradient                   ...        0 min,  0.002 sec
 * total energy  :   -13.6650138 Eh     change       -0.2361353E-04 Eh
   gradient norm :     0.0024193 Eh/α   predicted     0.0000000E+00 (-100.00%)
   displ. norm   :     0.0422188 α      lambda       -0.3079712E-04
   maximum displ.:     0.0387504 α      in ANC's #1, #6, #3, ...

........................................................................
.............................. CYCLE   22 ..............................
........................................................................

 iter      E             dE          RMSdq      gap      omega  full diag
   1    -13.8758151 -0.138758E+02  0.166E-02   13.80       0.0  T
   2    -13.8758151 -0.264525E-07  0.984E-03   13.80       2.7  T
   3    -13.8758151 -0.370423E-08  0.609E-04   13.80      43.9  T
   4    -13.8758151 -0.916629E-09  0.251E-04   13.80     106.5  T
     SCC iter.                  ...        0 min,  0.002 sec
     gradient                   ...        0 min,  0.002 sec
 * total energy  :   -13.6650390 Eh     change       -0.2518478E-04 Eh
   gradient norm :     0.0009601 Eh/α   predicted    -0.1542619E-04 ( -38.75%)
   displ. norm   :     0.0863870 α      lambda       -0.2626829E-04
   maximum displ.:     0.0800675 α      in ANC's #1, #4, #3, ...

........................................................................
.............................. CYCLE   23 ..............................
........................................................................

 iter      E             dE          RMSdq      gap      omega  full diag
   1    -13.8759800 -0.138760E+02  0.270E-02   13.79       0.0  T
   2    -13.8759800 -0.483296E-07  0.160E-02   13.80       1.7  T
   3    -13.8759800 -0.759803E-08  0.732E-04   13.80      36.5  T
   4    -13.8759800 -0.997225E-09  0.325E-04   13.80      82.3  T
     SCC iter.                  ...        0 min,  0.002 sec
     gradient                   ...        0 min,  0.002 sec
 * total energy  :   -13.6650675 Eh     change       -0.2849180E-04 Eh
   gradient norm :     0.0012609 Eh/α   predicted    -0.1317842E-04 ( -53.75%)
   displ. norm   :     0.0567713 α      lambda       -0.1248084E-04
   maximum displ.:     0.0539473 α      in ANC's #1, #4, #3, ...

........................................................................
.............................. CYCLE   24 ..............................
........................................................................

 iter      E             dE          RMSdq      gap      omega  full diag
   1    -13.8760170 -0.138760E+02  0.175E-02   13.80       0.0  T
   2    -13.8760170 -0.544014E-08  0.104E-02   13.80       2.6  T
   3    -13.8760170 -0.240593E-08  0.329E-04   13.80      81.2  T
   4    -13.8760170 -0.476295E-10  0.139E-04   13.80     192.6  T
     SCC iter.                  ...        0 min,  0.002 sec
     gradient                   ...        0 min,  0.002 sec
 * total energy  :   -13.6650845 Eh     change       -0.1699609E-04 Eh
   gradient norm :     0.0011772 Eh/α   predicted    -0.6248238E-05 ( -63.24%)
   displ. norm   :     0.0511281 α      lambda       -0.1092696E-04
   maximum displ.:     0.0483451 α      in ANC's #1, #4, #3, ...

........................................................................
.............................. CYCLE   25 ..............................
........................................................................

 iter      E             dE          RMSdq      gap      omega  full diag
   1    -13.8760104 -0.138760E+02  0.152E-02   13.80       0.0  T
   2    -13.8760104 -0.100048E-07  0.900E-03   13.80       3.0  T
   3    -13.8760104 -0.211977E-08  0.348E-04   13.80      76.8  T
   4    -13.8760104 -0.173852E-09  0.176E-04   13.80     152.1  T
     SCC iter.                  ...        0 min,  0.002 sec
     gradient                   ...        0 min,  0.002 sec
 * total energy  :   -13.6650985 Eh     change       -0.1404183E-04 Eh
   gradient norm :     0.0003944 Eh/α   predicted    -0.5469457E-05 ( -61.05%)
   displ. norm   :     0.0463243 α      lambda       -0.7099642E-05
   maximum displ.:     0.0436863 α      in ANC's #1, #3, #4, ...

........................................................................
.............................. CYCLE   26 ..............................
........................................................................

 iter      E             dE          RMSdq      gap      omega  full diag
   1    -13.8759549 -0.138760E+02  0.149E-02   13.80       0.0  T
   2    -13.8759549 -0.850995E-08  0.886E-03   13.80       3.0  T
   3    -13.8759549 -0.183246E-08  0.326E-04   13.80      82.0  T
   4    -13.8759549 -0.228418E-09  0.166E-04   13.80     161.1  T
     SCC iter.                  ...        0 min,  0.002 sec
     gradient                   ...        0 min,  0.002 sec
 * total energy  :   -13.6651077 Eh     change       -0.9137289E-05 Eh
   gradient norm :     0.0002962 Eh/α   predicted    -0.3551915E-05 ( -61.13%)
   displ. norm   :     0.0370223 α      lambda       -0.4497967E-05
   maximum displ.:     0.0348456 α      in ANC's #1, #3, #10, ...

........................................................................
.............................. CYCLE   27 ..............................
........................................................................

 iter      E             dE          RMSdq      gap      omega  full diag
   1    -13.8759900 -0.138760E+02  0.105E-02   13.80       0.0  T
   2    -13.8759900 -0.190905E-08  0.624E-03   13.80       4.3  T
   3    -13.8759900 -0.830312E-09  0.199E-04   13.80     134.3  T
   4    -13.8759900 -0.154010E-10  0.829E-05   13.80     322.3  T
     SCC iter.                  ...        0 min,  0.002 sec
     gradient                   ...        0 min,  0.002 sec
 * total energy  :   -13.6651136 Eh     change       -0.5920368E-05 Eh
   gradient norm :     0.0004209 Eh/α   predicted    -0.2250525E-05 ( -61.99%)
   displ. norm   :     0.0316029 α      lambda       -0.3317452E-05
   maximum displ.:     0.0293340 α      in ANC's #1, #3, #5, ...

........................................................................
.............................. CYCLE   28 ..............................
........................................................................

 iter      E             dE          RMSdq      gap      omega  full diag
   1    -13.8760031 -0.138760E+02  0.978E-03   13.80       0.0  T
   2    -13.8760031 -0.183602E-08  0.582E-03   13.80       4.6  T
   3    -13.8760031 -0.655088E-09  0.184E-04   13.80     145.1  T
   4    -13.8760031 -0.478924E-10  0.977E-05   13.80     273.7  T
     SCC iter.                  ...        0 min,  0.002 sec
     gradient                   ...        0 min,  0.002 sec
 * total energy  :   -13.6651180 Eh     change       -0.4412624E-05 Eh
   gradient norm :     0.0002636 Eh/α   predicted    -0.1658688E-05 ( -62.41%)
   displ. norm   :     0.0282214 α      lambda       -0.2492176E-05
   maximum displ.:     0.0261934 α      in ANC's #1, #3, #4, ...

........................................................................
.............................. CYCLE   29 ..............................
........................................................................

 iter      E             dE          RMSdq      gap      omega  full diag
   1    -13.8760192 -0.138760E+02  0.889E-03   13.80       0.0  T
   2    -13.8760192 -0.163598E-08  0.529E-03   13.80       5.0  T
   3    -13.8760192 -0.564244E-09  0.166E-04   13.80     161.3  T
   4    -13.8760192 -0.333440E-10  0.858E-05   13.80     311.7  T
     SCC iter.                  ...        0 min,  0.002 sec
     gradient                   ...        0 min,  0.002 sec
 * total energy  :   -13.6651213 Eh     change       -0.3299265E-05 Eh
   gradient norm :     0.0001445 Eh/α   predicted    -0.1248302E-05 ( -62.16%)
   displ. norm   :     0.0238774 α      lambda       -0.1706019E-05
   maximum displ.:     0.0223899 α      in ANC's #1, #3, #4, ...

........................................................................
.............................. CYCLE   30 ..............................
........................................................................

 iter      E             dE          RMSdq      gap      omega  full diag
   1    -13.8760461 -0.138760E+02  0.632E-03   13.80       0.0  T
   2    -13.8760461 -0.958378E-09  0.377E-03   13.80       7.1  T
   3    -13.8760461 -0.309855E-09  0.124E-04   13.80     215.1  T
   4    -13.8760461 -0.875744E-11  0.609E-05   13.80     439.0  T
     SCC iter.                  ...        0 min,  0.002 sec
     gradient                   ...        0 min,  0.002 sec
 * total energy  :   -13.6651235 Eh     change       -0.2231440E-05 Eh
   gradient norm :     0.0001314 Eh/α   predicted    -0.8542261E-06 ( -61.72%)
   displ. norm   :     0.0185388 α      lambda       -0.1068755E-05
   maximum displ.:     0.0176506 α      in ANC's #1, #4, #3, ...

........................................................................
.............................. CYCLE   31 ..............................
........................................................................

 iter      E             dE          RMSdq      gap      omega  full diag
   1    -13.8760469 -0.138760E+02  0.635E-03   13.80       0.0  T
   2    -13.8760469 -0.673634E-09  0.377E-03   13.80       7.1  T
   3    -13.8760469 -0.298808E-09  0.110E-04   13.80     242.0  T
   4    -13.8760469 -0.427747E-11  0.422E-05   13.80     633.0  T
     SCC iter.                  ...        0 min,  0.002 sec
     gradient                   ...        0 min,  0.002 sec
 * total energy  :   -13.6651249 Eh     change       -0.1409194E-05 Eh
   gradient norm :     0.0001083 Eh/α   predicted    -0.5341769E-06 ( -62.09%)
   displ. norm   :     0.0136548 α      lambda       -0.6449454E-06
   maximum displ.:     0.0133118 α      in ANC's #1, #4, #3, ...

........................................................................
.............................. CYCLE   32 ..............................
........................................................................

 iter      E             dE          RMSdq      gap      omega  full diag
   1    -13.8760482 -0.138760E+02  0.367E-03   13.80       0.0  T
   2    -13.8760482 -0.246702E-09  0.218E-03   13.80      12.3  T
   3    -13.8760482 -0.106800E-09  0.730E-05   13.80     365.9  T
   4    -13.8760482 -0.187583E-11  0.234E-05   13.80    1140.5  T
     SCC iter.                  ...        0 min,  0.002 sec
     gradient                   ...        0 min,  0.002 sec
 * total energy  :   -13.6651258 Eh     change       -0.8714350E-06 Eh
   gradient norm :     0.0000872 Eh/α   predicted    -0.3231596E-06 ( -62.92%)
   displ. norm   :     0.0104641 α      lambda       -0.4209097E-06
   maximum displ.:     0.0103587 α      in ANC's #1, #4, #10, ...

   *** GEOMETRY OPTIMIZATION CONVERGED AFTER 32 ITERATIONS ***

------------------------------------------------------------------------
 total energy gain   :        -0.0067827 Eh       -4.2562 kcal/mol
 total RMSD          :         0.7660105 a0        0.4054 Å
 total power (kW/mol):        -0.5564968 (step)  -73.7676 (real)
------------------------------------------------------------------------

 ANCopt (total)                0 d,  0 h,  0 min,  0.241 sec
 optimizer setup                ...        0 min,  0.000 sec (  0.074%)
 model hessian                  ...        0 min,  0.011 sec (  4.566%)
 ANC generation                 ...        0 min,  0.001 sec (  0.452%)
 coordinate transformation      ...        0 min,  0.000 sec (  0.126%)
 single point calculation       ...        0 min,  0.208 sec ( 86.053%)
 optimization log               ...        0 min,  0.007 sec (  2.774%)
 hessian update                 ...        0 min,  0.005 sec (  2.019%)
 rational function              ...        0 min,  0.007 sec (  2.696%)

================
 final structure:
================
14
 xtb: 6.7.1 (edcfbbe)
C           -2.46828056467543        0.37750880305890       -0.01944731559057
H           -1.94140286464255       -0.56403656531660       -0.15653711853339
H           -2.39320165127041        0.95028607822345       -0.94141237362294
H           -3.51870888076034        0.15965739862023        0.16208052146381
C           -1.87642856151768        1.16056305144093        1.14599964215951
H           -0.81731056661396        1.34987022426623        0.95589844121767
H           -1.94656908837563        0.56237785565909        2.05760449477788
C           -2.59374926093897        2.49093564262980        1.36215330300511
H           -2.51198338265508        3.09499464042778        0.45544469155597
H           -3.65530294695314        2.30209459968074        1.53860266510227
C           -2.01511492898191        3.26476867366095        2.54030131691753
H           -2.10685891214149        2.68699295938401        3.45768213859756
H           -0.96105266125511        3.47856058697895        2.37595741895891
H           -2.53965651921835        4.20795614128555        2.67510432399061

 Bond Distances (Angstroems)
 ---------------------------
C1-H2=1.0876         C1-H3=1.0880         C1-H4=1.0880         C1-C5=1.5237         H2-C1=1.0876         H3-C1=1.0880         
H4-C1=1.0880         C5-C1=1.5237         C5-H6=1.0926         C5-H7=1.0926         C5-C8=1.5268         H6-C5=1.0926         
H7-C5=1.0926         C8-C5=1.5268         C8-H9=1.0926         C8-H10=1.0926        C8-C11=1.5237        H9-C8=1.0926         
H10-C8=1.0926        C11-C8=1.5237        C11-H12=1.0880       C11-H13=1.0880       C11-H14=1.0876       H12-C11=1.0880       
H13-C11=1.0880       H14-C11=1.0876       
 C  H  Rav=1.0898 sigma=0.0023  Rmin=1.0876  Rmax=1.0926    10
 C  C  Rav=1.5247 sigma=0.0015  Rmin=1.5237  Rmax=1.5268     3

 selected bond angles (degree)
 --------------------
H3-C1-H2=108.39                H4-C1-H2=108.38                H4-C1-H3=108.26                C5-C1-H2=110.68                
C5-C1-H3=110.54                C5-C1-H4=110.50                H6-C5-C1=109.42                H7-C5-C1=109.38                
H7-C5-H6=107.59                C8-C5-C1=111.94                C8-C5-H6=109.21                C8-C5-H7=109.19                
H9-C8-C5=109.21                H10-C8-C5=109.19               H10-C8-H9=107.60               C11-C8-C5=111.94               
C11-C8-H9=109.42               C11-C8-H10=109.38              

 selected dihedral angles (degree)
 ---------------------------------
H6-C5-C1-H2= 58.66            H6-C5-C1-H3=298.56            H6-C5-C1-H4=178.73            H7-C5-C1-H2=301.03            
H7-C5-C1-H3=180.93            H7-C5-C1-H4= 61.10            C8-C5-C1-H2=179.87            C8-C5-C1-H3= 59.77            
C8-C5-C1-H4=299.94            H9-C8-C5-C1=300.50            H9-C8-C5-H6= 61.82            H9-C8-C5-H7=179.23            
H10-C8-C5-C1= 57.90           H10-C8-C5-H6=179.23           H10-C8-C5-H7=296.63           C11-C8-C5-C1=179.17           
C11-C8-C5-H6=300.50           C11-C8-C5-H7= 57.90           
           -------------------------------------------------
          |                Final Singlepoint                |
           -------------------------------------------------

          ...................................................
          :                      SETUP                      :
          :.................................................:
          :  # basis functions                  26          :
          :  # atomic orbitals                  26          :
          :  # shells                           18          :
          :  # electrons                        26          :
          :  max. iterations                   250          :
          :  Hamiltonian                  GFN2-xTB          :
          :  restarted?                      false          :
          :  GBSA solvation                  false          :
          :  PC potential                    false          :
          :  electronic temp.          300.0000000     K    :
          :  accuracy                    1.0000000          :
          :  -> integral cutoff          0.2500000E+02      :
          :  -> integral neglect         0.1000000E-07      :
          :  -> SCF convergence          0.1000000E-05 Eh   :
          :  -> wf. convergence          0.1000000E-03 e    :
          :  Broyden damping             0.4000000          :
          :  net charge                          0          :
          :  unpaired electrons                  0          :
          ...................................................

 iter      E             dE          RMSdq      gap      omega  full diag
   1    -13.8760482 -0.138760E+02  0.536E-06   13.80       0.0  T
   2    -13.8760482  0.532907E-14  0.303E-06   13.80    8812.0  T
   3    -13.8760482 -0.266454E-13  0.470E-07   13.80   56892.8  T

   *** convergence criteria satisfied after 3 iterations ***

         #    Occupation            Energy/Eh            Energy/eV
      -------------------------------------------------------------
         1        2.0000           -0.6179694             -16.8158
       ...           ...                  ...                  ...
         7        2.0000           -0.4878890             -13.2761
         8        2.0000           -0.4789796             -13.0337
         9        2.0000           -0.4546526             -12.3717
        10        2.0000           -0.4395305             -11.9602
        11        2.0000           -0.4367147             -11.8836
        12        2.0000           -0.4258126             -11.5869
        13        2.0000           -0.4195606             -11.4168 (HOMO)
        14                          0.0876246               2.3844 (LUMO)
        15                          0.1267221               3.4483
        16                          0.1278170               3.4781
        17                          0.1525756               4.1518
        18                          0.1629397               4.4338
       ...                                ...                  ...
        26                          0.3114414               8.4748
      -------------------------------------------------------------
                  HL-Gap            0.5071851 Eh           13.8012 eV
             Fermi-level           -0.1659680 Eh           -4.5162 eV

 SCC (total)                   0 d,  0 h,  0 min,  0.005 sec
 SCC setup                      ...        0 min,  0.000 sec (  3.988%)
 Dispersion                     ...        0 min,  0.000 sec (  2.135%)
 classical contributions        ...        0 min,  0.000 sec (  0.894%)
 integral evaluation            ...        0 min,  0.001 sec ( 14.266%)
 iterations                     ...        0 min,  0.002 sec ( 33.364%)
 molecular gradient             ...        0 min,  0.002 sec ( 39.561%)
 printout                       ...        0 min,  0.000 sec (  5.389%)

         :::::::::::::::::::::::::::::::::::::::::::::::::::::
         ::                     SUMMARY                     ::
         :::::::::::::::::::::::::::::::::::::::::::::::::::::
         :: total energy             -13.665125819008 Eh    ::
         :: gradient norm              0.000087155552 Eh/a0 ::
         :: HOMO-LUMO gap             13.801209414392 eV    ::
         ::.................................................::
         :: SCC energy               -13.876044357017 Eh    ::
         :: -> isotropic ES            0.002998870029 Eh    ::
         :: -> anisotropic ES          0.004909000601 Eh    ::
         :: -> anisotropic XC          0.009059349210 Eh    ::
         :: -> dispersion             -0.006049033180 Eh    ::
         :: repulsion energy           0.210918538009 Eh    ::
         :: add. restraining           0.000000000000 Eh    ::
         :: total charge              -0.000000000000 e     ::
         :::::::::::::::::::::::::::::::::::::::::::::::::::::

           -------------------------------------------------
          |                Property Printout                |
           -------------------------------------------------

    * Orbital Energies and Occupations

         #    Occupation            Energy/Eh            Energy/eV
      -------------------------------------------------------------
         1        2.0000           -0.6179694             -16.8158
         2        2.0000           -0.5989717             -16.2988
         3        2.0000           -0.5679205             -15.4539
         4        2.0000           -0.5523999             -15.0316
         5        2.0000           -0.5138413             -13.9823
         6        2.0000           -0.4918448             -13.3838
         7        2.0000           -0.4878890             -13.2761
         8        2.0000           -0.4789796             -13.0337
         9        2.0000           -0.4546526             -12.3717
        10        2.0000           -0.4395305             -11.9602
        11        2.0000           -0.4367147             -11.8836
        12        2.0000           -0.4258126             -11.5869
        13        2.0000           -0.4195606             -11.4168 (HOMO)
        14                          0.0876246               2.3844 (LUMO)
        15                          0.1267221               3.4483
        16                          0.1278170               3.4781
        17                          0.1525756               4.1518
        18                          0.1629397               4.4338
        19                          0.1837312               4.9996
        20                          0.1937372               5.2719
        21                          0.1971788               5.3655
        22                          0.2245213               6.1095
        23                          0.2548779               6.9356
        24                          0.2646486               7.2015
       ...                                ...                  ...
        26                          0.3114414               8.4748
      -------------------------------------------------------------
                  HL-Gap            0.5071851 Eh           13.8012 eV
             Fermi-level           -0.1659680 Eh           -4.5162 eV

     #   Z          covCN         q      C6AA      α(0)
     1   6 C        3.752    -0.102    22.510     6.766
     2   1 H        0.925     0.032     2.554     2.499
     3   1 H        0.925     0.033     2.550     2.497
     4   1 H        0.925     0.033     2.550     2.497
     5   6 C        3.801    -0.053    21.534     6.607
     6   1 H        0.924     0.029     2.601     2.522
     7   1 H        0.924     0.029     2.599     2.521
     8   6 C        3.801    -0.053    21.534     6.607
     9   1 H        0.924     0.029     2.601     2.522
    10   1 H        0.924     0.029     2.599     2.521
    11   6 C        3.752    -0.102    22.510     6.766
    12   1 H        0.925     0.033     2.550     2.497
    13   1 H        0.925     0.033     2.550     2.497
    14   1 H        0.925     0.032     2.554     2.499

 Mol. C6AA /au·bohr⁶  :       1207.495755
 Mol. C8AA /au·bohr⁸  :      24480.511908
 Mol. α(0) /au        :         51.819346


Wiberg/Mayer (AO) data.
largest (>0.10) Wiberg bond orders for each atom

 ---------------------------------------------------------------------------
     #   Z sym  total        # sym  WBO       # sym  WBO       # sym  WBO
 ---------------------------------------------------------------------------
     1   6 C    3.997 --     5 C    1.019     3 H    0.988     4 H    0.988
                             2 H    0.988
     2   1 H    0.999 --     1 C    0.988
     3   1 H    0.999 --     1 C    0.988
     4   1 H    0.999 --     1 C    0.988
     5   6 C    3.998 --     1 C    1.019     8 C    1.009     6 H    0.979
                             7 H    0.979
     6   1 H    0.999 --     5 C    0.979
     7   1 H    0.999 --     5 C    0.979
     8   6 C    3.998 --    11 C    1.019     5 C    1.009     9 H    0.979
                            10 H    0.979
     9   1 H    0.999 --     8 C    0.979
    10   1 H    0.999 --     8 C    0.979
    11   6 C    3.997 --     8 C    1.019    13 H    0.988    12 H    0.988
                            14 H    0.988
    12   1 H    0.999 --    11 C    0.988
    13   1 H    0.999 --    11 C    0.988
    14   1 H    0.999 --    11 C    0.988
 ---------------------------------------------------------------------------

Topologies differ in total number of bonds
Writing topology from bond orders to xtbtopo.mol

molecular dipole:
                 x           y           z       tot (Debye)
 q only:       -0.000      -0.000       0.000
   full:       -0.000      -0.000       0.000       0.001
molecular quadrupole (traceless):
                xx          xy          yy          xz          yz          zz
 q only:       -0.067      -0.006       0.028       0.101       0.144       0.039
  q+dip:        0.444       0.030      -0.258      -0.512      -0.841      -0.186
   full:        0.191       0.015      -0.110      -0.229      -0.363      -0.081

           -------------------------------------------------
          |                Geometry Summary                 |
           -------------------------------------------------

      molecular mass/u    :       58.1223511
   center of mass at/Å    :       -2.2385343       1.8233456       1.2573890
Note: The following floating-point exceptions are signalling: IEEE_DENORMAL
normal termination of xtb
  moments of inertia/u·Å² :        0.2163019E+02   0.1369906E+03   0.1460814E+03
rotational constants/cm⁻¹ :        0.7793567E+00   0.1230568E+00   0.1153989E+00

 * 13 selected distances

     #   Z          #   Z                                           value/Å
     1   6 C        2   1 H                                       1.0876128 (min)
     1   6 C        3   1 H                                       1.0879938
     1   6 C        4   1 H                                       1.0880310
     1   6 C        5   6 C                                       1.5237223
     5   6 C        6   1 H                                       1.0925689
     5   6 C        7   1 H                                       1.0925973
     5   6 C        8   6 C                                       1.5268147 (max)
     8   6 C        9   1 H                                       1.0925629
     8   6 C       10   1 H                                       1.0925620
     8   6 C       11   6 C                                       1.5237022
    11   6 C       12   1 H                                       1.0880393
    11   6 C       13   1 H                                       1.0880089
    11   6 C       14   1 H                                       1.0876206

 * 2 distinct bonds (by element types)

   Z      Z             #   av. dist./Å        max./Å        min./Å
   1 H    6 C          10     1.0897597     1.0925973     1.0876128
   6 C    6 C           3     1.5247464     1.5268147     1.5237022


optimized geometry written to: xtbopt.xyz


           -------------------------------------------------
          | TOTAL ENERGY              -13.665125819008 Eh   |
          | GRADIENT NORM               0.000087155552 Eh/α |
          | HOMO-LUMO GAP              13.801209414392 eV   |
           -------------------------------------------------

------------------------------------------------------------------------
 * finished run on 2026/08/17 at 12:14:24.183     
------------------------------------------------------------------------
 total:
 * wall-time:     0 d,  0 h,  0 min,  0.376 sec
 *  cpu-time:     0 d,  0 h,  0 min,  1.405 sec
 * ratio c/w:     3.742 speedup
 SCF:
 * wall-time:     0 d,  0 h,  0 min,  0.081 sec
 *  cpu-time:     0 d,  0 h,  0 min,  0.310 sec
 * ratio c/w:     3.814 speedup
 ANC optimizer:
 * wall-time:     0 d,  0 h,  0 min,  0.247 sec
 *  cpu-time:     0 d,  0 h,  0 min,  0.928 sec
 * ratio c/w:     3.753 speedup

