14
 energy: -13.665125819008 gnorm: 0.000087155552 xtb: 6.7.1 (edcfbbe)
C           -2.46828056467543        0.37750880305890       -0.01944731559057
H           -1.94140286464255       -0.56403656531660       -0.15653711853339
H           -2.39320165127041        0.95028607822345       -0.94141237362294
H           -3.51870888076034        0.15965739862023        0.16208052146381
C           -1.87642856151768        1.16056305144093        1.14599964215951
H           -0.81731056661396        1.34987022426623        0.95589844121767
H           -1.94656908837563        0.56237785565909        2.05760449477788
C           -2.59374926093897        2.49093564262980        1.36215330300511
H           -2.51198338265508        3.09499464042778        0.45544469155597
H           -3.65530294695314        2.30209459968074        1.53860266510227
C           -2.01511492898191        3.26476867366095        2.54030131691753
H           -2.10685891214149        2.68699295938401        3.45768213859756
H           -0.96105266125511        3.47856058697895        2.37595741895891
H           -2.53965651921835        4.20795614128555        2.67510432399061
