14
HessFit conformer 002
C  -1.11692296  0.79907885  0.01700125
H  -0.06335508  0.97848858  0.23663216
H  -1.38923211  1.42679509 -0.83432197
H  -1.21694824 -0.24207331 -0.29752541
C  -2.00023900  1.09707300  1.22694500
H  -1.45404433  0.85999429  2.14541718
H  -2.87165405  0.43478552  1.21521909
C  -2.47573600  2.54906500  1.28786500
H  -2.14216000  3.07351700  0.38686300
H  -3.56979700  2.56933900  1.26055900
C  -1.98256300  3.29668400  2.52514300
H  -2.75668487  3.95752463  2.92132115
H  -1.69636885  2.60789220  3.32144001
H  -1.11191241  3.91365312  2.29223136
