      -----------------------------------------------------------      
     |                   =====================                   |     
     |                           x T B                           |     
     |                   =====================                   |     
     |                         S. Grimme                         |     
     |          Mulliken Center for Theoretical Chemistry        |     
     |                    University of Bonn                     |     
      -----------------------------------------------------------      

   * xtb version 6.7.1 (edcfbbe) compiled by 'conda@5dfe00f5fb80' on 2026-06-10

   xtb is free software: you can redistribute it and/or modify it under
   the terms of the GNU Lesser General Public License as published by
   the Free Software Foundation, either version 3 of the License, or
   (at your option) any later version.
   
   xtb is distributed in the hope that it will be useful,
   but WITHOUT ANY WARRANTY; without even the implied warranty of
   MERCHANTABILITY or FITNESS FOR A PARTICULAR PURPOSE.  See the
   GNU Lesser General Public License for more details.
   
   Cite this work as:
   * C. Bannwarth, E. Caldeweyher, S. Ehlert, A. Hansen, P. Pracht,
     J. Seibert, S. Spicher, S. Grimme, WIREs Comput. Mol. Sci., 2020, 11,
     e01493. DOI: 10.1002/wcms.1493
   
   for GFN2-xTB:
   * C. Bannwarth, S. Ehlert and S. Grimme., J. Chem. Theory Comput., 2019,
     15, 1652-1671. DOI: 10.1021/acs.jctc.8b01176
   for GFN1-xTB:
   * S. Grimme, C. Bannwarth, P. Shushkov, J. Chem. Theory Comput., 2017,
     13, 1989-2009. DOI: 10.1021/acs.jctc.7b00118
   for GFN0-xTB:
   * P. Pracht, E. Caldeweyher, S. Ehlert, S. Grimme, ChemRxiv, 2019, preprint.
     DOI: 10.26434/chemrxiv.8326202.v1
   for GFN-FF:
   * S. Spicher and S. Grimme, Angew. Chem. Int. Ed., 2020, 59, 15665-15673.
     DOI: 10.1002/anie.202004239
   
   for ALPB and GBSA implicit solvation:
   * S. Ehlert, M. Stahn, S. Spicher, S. Grimme, J. Chem. Theory Comput.,
     2021, 17, 4250-4261. DOI: 10.1021/acs.jctc.1c00471
   
   for ddCOSMO and CPCM-X implicit solvation:
   * M. Stahn, S. Ehlert, S. Grimme, J. Phys. Chem. A,
     2023, XX, XXXX-XXXX. DOI: 10.1021/acs.jpca.3c04382
   
   for DFT-D4:
   * E. Caldeweyher, C. Bannwarth and S. Grimme, J. Chem. Phys., 2017,
     147, 034112. DOI: 10.1063/1.4993215
   * E. Caldeweyher, S. Ehlert, A. Hansen, H. Neugebauer, S. Spicher,
     C. Bannwarth and S. Grimme, J. Chem. Phys., 2019, 150, 154122.
     DOI: 10.1063/1.5090222
   * E. Caldeweyher, J.-M. Mewes, S. Ehlert and S. Grimme, Phys. Chem. Chem. Phys.
     2020, 22, 8499-8512. DOI: 10.1039/D0CP00502A
   
   for sTDA-xTB:
   * S. Grimme and C. Bannwarth, J. Chem. Phys., 2016, 145, 054103.
     DOI: 10.1063/1.4959605
   
   in the mass-spec context:
   * V. Asgeirsson, C. Bauer and S. Grimme, Chem. Sci., 2017, 8, 4879.
     DOI: 10.1039/c7sc00601b
   * J. Koopman and S. Grimme, ACS Omega 2019, 4, 12, 15120-15133.
     DOI: 10.1021/acsomega.9b02011
   
   for metadynamics refer to:
   * S. Grimme, J. Chem. Theory Comput., 2019, 155, 2847-2862
     DOI: 10.1021/acs.jctc.9b00143
   
   for SPH calculations refer to:
   * S. Spicher and S. Grimme, J. Chem. Theory Comput., 2021, 17, 1701-1714
     DOI: 10.1021/acs.jctc.0c01306
   
   for ONIOM refer to:
   * C. Plett, A. Katbashev, S. Ehlert, S. Grimme, M. Bursch,
     Phys. Chem. Chem. Phys., 2023, 25, 17860-17868. DOI: 10.1039/D3CP02178E
   
   for DIPRO refer to:
   * J. Kohn, N. Gildemeister, S. Grimme, D. Fazzi, A. Hansen,
     J. Chem. Phys., 2023, just accepted.
   
   for PTB refer to:
   * S. Grimme, M. Mueller, A. Hansen, J. Chem. Phys., 2023, 158, 124111.
     DOI: 10.1063/5.0137838
   
   with help from (in alphabetical order)
   P. Atkinson, C. Bannwarth, F. Bohle, G. Brandenburg, E. Caldeweyher
   M. Checinski, S. Dohm, S. Ehlert, S. Ehrlich, I. Gerasimov, C. Hölzer
   A. Katbashev, J. Kohn, J. Koopman, C. Lavigne, S. Lehtola, F. März, M. Müller,
   F. Musil, H. Neugebauer, J. Pisarek, C. Plett, P. Pracht, F. Pultar,
   J. Seibert, P. Shushkov, S. Spicher, M. Stahn, M. Steiner, T. Strunk,
   J. Stückrath, T. Rose, and J. Unsleber
   
 * started run on 2026/08/11 at 11:11:55.286     
   ID    Z sym.   atoms
    1    6 C      1, 5, 8, 11
    2    1 H      2-4, 6, 7, 9, 10, 12-14

           -------------------------------------------------
          |                Calculation Setup                |
           -------------------------------------------------

          program call               : xtb input.xyz --gfn2 --opt tight --chrg 0 --uhf 0 --iterations 250
          coordinate file            : input.xyz
          omp threads                :                     4


           -------------------------------------------------
          |                 G F N 2 - x T B                 |
           -------------------------------------------------

        Reference                      10.1021/acs.jctc.8b01176
      * Hamiltonian:
        H0-scaling (s, p, d)           1.850000    2.230000    2.230000
        zeta-weighting                 0.500000
      * Dispersion:
        s8                             2.700000
        a1                             0.520000
        a2                             5.000000
        s9                             5.000000
      * Repulsion:
        kExp                           1.500000    1.000000
        rExp                           1.000000
      * Coulomb:
        alpha                          2.000000
        third order                    shell-resolved
        anisotropic                    true
        a3                             3.000000
        a5                             4.000000
        cn-shift                       1.200000
        cn-exp                         4.000000
        max-rad                        5.000000


          ...................................................
          :                      SETUP                      :
          :.................................................:
          :  # basis functions                  26          :
          :  # atomic orbitals                  26          :
          :  # shells                           18          :
          :  # electrons                        26          :
          :  max. iterations                   250          :
          :  Hamiltonian                  GFN2-xTB          :
          :  restarted?                      false          :
          :  GBSA solvation                  false          :
          :  PC potential                    false          :
          :  electronic temp.          300.0000000     K    :
          :  accuracy                    1.0000000          :
          :  -> integral cutoff          0.2500000E+02      :
          :  -> integral neglect         0.1000000E-07      :
          :  -> SCF convergence          0.1000000E-05 Eh   :
          :  -> wf. convergence          0.1000000E-03 e    :
          :  Broyden damping             0.4000000          :
          :  net charge                          0          :
          :  unpaired electrons                  0          :
          ...................................................

 iter      E             dE          RMSdq      gap      omega  full diag
   1    -13.8217309 -0.138217E+02  0.250E+00   13.61       0.0  T
   2    -13.8600251 -0.382943E-01  0.127E+00   13.29       1.0  T
   3    -13.8604405 -0.415350E-03  0.681E-01   13.27       1.0  T
   4    -13.8605576 -0.117134E-03  0.913E-02   13.25       1.0  T
   5    -13.8605628 -0.522115E-05  0.495E-02   13.25       1.0  T
   6    -13.8605633 -0.474323E-06  0.232E-03   13.25      11.5  T
   7    -13.8605633 -0.786162E-08  0.684E-04   13.25      39.1  T
   8    -13.8605633 -0.649662E-09  0.165E-04   13.25     162.4  T

   *** convergence criteria satisfied after 8 iterations ***

         #    Occupation            Energy/Eh            Energy/eV
      -------------------------------------------------------------
         1        2.0000           -0.6169628             -16.7884
       ...           ...                  ...                  ...
         7        2.0000           -0.4866331             -13.2420
         8        2.0000           -0.4729426             -12.8694
         9        2.0000           -0.4544056             -12.3650
        10        2.0000           -0.4495817             -12.2337
        11        2.0000           -0.4317945             -11.7497
        12        2.0000           -0.4238485             -11.5335
        13        2.0000           -0.4125363             -11.2257 (HOMO)
        14                          0.0745560               2.0288 (LUMO)
        15                          0.1019139               2.7732
        16                          0.1196158               3.2549
        17                          0.1302589               3.5445
        18                          0.1495626               4.0698
       ...                                ...                  ...
        26                          0.3330909               9.0639
      -------------------------------------------------------------
                  HL-Gap            0.4870923 Eh           13.2545 eV
             Fermi-level           -0.1689902 Eh           -4.5985 eV

 SCC (total)                   0 d,  0 h,  0 min,  0.097 sec
 SCC setup                      ...        0 min,  0.003 sec (  2.867%)
 Dispersion                     ...        0 min,  0.003 sec (  3.089%)
 classical contributions        ...        0 min,  0.003 sec (  3.006%)
 integral evaluation            ...        0 min,  0.007 sec (  7.244%)
 iterations                     ...        0 min,  0.056 sec ( 57.690%)
 molecular gradient             ...        0 min,  0.025 sec ( 25.826%)
 printout                       ...        0 min,  0.000 sec (  0.225%)

         :::::::::::::::::::::::::::::::::::::::::::::::::::::
         ::                     SUMMARY                     ::
         :::::::::::::::::::::::::::::::::::::::::::::::::::::
         :: total energy             -13.654454149832 Eh    ::
         :: gradient norm              0.015037875838 Eh/a0 ::
         :: HOMO-LUMO gap             13.254456354152 eV    ::
         ::.................................................::
         :: SCC energy               -13.860557297132 Eh    ::
         :: -> isotropic ES            0.002994095397 Eh    ::
         :: -> anisotropic ES          0.005327246532 Eh    ::
         :: -> anisotropic XC          0.009203092763 Eh    ::
         :: -> dispersion             -0.006089831798 Eh    ::
         :: repulsion energy           0.206103147300 Eh    ::
         :: add. restraining           0.000000000000 Eh    ::
         :: total charge              -0.000000000000 e     ::
         :::::::::::::::::::::::::::::::::::::::::::::::::::::

      ----------------------------------------------------------- 
     |                   =====================                   |
     |                        A N C O P T                        |
     |                   =====================                   |
     |               Approximate Normal Coordinate               |
     |                Rational Function Optimizer                |
      ----------------------------------------------------------- 
      ----------------------------------------------------------- 
     |                   =====================                   |
     |                        A N C O P T                        |
     |                   =====================                   |
     |               Approximate Normal Coordinate               |
     |                Rational Function Optimizer                |
      ----------------------------------------------------------- 

          ...................................................
          :                      SETUP                      :
          :.................................................:
          :   optimization level             tight          :
          :   max. optcycles                   200          :
          :   ANC micro-cycles                  20          :
          :   degrees of freedom                36          :
          :.................................................:
          :   RF solver                   davidson          :
          :   write xtbopt.log                true          :
          :   linear?                        false          :
          :   energy convergence         0.1000000E-05 Eh   :
          :   grad. convergence          0.8000000E-03 Eh/α :
          :   maxmium RF displ.          1.0000000          :
          :   Hlow (freq-cutoff)         0.1000000E-01      :
          :   Hmax (freq-cutoff)         5.0000000          :
          :   S6 in model hess.         20.0000000          :
          ...................................................

generating ANC from exact Hessian ...
Using Lindh-Hessian (1995)
 Shifting diagonal of input Hessian by    6.2998716630426384E-003
 Lowest  eigenvalues of input Hessian
    0.000000    0.000000    0.000000    0.000000    0.000000    0.000000
    0.010000    0.013271    0.013820    0.020065    0.021756    0.046977
    0.048130    0.058121    0.058789    0.060178    0.063036    0.066555
 Highest eigenvalues
    1.108681    1.133377    1.148563    1.209814    1.222156    1.283019


........................................................................
.............................. CYCLE    1 ..............................
........................................................................

 iter      E             dE          RMSdq      gap      omega  full diag
   1    -13.8605633 -0.138606E+02  0.309E-05   13.25       0.0  T
   2    -13.8605633 -0.434497E-11  0.141E-05   13.25    1891.5  T
   3    -13.8605633 -0.257572E-12  0.780E-06   13.25    3426.4  T
     SCC iter.                  ...        0 min,  0.002 sec
     gradient                   ...        0 min,  0.002 sec
 * total energy  :   -13.6544541 Eh     change       -0.9899637E-11 Eh
   gradient norm :     0.0150374 Eh/α   predicted     0.0000000E+00 (-100.00%)
   displ. norm   :     0.2095427 α      lambda       -0.1220650E-02
   maximum displ.:     0.1587413 α      in ANC's #5, #2, #11, ...

........................................................................
.............................. CYCLE    2 ..............................
........................................................................

 iter      E             dE          RMSdq      gap      omega  full diag
   1    -13.8633578 -0.138634E+02  0.118E-01   13.12       0.0  T
   2    -13.8633593 -0.147716E-05  0.704E-02   13.12       1.0  T
   3    -13.8633595 -0.186739E-06  0.339E-03   13.12       7.9  T
   4    -13.8633595 -0.247601E-07  0.171E-03   13.12      15.6  T
   5    -13.8633595 -0.159120E-08  0.646E-04   13.12      41.4  T
   6    -13.8633595 -0.320821E-09  0.104E-04   13.12     256.6  T
     SCC iter.                  ...        0 min,  0.004 sec
     gradient                   ...        0 min,  0.003 sec
 * total energy  :   -13.6553646 Eh     change       -0.9104502E-03 Eh
   gradient norm :     0.0073651 Eh/α   predicted    -0.6371238E-03 ( -30.02%)
   displ. norm   :     0.4531322 α      lambda       -0.1573269E-02
   maximum displ.:     0.3645056 α      in ANC's #2, #5, #7, ...

........................................................................
.............................. CYCLE    3 ..............................
........................................................................

 iter      E             dE          RMSdq      gap      omega  full diag
   1    -13.8628834 -0.138629E+02  0.149E-01   13.07       0.0  T
   2    -13.8628859 -0.244014E-05  0.892E-02   13.07       1.0  T
   3    -13.8628859 -0.741023E-07  0.694E-03   13.07       3.9  T
   4    -13.8628862 -0.282736E-06  0.233E-03   13.07      11.5  T
   5    -13.8628862 -0.142235E-08  0.407E-04   13.07      65.7  T
   6    -13.8628862 -0.781473E-10  0.138E-04   13.07     193.8  T
     SCC iter.                  ...        0 min,  0.010 sec
     gradient                   ...        0 min,  0.002 sec
 * total energy  :   -13.6566666 Eh     change       -0.1302034E-02 Eh
   gradient norm :     0.0094464 Eh/α   predicted    -0.9481592E-03 ( -27.18%)
   displ. norm   :     0.5881263 α      lambda       -0.1691913E-02
   maximum displ.:     0.4951790 α      in ANC's #2, #5, #7, ...

........................................................................
.............................. CYCLE    4 ..............................
........................................................................

 iter      E             dE          RMSdq      gap      omega  full diag
   1    -13.8566898 -0.138567E+02  0.183E-01   13.10       0.0  T
   2    -13.8567019 -0.121587E-04  0.108E-01   13.09       1.0  T
   3    -13.8567023 -0.403818E-06  0.170E-02   13.09       1.6  T
   4    -13.8567028 -0.521872E-06  0.374E-03   13.09       7.1  T
   5    -13.8567029 -0.705673E-08  0.198E-03   13.09      13.5  T
   6    -13.8567029 -0.108032E-08  0.198E-04   13.09     134.9  T
   7    -13.8567029 -0.281748E-10  0.258E-05   13.09    1035.1  T
     SCC iter.                  ...        0 min,  0.004 sec
     gradient                   ...        0 min,  0.002 sec
 * total energy  :   -13.6576451 Eh     change       -0.9784831E-03 Eh
   gradient norm :     0.0236662 Eh/α   predicted    -0.1138559E-02 (  16.36%)
   displ. norm   :     0.2188523 α      lambda       -0.1408315E-02
   maximum displ.:     0.1316087 α      in ANC's #2, #1, #5, ...

........................................................................
.............................. CYCLE    5 ..............................
........................................................................

 iter      E             dE          RMSdq      gap      omega  full diag
   1    -13.8624539 -0.138625E+02  0.101E-01   13.29       0.0  T
   2    -13.8624580 -0.415227E-05  0.592E-02   13.29       1.0  T
   3    -13.8624582 -0.113470E-06  0.101E-02   13.29       2.7  T
   4    -13.8624584 -0.241391E-06  0.229E-03   13.29      11.7  T
   5    -13.8624584 -0.120827E-08  0.110E-03   13.29      24.3  T
   6    -13.8624584 -0.295424E-09  0.952E-05   13.29     280.8  T
   7    -13.8624584 -0.598455E-11  0.449E-05   13.29     594.8  T
     SCC iter.                  ...        0 min,  0.004 sec
     gradient                   ...        0 min,  0.002 sec
 * total energy  :   -13.6587727 Eh     change       -0.1127617E-02 Eh
   gradient norm :     0.0149825 Eh/α   predicted    -0.7378832E-03 ( -34.56%)
   displ. norm   :     0.5438949 α      lambda       -0.1912631E-02
   maximum displ.:     0.3923666 α      in ANC's #2, #1, #5, ...

........................................................................
.............................. CYCLE    6 ..............................
........................................................................

 iter      E             dE          RMSdq      gap      omega  full diag
   1    -13.8654746 -0.138655E+02  0.162E-01   13.53       0.0  T
   2    -13.8654766 -0.200123E-05  0.970E-02   13.53       1.0  T
   3    -13.8654768 -0.136504E-06  0.572E-03   13.53       4.7  T
   4    -13.8654770 -0.187689E-06  0.221E-03   13.53      12.1  T
   5    -13.8654770 -0.199980E-08  0.712E-04   13.53      37.5  T
   6    -13.8654770 -0.168502E-09  0.142E-04   13.53     188.5  T
     SCC iter.                  ...        0 min,  0.003 sec
     gradient                   ...        0 min,  0.002 sec
 * total energy  :   -13.6602629 Eh     change       -0.1490132E-02 Eh
   gradient norm :     0.0112288 Eh/α   predicted    -0.1239207E-02 ( -16.84%)
   displ. norm   :     0.4935456 α      lambda       -0.1423985E-02
   maximum displ.:     0.3157014 α      in ANC's #1, #2, #5, ...

........................................................................
.............................. CYCLE    7 ..............................
........................................................................

 iter      E             dE          RMSdq      gap      omega  full diag
   1    -13.8697247 -0.138697E+02  0.155E-01   13.77       0.0  T
   2    -13.8697272 -0.252637E-05  0.918E-02   13.77       1.0  T
   3    -13.8697274 -0.166259E-06  0.696E-03   13.77       3.8  T
   4    -13.8697276 -0.223812E-06  0.249E-03   13.77      10.7  T
   5    -13.8697276 -0.164346E-08  0.444E-04   13.77      60.3  T
   6    -13.8697276 -0.129347E-09  0.150E-04   13.77     178.6  T
     SCC iter.                  ...        0 min,  0.003 sec
     gradient                   ...        0 min,  0.002 sec
 * total energy  :   -13.6613196 Eh     change       -0.1056783E-02 Eh
   gradient norm :     0.0111185 Eh/α   predicted    -0.8854350E-03 ( -16.21%)
   displ. norm   :     0.6156015 α      lambda       -0.1125270E-02
   maximum displ.:     0.4144035 α      in ANC's #2, #1, #5, ...

........................................................................
.............................. CYCLE    8 ..............................
........................................................................

 iter      E             dE          RMSdq      gap      omega  full diag
   1    -13.8617008 -0.138617E+02  0.188E-01   13.82       0.0  T
   2    -13.8617142 -0.134507E-04  0.110E-01   13.82       1.0  T
   3    -13.8617149 -0.697514E-06  0.144E-02   13.82       1.9  T
   4    -13.8617150 -0.854495E-07  0.367E-03   13.82       7.3  T
   5    -13.8617150 -0.407021E-08  0.162E-03   13.82      16.5  T
   6    -13.8617150 -0.225740E-08  0.223E-04   13.82     119.9  T
   7    -13.8617150 -0.321396E-10  0.893E-05   13.82     299.1  T
     SCC iter.                  ...        0 min,  0.004 sec
     gradient                   ...        0 min,  0.002 sec
 * total energy  :   -13.6617176 Eh     change       -0.3979936E-03 Eh
   gradient norm :     0.0231877 Eh/α   predicted    -0.7758553E-03 (  94.94%)
   displ. norm   :     0.2815314 α      lambda       -0.1673173E-02
   maximum displ.:     0.2468996 α      in ANC's #1, #24, #8, ...

........................................................................
.............................. CYCLE    9 ..............................
........................................................................

 iter      E             dE          RMSdq      gap      omega  full diag
   1    -13.8758988 -0.138759E+02  0.155E-01   14.02       0.0  T
   2    -13.8759256 -0.268609E-04  0.855E-02   14.02       1.0  T
   3    -13.8759269 -0.123081E-05  0.244E-02   14.02       1.1  T
   4    -13.8759271 -0.252369E-06  0.506E-03   14.02       5.3  T
   5    -13.8759271 -0.130896E-07  0.257E-03   14.02      10.4  T
   6    -13.8759271 -0.267091E-08  0.311E-04   14.02      86.0  T
   7    -13.8759271 -0.834497E-10  0.107E-04   14.02     250.5  T
     SCC iter.                  ...        0 min,  0.004 sec
     gradient                   ...        0 min,  0.002 sec
 * total energy  :   -13.6622662 Eh     change       -0.5485583E-03 Eh
   gradient norm :     0.0181858 Eh/α   predicted    -0.9028932E-03 (  64.59%)
   displ. norm   :     0.3588019 α      lambda       -0.1934615E-02
   maximum displ.:     0.2207029 α      in ANC's #3, #1, #4, ...

........................................................................
.............................. CYCLE   10 ..............................
........................................................................

 iter      E             dE          RMSdq      gap      omega  full diag
   1    -13.8774588 -0.138775E+02  0.213E-01   14.03       0.0  T
   2    -13.8775135 -0.547340E-04  0.117E-01   14.03       1.0  T
   3    -13.8775165 -0.290727E-05  0.376E-02   14.03       1.0  T
   4    -13.8775171 -0.625838E-06  0.792E-03   14.03       3.4  T
   5    -13.8775171 -0.119677E-07  0.328E-03   14.03       8.1  T
   6    -13.8775171 -0.131222E-07  0.353E-04   14.03      75.7  T
   7    -13.8775171 -0.105963E-09  0.136E-04   14.03     197.0  T
     SCC iter.                  ...        0 min,  0.004 sec
     gradient                   ...        0 min,  0.002 sec
 * total energy  :   -13.6617680 Eh     change        0.4981624E-03 Eh
   gradient norm :     0.0320759 Eh/α   predicted    -0.1091838E-02 (-319.17%)
   displ. norm   :     0.1839641 α      lambda       -0.2395800E-02
   maximum displ.:     0.1140288 α      in ANC's #3, #4, #2, ...

........................................................................
.............................. CYCLE   11 ..............................
........................................................................

 iter      E             dE          RMSdq      gap      omega  full diag
   1    -13.8712635 -0.138713E+02  0.136E-01   14.00       0.0  T
   2    -13.8712891 -0.256232E-04  0.737E-02   14.00       1.0  T
   3    -13.8712904 -0.127644E-05  0.253E-02   14.00       1.1  T
   4    -13.8712906 -0.253272E-06  0.522E-03   14.00       5.1  T
   5    -13.8712906 -0.509487E-08  0.226E-03   14.00      11.8  T
   6    -13.8712906 -0.521511E-08  0.231E-04   14.00     115.9  T
   7    -13.8712906 -0.733884E-10  0.952E-05   14.00     280.7  T
     SCC iter.                  ...        0 min,  0.004 sec
     gradient                   ...        0 min,  0.002 sec
 * total energy  :   -13.6629844 Eh     change       -0.1216345E-02 Eh
   gradient norm :     0.0082326 Eh/α   predicted    -0.1238442E-02 (   1.82%)
   displ. norm   :     0.1186299 α      lambda       -0.1732019E-03
   maximum displ.:     0.0896432 α      in ANC's #1, #5, #2, ...

........................................................................
.............................. CYCLE   12 ..............................
........................................................................

 iter      E             dE          RMSdq      gap      omega  full diag
   1    -13.8727858 -0.138728E+02  0.401E-02   14.04       0.0  T
   2    -13.8727863 -0.426393E-06  0.236E-02   14.04       1.1  T
   3    -13.8727863 -0.334717E-07  0.241E-03   14.04      11.1  T
   4    -13.8727863 -0.296940E-08  0.780E-04   14.04      34.3  T
   5    -13.8727863 -0.309878E-09  0.213E-04   14.04     125.2  T
     SCC iter.                  ...        0 min,  0.003 sec
     gradient                   ...        0 min,  0.002 sec
 * total energy  :   -13.6631141 Eh     change       -0.1297202E-03 Eh
   gradient norm :     0.0046143 Eh/α   predicted    -0.8781927E-04 ( -32.30%)
   displ. norm   :     0.2934862 α      lambda       -0.2344659E-03
   maximum displ.:     0.2331376 α      in ANC's #1, #5, #2, ...

........................................................................
.............................. CYCLE   13 ..............................
........................................................................

 iter      E             dE          RMSdq      gap      omega  full diag
   1    -13.8732102 -0.138732E+02  0.949E-02   14.03       0.0  T
   2    -13.8732107 -0.479116E-06  0.565E-02   14.04       1.0  T
   3    -13.8732108 -0.127027E-06  0.295E-03   14.04       9.1  T
   4    -13.8732108 -0.896634E-08  0.123E-03   14.04      21.7  T
   5    -13.8732108 -0.161813E-08  0.247E-04   14.04     108.0  T
   6    -13.8732108 -0.884004E-10  0.105E-04   14.04     254.9  T
     SCC iter.                  ...        0 min,  0.003 sec
     gradient                   ...        0 min,  0.002 sec
 * total energy  :   -13.6632386 Eh     change       -0.1245093E-03 Eh
   gradient norm :     0.0042357 Eh/α   predicted    -0.1273320E-03 (   2.27%)
   displ. norm   :     0.0669525 α      lambda       -0.1022679E-03
   maximum displ.:     0.0548754 α      in ANC's #2, #22, #8, ...

........................................................................
.............................. CYCLE   14 ..............................
........................................................................

 iter      E             dE          RMSdq      gap      omega  full diag
   1    -13.8763963 -0.138764E+02  0.369E-02   14.07       0.0  T
   2    -13.8763970 -0.716005E-06  0.211E-02   14.07       1.3  T
   3    -13.8763970 -0.417424E-07  0.340E-03   14.07       7.8  T
   4    -13.8763970 -0.416247E-08  0.890E-04   14.07      30.0  T
   5    -13.8763970 -0.212776E-09  0.387E-04   14.07      69.1  T
     SCC iter.                  ...        0 min,  0.003 sec
     gradient                   ...        0 min,  0.002 sec
 * total energy  :   -13.6632709 Eh     change       -0.3230497E-04 Eh
   gradient norm :     0.0063792 Eh/α   predicted    -0.5136237E-04 (  58.99%)
   displ. norm   :     0.1052041 α      lambda       -0.9536400E-04
   maximum displ.:     0.0924371 α      in ANC's #1, #5, #7, ...

........................................................................
.............................. CYCLE   15 ..............................
........................................................................

 iter      E             dE          RMSdq      gap      omega  full diag
   1    -13.8750661 -0.138751E+02  0.367E-02   14.07       0.0  T
   2    -13.8750663 -0.228748E-06  0.216E-02   14.07       1.2  T
   3    -13.8750663 -0.197996E-07  0.172E-03   14.07      15.6  T
   4    -13.8750663 -0.640672E-08  0.635E-04   14.07      42.1  T
   5    -13.8750663 -0.329015E-09  0.248E-04   14.07     107.6  T
     SCC iter.                  ...        0 min,  0.003 sec
     gradient                   ...        0 min,  0.002 sec
 * total energy  :   -13.6633299 Eh     change       -0.5894999E-04 Eh
   gradient norm :     0.0060622 Eh/α   predicted    -0.4820949E-04 ( -18.22%)
   displ. norm   :     0.1085905 α      lambda       -0.1322393E-03
   maximum displ.:     0.0838505 α      in ANC's #1, #2, #22, ...

........................................................................
.............................. CYCLE   16 ..............................
........................................................................

 iter      E             dE          RMSdq      gap      omega  full diag
   1    -13.8740433 -0.138740E+02  0.338E-02   14.09       0.0  T
   2    -13.8740436 -0.221600E-06  0.200E-02   14.09       1.3  T
   3    -13.8740436 -0.238563E-07  0.166E-03   14.09      16.1  T
   4    -13.8740436 -0.399596E-08  0.647E-04   14.09      41.3  T
   5    -13.8740436 -0.415207E-09  0.222E-04   14.09     120.7  T
     SCC iter.                  ...        0 min,  0.003 sec
     gradient                   ...        0 min,  0.002 sec
 * total energy  :   -13.6634319 Eh     change       -0.1020131E-03 Eh
   gradient norm :     0.0047552 Eh/α   predicted    -0.6689934E-04 ( -34.42%)
   displ. norm   :     0.2798918 α      lambda       -0.2786953E-03
   maximum displ.:     0.1825139 α      in ANC's #2, #1, #22, ...

........................................................................
.............................. CYCLE   17 ..............................
........................................................................

 iter      E             dE          RMSdq      gap      omega  full diag
   1    -13.8720815 -0.138721E+02  0.792E-02   14.11       0.0  T
   2    -13.8720827 -0.122556E-05  0.471E-02   14.11       1.0  T
   3    -13.8720828 -0.111282E-06  0.380E-03   14.11       7.0  T
   4    -13.8720828 -0.136072E-07  0.131E-03   14.11      20.4  T
   5    -13.8720828 -0.176793E-08  0.497E-04   14.11      53.8  T
   6    -13.8720828 -0.391321E-09  0.137E-04   14.11     194.9  T
     SCC iter.                  ...        0 min,  0.003 sec
     gradient                   ...        0 min,  0.002 sec
 * total energy  :   -13.6636074 Eh     change       -0.1755447E-03 Eh
   gradient norm :     0.0070800 Eh/α   predicted    -0.1502631E-03 ( -14.40%)
   displ. norm   :     0.1946727 α      lambda       -0.1435941E-03
   maximum displ.:     0.1393669 α      in ANC's #2, #1, #22, ...

........................................................................
.............................. CYCLE   18 ..............................
........................................................................

 iter      E             dE          RMSdq      gap      omega  full diag
   1    -13.8719518 -0.138720E+02  0.553E-02   14.14       0.0  T
   2    -13.8719520 -0.207122E-06  0.332E-02   14.14       1.0  T
   3    -13.8719520 -0.306461E-07  0.157E-03   14.14      17.0  T
   4    -13.8719520 -0.687993E-08  0.716E-04   14.14      37.3  T
   5    -13.8719520 -0.394120E-09  0.248E-04   14.14     107.6  T
     SCC iter.                  ...        0 min,  0.002 sec
     gradient                   ...        0 min,  0.002 sec
 * total energy  :   -13.6637161 Eh     change       -0.1086882E-03 Eh
   gradient norm :     0.0073144 Eh/α   predicted    -0.7451838E-04 ( -31.44%)
   displ. norm   :     0.2551769 α      lambda       -0.2501301E-03
   maximum displ.:     0.1717365 α      in ANC's #2, #1, #22, ...

........................................................................
.............................. CYCLE   19 ..............................
........................................................................

 iter      E             dE          RMSdq      gap      omega  full diag
   1    -13.8734146 -0.138734E+02  0.733E-02   14.17       0.0  T
   2    -13.8734148 -0.251702E-06  0.439E-02   14.17       1.0  T
   3    -13.8734149 -0.465618E-07  0.201E-03   14.17      13.3  T
   4    -13.8734149 -0.150876E-07  0.945E-04   14.17      28.3  T
   5    -13.8734149 -0.302311E-09  0.237E-04   14.17     112.8  T
     SCC iter.                  ...        0 min,  0.002 sec
     gradient                   ...        0 min,  0.002 sec
 * total energy  :   -13.6638892 Eh     change       -0.1731038E-03 Eh
   gradient norm :     0.0052592 Eh/α   predicted    -0.1332073E-03 ( -23.05%)
   displ. norm   :     0.2100879 α      lambda       -0.1727219E-03
   maximum displ.:     0.1477375 α      in ANC's #1, #2, #5, ...

........................................................................
.............................. CYCLE   20 ..............................
........................................................................

 iter      E             dE          RMSdq      gap      omega  full diag
   1    -13.8740760 -0.138741E+02  0.639E-02   14.18       0.0  T
   2    -13.8740764 -0.314008E-06  0.380E-02   14.18       1.0  T
   3    -13.8740764 -0.326245E-07  0.279E-03   14.18       9.6  T
   4    -13.8740764 -0.370032E-07  0.108E-03   14.18      24.8  T
   5    -13.8740764 -0.754822E-09  0.199E-04   14.18     134.2  T
   6    -13.8740764 -0.387708E-10  0.862E-05   14.18     310.0  T
     SCC iter.                  ...        0 min,  0.003 sec
     gradient                   ...        0 min,  0.002 sec
 * total energy  :   -13.6639998 Eh     change       -0.1106223E-03 Eh
   gradient norm :     0.0037370 Eh/α   predicted    -0.9017321E-04 ( -18.49%)
   displ. norm   :     0.2617814 α      lambda       -0.1356654E-03
   maximum displ.:     0.1587496 α      in ANC's #2, #1, #5, ...
 * RMSD in coord.:     0.9986369 α      energy gain  -0.9545690E-02 Eh

generating ANC from exact Hessian ...
Using Lindh-Hessian (1995)
 Shifting diagonal of input Hessian by    5.8660492217902007E-003
 Lowest  eigenvalues of input Hessian
    0.000000    0.000000    0.000000    0.000000    0.000000    0.000000
    0.010000    0.012754    0.013786    0.020789    0.023970    0.046285
    0.050987    0.058461    0.058811    0.060593    0.062713    0.066818
 Highest eigenvalues
    1.122548    1.148393    1.158775    1.209725    1.243582    1.275241


........................................................................
.............................. CYCLE   21 ..............................
........................................................................

 iter      E             dE          RMSdq      gap      omega  full diag
   1    -13.8731148 -0.138731E+02  0.759E-02   14.17       0.0  T
   2    -13.8731157 -0.910518E-06  0.451E-02   14.17       1.0  T
   3    -13.8731157 -0.557062E-07  0.462E-03   14.17       5.8  T
   4    -13.8731158 -0.809802E-07  0.143E-03   14.17      18.7  T
   5    -13.8731158 -0.714731E-09  0.438E-04   14.17      61.0  T
   6    -13.8731158 -0.117398E-09  0.828E-05   14.17     322.7  T
     SCC iter.                  ...        0 min,  0.003 sec
     gradient                   ...        0 min,  0.002 sec
 * total energy  :   -13.6640377 Eh     change       -0.3789542E-04 Eh
   gradient norm :     0.0067803 Eh/α   predicted     0.0000000E+00 (-100.00%)
   displ. norm   :     0.0338864 α      lambda       -0.1032564E-03
   maximum displ.:     0.0218720 α      in ANC's #1, #5, #3, ...

........................................................................
.............................. CYCLE   22 ..............................
........................................................................

 iter      E             dE          RMSdq      gap      omega  full diag
   1    -13.8746127 -0.138746E+02  0.294E-02   14.19       0.0  T
   2    -13.8746136 -0.887436E-06  0.161E-02   14.19       1.7  T
   3    -13.8746136 -0.436721E-07  0.517E-03   14.19       5.2  T
   4    -13.8746136 -0.232148E-07  0.102E-03   14.19      26.2  T
   5    -13.8746136 -0.346571E-09  0.485E-04   14.19      55.1  T
   6    -13.8746136 -0.931486E-10  0.518E-05   14.19     515.5  T
     SCC iter.                  ...        0 min,  0.003 sec
     gradient                   ...        0 min,  0.002 sec
 * total energy  :   -13.6641015 Eh     change       -0.6375832E-04 Eh
   gradient norm :     0.0016916 Eh/α   predicted    -0.5168889E-04 ( -18.93%)
   displ. norm   :     0.0563273 α      lambda       -0.1895577E-04
   maximum displ.:     0.0458005 α      in ANC's #1, #3, #2, ...

........................................................................
.............................. CYCLE   23 ..............................
........................................................................

 iter      E             dE          RMSdq      gap      omega  full diag
   1    -13.8752803 -0.138753E+02  0.199E-02   14.20       0.0  T
   2    -13.8752804 -0.163622E-06  0.114E-02   14.20       2.3  T
   3    -13.8752804 -0.704125E-08  0.211E-03   14.20      12.7  T
   4    -13.8752804 -0.490402E-08  0.439E-04   14.20      60.9  T
   5    -13.8752804 -0.620215E-10  0.204E-04   14.20     130.8  T
     SCC iter.                  ...        0 min,  0.002 sec
     gradient                   ...        0 min,  0.002 sec
 * total energy  :   -13.6641184 Eh     change       -0.1689799E-04 Eh
   gradient norm :     0.0015174 Eh/α   predicted    -0.9492789E-05 ( -43.82%)
   displ. norm   :     0.0530499 α      lambda       -0.1042736E-04
   maximum displ.:     0.0424536 α      in ANC's #1, #3, #2, ...

........................................................................
.............................. CYCLE   24 ..............................
........................................................................

 iter      E             dE          RMSdq      gap      omega  full diag
   1    -13.8751037 -0.138751E+02  0.159E-02   14.21       0.0  T
   2    -13.8751037 -0.108788E-07  0.949E-03   14.21       2.8  T
   3    -13.8751037 -0.280212E-08  0.403E-04   14.21      66.3  T
   4    -13.8751037 -0.225409E-09  0.209E-04   14.21     127.8  T
     SCC iter.                  ...        0 min,  0.026 sec
     gradient                   ...        0 min,  0.009 sec
 * total energy  :   -13.6641321 Eh     change       -0.1366619E-04 Eh
   gradient norm :     0.0013914 Eh/α   predicted    -0.5218363E-05 ( -61.82%)
   displ. norm   :     0.0790776 α      lambda       -0.1367352E-04
   maximum displ.:     0.0605917 α      in ANC's #1, #3, #2, ...

........................................................................
.............................. CYCLE   25 ..............................
........................................................................

 iter      E             dE          RMSdq      gap      omega  full diag
   1    -13.8748131 -0.138748E+02  0.222E-02   14.21       0.0  T
   2    -13.8748131 -0.351460E-07  0.133E-02   14.21       2.0  T
   3    -13.8748131 -0.505845E-08  0.698E-04   14.21      38.3  T
   4    -13.8748131 -0.131856E-08  0.313E-04   14.21      85.5  T
     SCC iter.                  ...        0 min,  0.024 sec
     gradient                   ...        0 min,  0.009 sec
 * total energy  :   -13.6641478 Eh     change       -0.1578712E-04 Eh
   gradient norm :     0.0005490 Eh/α   predicted    -0.6854633E-05 ( -56.58%)
   displ. norm   :     0.0691403 α      lambda       -0.7720596E-05
   maximum displ.:     0.0556053 α      in ANC's #1, #3, #2, ...

........................................................................
.............................. CYCLE   26 ..............................
........................................................................

 iter      E             dE          RMSdq      gap      omega  full diag
   1    -13.8747437 -0.138747E+02  0.204E-02   14.22       0.0  T
   2    -13.8747437 -0.127490E-07  0.122E-02   14.22       2.2  T
   3    -13.8747437 -0.327511E-08  0.460E-04   14.22      58.1  T
   4    -13.8747437 -0.509022E-09  0.238E-04   14.22     112.2  T
     SCC iter.                  ...        0 min,  0.024 sec
     gradient                   ...        0 min,  0.005 sec
 * total energy  :   -13.6641565 Eh     change       -0.8689722E-05 Eh
   gradient norm :     0.0006291 Eh/α   predicted    -0.3868875E-05 ( -55.48%)
   displ. norm   :     0.0451974 α      lambda       -0.4157443E-05
   maximum displ.:     0.0382633 α      in ANC's #1, #3, #2, ...

........................................................................
.............................. CYCLE   27 ..............................
........................................................................

 iter      E             dE          RMSdq      gap      omega  full diag
   1    -13.8748298 -0.138748E+02  0.125E-02   14.22       0.0  T
   2    -13.8748298 -0.477190E-08  0.749E-03   14.22       3.6  T
   3    -13.8748298 -0.117197E-08  0.302E-04   14.22      88.5  T
   4    -13.8748298 -0.301341E-09  0.152E-04   14.22     175.9  T
     SCC iter.                  ...        0 min,  0.004 sec
     gradient                   ...        0 min,  0.002 sec
 * total energy  :   -13.6641616 Eh     change       -0.5023426E-05 Eh
   gradient norm :     0.0004564 Eh/α   predicted    -0.2080007E-05 ( -58.59%)
   displ. norm   :     0.0357424 α      lambda       -0.3021142E-05
   maximum displ.:     0.0312038 α      in ANC's #1, #2, #4, ...

........................................................................
.............................. CYCLE   28 ..............................
........................................................................

 iter      E             dE          RMSdq      gap      omega  full diag
   1    -13.8749632 -0.138750E+02  0.987E-03   14.23       0.0  T
   2    -13.8749632 -0.429589E-08  0.590E-03   14.23       4.5  T
   3    -13.8749632 -0.725521E-09  0.247E-04   14.23     108.0  T
   4    -13.8749632 -0.192278E-09  0.116E-04   14.23     231.0  T
     SCC iter.                  ...        0 min,  0.003 sec
     gradient                   ...        0 min,  0.002 sec
 * total energy  :   -13.6641655 Eh     change       -0.3948224E-05 Eh
   gradient norm :     0.0002443 Eh/α   predicted    -0.1509533E-05 ( -61.77%)
   displ. norm   :     0.0376387 α      lambda       -0.2816812E-05
   maximum displ.:     0.0315987 α      in ANC's #1, #2, #4, ...

........................................................................
.............................. CYCLE   29 ..............................
........................................................................

 iter      E             dE          RMSdq      gap      omega  full diag
   1    -13.8749916 -0.138750E+02  0.104E-02   14.23       0.0  T
   2    -13.8749916 -0.193189E-08  0.623E-03   14.23       4.3  T
   3    -13.8749916 -0.818982E-09  0.188E-04   14.23     141.9  T
   4    -13.8749916 -0.456701E-10  0.104E-04   14.23     257.3  T
     SCC iter.                  ...        0 min,  0.002 sec
     gradient                   ...        0 min,  0.002 sec
 * total energy  :   -13.6641692 Eh     change       -0.3706487E-05 Eh
   gradient norm :     0.0001572 Eh/α   predicted    -0.1409919E-05 ( -61.96%)
   displ. norm   :     0.0399086 α      lambda       -0.2549562E-05
   maximum displ.:     0.0323355 α      in ANC's #1, #2, #3, ...

........................................................................
.............................. CYCLE   30 ..............................
........................................................................

 iter      E             dE          RMSdq      gap      omega  full diag
   1    -13.8750019 -0.138750E+02  0.108E-02   14.24       0.0  T
   2    -13.8750019 -0.213944E-08  0.646E-03   14.24       4.1  T
   3    -13.8750019 -0.937836E-09  0.191E-04   14.24     139.9  T
   4    -13.8750019 -0.222204E-10  0.102E-04   14.24     262.6  T
     SCC iter.                  ...        0 min,  0.003 sec
     gradient                   ...        0 min,  0.002 sec
 * total energy  :   -13.6641724 Eh     change       -0.3196759E-05 Eh
   gradient norm :     0.0002006 Eh/α   predicted    -0.1276293E-05 ( -60.08%)
   displ. norm   :     0.0334420 α      lambda       -0.1689496E-05
   maximum displ.:     0.0276144 α      in ANC's #1, #2, #3, ...

........................................................................
.............................. CYCLE   31 ..............................
........................................................................

 iter      E             dE          RMSdq      gap      omega  full diag
   1    -13.8749783 -0.138750E+02  0.964E-03   14.24       0.0  T
   2    -13.8749783 -0.186563E-08  0.578E-03   14.24       4.6  T
   3    -13.8749783 -0.770823E-09  0.177E-04   14.24     150.9  T
   4    -13.8749783 -0.926903E-11  0.840E-05   14.24     318.1  T
     SCC iter.                  ...        0 min,  0.002 sec
     gradient                   ...        0 min,  0.002 sec
 * total energy  :   -13.6641745 Eh     change       -0.2052241E-05 Eh
   gradient norm :     0.0001379 Eh/α   predicted    -0.8440646E-06 ( -58.87%)
   displ. norm   :     0.0225124 α      lambda       -0.9233131E-06
   maximum displ.:     0.0191229 α      in ANC's #1, #3, #2, ...

........................................................................
.............................. CYCLE   32 ..............................
........................................................................

 iter      E             dE          RMSdq      gap      omega  full diag
   1    -13.8749919 -0.138750E+02  0.610E-03   14.24       0.0  T
   2    -13.8749919 -0.800821E-09  0.366E-03   14.24       7.3  T
   3    -13.8749919 -0.347738E-09  0.129E-04   14.24     207.9  T
   4    -13.8749919 -0.648726E-11  0.395E-05   14.24     676.6  T
     SCC iter.                  ...        0 min,  0.002 sec
     gradient                   ...        0 min,  0.002 sec
 * total energy  :   -13.6641756 Eh     change       -0.1132411E-05 Eh
   gradient norm :     0.0001066 Eh/α   predicted    -0.4610802E-06 ( -59.28%)
   displ. norm   :     0.0148750 α      lambda       -0.5170934E-06
   maximum displ.:     0.0131867 α      in ANC's #1, #3, #5, ...

........................................................................
.............................. CYCLE   33 ..............................
........................................................................

 iter      E             dE          RMSdq      gap      omega  full diag
   1    -13.8750084 -0.138750E+02  0.452E-03   14.24       0.0  T
   2    -13.8750084 -0.582020E-09  0.270E-03   14.24       9.9  T
   3    -13.8750084 -0.181867E-09  0.107E-04   14.24     249.9  T
   4    -13.8750084 -0.205507E-10  0.543E-05   14.24     491.8  T
     SCC iter.                  ...        0 min,  0.002 sec
     gradient                   ...        0 min,  0.002 sec
 * total energy  :   -13.6641762 Eh     change       -0.6435718E-06 Eh
   gradient norm :     0.0000824 Eh/α   predicted    -0.2587321E-06 ( -59.80%)
   displ. norm   :     0.0097389 α      lambda       -0.2884089E-06
   maximum displ.:     0.0090666 α      in ANC's #1, #4, #3, ...

   *** GEOMETRY OPTIMIZATION CONVERGED AFTER 33 ITERATIONS ***

------------------------------------------------------------------------
 total energy gain   :        -0.0097221 Eh       -6.1007 kcal/mol
 total RMSD          :         1.0427161 a0        0.5518 Å
 total power (kW/mol):        -0.7734951 (step)  -71.8477 (real)
------------------------------------------------------------------------

 ANCopt (total)                0 d,  0 h,  0 min,  0.355 sec
 optimizer setup                ...        0 min,  0.000 sec (  0.037%)
 model hessian                  ...        0 min,  0.021 sec (  5.812%)
 ANC generation                 ...        0 min,  0.001 sec (  0.308%)
 coordinate transformation      ...        0 min,  0.000 sec (  0.079%)
 single point calculation       ...        0 min,  0.311 sec ( 87.461%)
 optimization log               ...        0 min,  0.006 sec (  1.733%)
 hessian update                 ...        0 min,  0.008 sec (  2.208%)
 rational function              ...        0 min,  0.006 sec (  1.615%)

================
 final structure:
================
14
 xtb: 6.7.1 (edcfbbe)
C           -0.98588278103201        1.00609555731773        0.21778019269474
H           -0.13607050130126        1.46020026728864        0.72042144950715
H           -1.17021924675611        1.54904488881512       -0.70697384711888
H           -0.72150903504320       -0.01866402163690       -0.03381112565581
C           -2.22496124801140        1.03016353025607        1.10521769132415
H           -2.01119993000968        0.50841501075702        2.04104278175178
H           -3.02904250046538        0.48791196545433        0.60147691914093
C           -2.71250815719753        2.44514873071683        1.41888470590331
H           -2.85768275069716        2.99043600347293        0.48332604087932
H           -3.68376474364320        2.37734536671946        1.91527343595196
C           -1.75655231032061        3.22349286537461        2.31541790557700
H           -2.17914897358910        4.19421213739497        2.56518801148248
H           -1.57612014215482        2.68027871291630        3.24077666880303
H           -0.80295557977805        3.38773595515274        1.82076898975899

 Bond Distances (Angstroems)
 ---------------------------
C1-H2=1.0868         C1-H3=1.0881         C1-H4=1.0878         C1-C5=1.5243         H2-C1=1.0868         H3-C1=1.0881         
H4-C1=1.0878         C5-C1=1.5243         C5-H6=1.0926         C5-H7=1.0929         C5-C8=1.5291         H6-C5=1.0926         
H7-C5=1.0929         C8-C5=1.5291         C8-H9=1.0926         C8-H10=1.0929        C8-C11=1.5243        H9-C8=1.0926         
H10-C8=1.0929        C11-C8=1.5243        C11-H12=1.0878       C11-H13=1.0881       C11-H14=1.0867       H12-C11=1.0878       
H13-C11=1.0881       H14-C11=1.0867       
 C  H  Rav=1.0896 sigma=0.0026  Rmin=1.0867  Rmax=1.0929    10
 C  C  Rav=1.5259 sigma=0.0023  Rmin=1.5243  Rmax=1.5291     3

 selected bond angles (degree)
 --------------------
H3-C1-H2=108.48                H4-C1-H2=108.09                H4-C1-H3=108.34                C5-C1-H2=111.09                
C5-C1-H3=110.44                C5-C1-H4=110.31                H6-C5-C1=109.40                H7-C5-C1=108.78                
H7-C5-H6=107.57                C8-C5-C1=113.15                C8-C5-H6=109.18                C8-C5-H7=108.61                
H9-C8-C5=109.18                H10-C8-C5=108.61               H10-C8-H9=107.57               C11-C8-C5=113.15               
C11-C8-H9=109.40               C11-C8-H10=108.78              

 selected dihedral angles (degree)
 ---------------------------------
H6-C5-C1-H2=302.21            H6-C5-C1-H3=181.79            H6-C5-C1-H4= 62.05            H7-C5-C1-H2=184.97            
H7-C5-C1-H3= 64.55            H7-C5-C1-H4=304.82            C8-C5-C1-H2= 64.18            C8-C5-C1-H3=303.76            
C8-C5-C1-H4=184.02            H9-C8-C5-C1= 53.89            H9-C8-C5-H6=175.97            H9-C8-C5-H7=292.99            
H10-C8-C5-C1=170.91           H10-C8-C5-H6=292.99           H10-C8-C5-H7= 50.02           C11-C8-C5-C1=291.80           
C11-C8-C5-H6= 53.89           C11-C8-C5-H7=170.91           
           -------------------------------------------------
          |                Final Singlepoint                |
           -------------------------------------------------

          ...................................................
          :                      SETUP                      :
          :.................................................:
          :  # basis functions                  26          :
          :  # atomic orbitals                  26          :
          :  # shells                           18          :
          :  # electrons                        26          :
          :  max. iterations                   250          :
          :  Hamiltonian                  GFN2-xTB          :
          :  restarted?                      false          :
          :  GBSA solvation                  false          :
          :  PC potential                    false          :
          :  electronic temp.          300.0000000     K    :
          :  accuracy                    1.0000000          :
          :  -> integral cutoff          0.2500000E+02      :
          :  -> integral neglect         0.1000000E-07      :
          :  -> SCF convergence          0.1000000E-05 Eh   :
          :  -> wf. convergence          0.1000000E-03 e    :
          :  Broyden damping             0.4000000          :
          :  net charge                          0          :
          :  unpaired electrons                  0          :
          ...................................................

 iter      E             dE          RMSdq      gap      omega  full diag
   1    -13.8750084 -0.138750E+02  0.805E-06   14.24       0.0  T
   2    -13.8750084 -0.532907E-13  0.462E-06   14.24    5781.8  T
   3    -13.8750084  0.000000E+00  0.101E-06   14.24   26517.1  T

   *** convergence criteria satisfied after 3 iterations ***

         #    Occupation            Energy/Eh            Energy/eV
      -------------------------------------------------------------
         1        2.0000           -0.6178052             -16.8113
       ...           ...                  ...                  ...
         7        2.0000           -0.4850565             -13.1991
         8        2.0000           -0.4661709             -12.6852
         9        2.0000           -0.4620352             -12.5726
        10        2.0000           -0.4481971             -12.1961
        11        2.0000           -0.4258277             -11.5874
        12        2.0000           -0.4236612             -11.5284
        13        2.0000           -0.4220049             -11.4833 (HOMO)
        14                          0.1014604               2.7609 (LUMO)
        15                          0.1114968               3.0340
        16                          0.1370891               3.7304
        17                          0.1487858               4.0487
        18                          0.1498121               4.0766
       ...                                ...                  ...
        26                          0.3008746               8.1872
      -------------------------------------------------------------
                  HL-Gap            0.5234653 Eh           14.2442 eV
             Fermi-level           -0.1602722 Eh           -4.3612 eV

 SCC (total)                   0 d,  0 h,  0 min,  0.005 sec
 SCC setup                      ...        0 min,  0.000 sec (  4.932%)
 Dispersion                     ...        0 min,  0.000 sec (  2.024%)
 classical contributions        ...        0 min,  0.000 sec (  0.866%)
 integral evaluation            ...        0 min,  0.001 sec ( 16.540%)
 iterations                     ...        0 min,  0.002 sec ( 32.009%)
 molecular gradient             ...        0 min,  0.002 sec ( 37.408%)
 printout                       ...        0 min,  0.000 sec (  5.780%)

         :::::::::::::::::::::::::::::::::::::::::::::::::::::
         ::                     SUMMARY                     ::
         :::::::::::::::::::::::::::::::::::::::::::::::::::::
         :: total energy             -13.664176238192 Eh    ::
         :: gradient norm              0.000082410549 Eh/a0 ::
         :: HOMO-LUMO gap             14.244217075609 eV    ::
         ::.................................................::
         :: SCC energy               -13.875001263230 Eh    ::
         :: -> isotropic ES            0.002971613475 Eh    ::
         :: -> anisotropic ES          0.004972498112 Eh    ::
         :: -> anisotropic XC          0.008992403920 Eh    ::
         :: -> dispersion             -0.006299825285 Eh    ::
         :: repulsion energy           0.210825025038 Eh    ::
         :: add. restraining           0.000000000000 Eh    ::
         :: total charge               0.000000000000 e     ::
         :::::::::::::::::::::::::::::::::::::::::::::::::::::

           -------------------------------------------------
          |                Property Printout                |
           -------------------------------------------------

    * Orbital Energies and Occupations

         #    Occupation            Energy/Eh            Energy/eV
      -------------------------------------------------------------
         1        2.0000           -0.6178052             -16.8113
         2        2.0000           -0.5960934             -16.2205
         3        2.0000           -0.5730930             -15.5947
         4        2.0000           -0.5475897             -14.9007
         5        2.0000           -0.5065268             -13.7833
         6        2.0000           -0.5057938             -13.7634
         7        2.0000           -0.4850565             -13.1991
         8        2.0000           -0.4661709             -12.6852
         9        2.0000           -0.4620352             -12.5726
        10        2.0000           -0.4481971             -12.1961
        11        2.0000           -0.4258277             -11.5874
        12        2.0000           -0.4236612             -11.5284
        13        2.0000           -0.4220049             -11.4833 (HOMO)
        14                          0.1014604               2.7609 (LUMO)
        15                          0.1114968               3.0340
        16                          0.1370891               3.7304
        17                          0.1487858               4.0487
        18                          0.1498121               4.0766
        19                          0.1576269               4.2892
        20                          0.2026263               5.5137
        21                          0.2068576               5.6289
        22                          0.2345253               6.3818
        23                          0.2487784               6.7696
        24                          0.2784476               7.5769
       ...                                ...                  ...
        26                          0.3008746               8.1872
      -------------------------------------------------------------
                  HL-Gap            0.5234653 Eh           14.2442 eV
             Fermi-level           -0.1602722 Eh           -4.3612 eV

     #   Z          covCN         q      C6AA      α(0)
     1   6 C        3.751    -0.101    22.492     6.763
     2   1 H        0.925     0.035     2.512     2.479
     3   1 H        0.925     0.033     2.551     2.498
     4   1 H        0.925     0.030     2.585     2.514
     5   6 C        3.800    -0.053    21.519     6.605
     6   1 H        0.924     0.030     2.591     2.517
     7   1 H        0.924     0.026     2.643     2.543
     8   6 C        3.800    -0.053    21.519     6.605
     9   1 H        0.924     0.030     2.591     2.517
    10   1 H        0.924     0.026     2.643     2.543
    11   6 C        3.751    -0.101    22.492     6.763
    12   1 H        0.925     0.030     2.585     2.514
    13   1 H        0.925     0.032     2.551     2.498
    14   1 H        0.925     0.035     2.512     2.479

 Mol. C6AA /au·bohr⁶  :       1208.188103
 Mol. C8AA /au·bohr⁸  :      24487.115897
 Mol. α(0) /au        :         51.836624


Wiberg/Mayer (AO) data.
largest (>0.10) Wiberg bond orders for each atom

 ---------------------------------------------------------------------------
     #   Z sym  total        # sym  WBO       # sym  WBO       # sym  WBO
 ---------------------------------------------------------------------------
     1   6 C    3.997 --     5 C    1.020     3 H    0.988     4 H    0.988
                             2 H    0.986
     2   1 H    0.999 --     1 C    0.986
     3   1 H    0.999 --     1 C    0.988
     4   1 H    0.999 --     1 C    0.988
     5   6 C    3.998 --     1 C    1.020     8 C    1.008     7 H    0.979
                             6 H    0.978
     6   1 H    0.999 --     5 C    0.978
     7   1 H    0.999 --     5 C    0.979
     8   6 C    3.998 --    11 C    1.020     5 C    1.008    10 H    0.979
                             9 H    0.978
     9   1 H    0.999 --     8 C    0.978
    10   1 H    0.999 --     8 C    0.979
    11   6 C    3.997 --     8 C    1.020    13 H    0.988    12 H    0.988
                            14 H    0.986
    12   1 H    0.999 --    11 C    0.988
    13   1 H    0.999 --    11 C    0.988
    14   1 H    0.999 --    11 C    0.986
 ---------------------------------------------------------------------------

Topologies differ in total number of bonds
Writing topology from bond orders to xtbtopo.mol

molecular dipole:
                 x           y           z       tot (Debye)
 q only:        0.014       0.005       0.000
   full:        0.011       0.004       0.000       0.031
molecular quadrupole (traceless):
                xx          xy          yy          xz          yz          zz
 q only:       -0.045       0.092       0.064       0.046       0.035      -0.019
  q+dip:       -0.231       0.043      -0.060       0.212      -0.487       0.291
   full:       -0.146       0.048       0.008       0.119      -0.216       0.138

           -------------------------------------------------
          |                Geometry Summary                 |
           -------------------------------------------------

      molecular mass/u    :       58.1223511
   center of mass at/Å    :       -1.9020788       1.9323758       1.2643987
Note: The following floating-point exceptions are signalling: IEEE_UNDERFLOW_FLAG IEEE_DENORMAL
normal termination of xtb
  moments of inertia/u·Å² :        0.3751496E+02   0.1058429E+03   0.1229572E+03
rotational constants/cm⁻¹ :        0.4493576E+00   0.1592702E+00   0.1371016E+00

 * 13 selected distances

     #   Z          #   Z                                           value/Å
     1   6 C        2   1 H                                       1.0867568
     1   6 C        3   1 H                                       1.0880920
     1   6 C        4   1 H                                       1.0878070
     1   6 C        5   6 C                                       1.5242836
     5   6 C        6   1 H                                       1.0925586
     5   6 C        7   1 H                                       1.0928579
     5   6 C        8   6 C                                       1.5291411 (max)
     8   6 C        9   1 H                                       1.0925585
     8   6 C       10   1 H                                       1.0928580
     8   6 C       11   6 C                                       1.5242845
    11   6 C       12   1 H                                       1.0877818
    11   6 C       13   1 H                                       1.0880838
    11   6 C       14   1 H                                       1.0867384 (min)

 * 2 distinct bonds (by element types)

   Z      Z             #   av. dist./Å        max./Å        min./Å
   1 H    6 C          10     1.0896093     1.0928580     1.0867384
   6 C    6 C           3     1.5259031     1.5291411     1.5242836


optimized geometry written to: xtbopt.xyz


           -------------------------------------------------
          | TOTAL ENERGY              -13.664176238192 Eh   |
          | GRADIENT NORM               0.000082410549 Eh/α |
          | HOMO-LUMO GAP              14.244217075609 eV   |
           -------------------------------------------------

------------------------------------------------------------------------
 * finished run on 2026/08/11 at 11:11:55.774     
------------------------------------------------------------------------
 total:
 * wall-time:     0 d,  0 h,  0 min,  0.487 sec
 *  cpu-time:     0 d,  0 h,  0 min,  1.859 sec
 * ratio c/w:     3.814 speedup
 SCF:
 * wall-time:     0 d,  0 h,  0 min,  0.097 sec
 *  cpu-time:     0 d,  0 h,  0 min,  0.373 sec
 * ratio c/w:     3.838 speedup
 ANC optimizer:
 * wall-time:     0 d,  0 h,  0 min,  0.361 sec
 *  cpu-time:     0 d,  0 h,  0 min,  1.379 sec
 * ratio c/w:     3.814 speedup

