14
 energy: -13.664176238192 gnorm: 0.000082410549 xtb: 6.7.1 (edcfbbe)
C           -0.98588278103201        1.00609555731773        0.21778019269474
H           -0.13607050130126        1.46020026728864        0.72042144950715
H           -1.17021924675611        1.54904488881512       -0.70697384711888
H           -0.72150903504320       -0.01866402163690       -0.03381112565581
C           -2.22496124801140        1.03016353025607        1.10521769132415
H           -2.01119993000968        0.50841501075702        2.04104278175178
H           -3.02904250046538        0.48791196545433        0.60147691914093
C           -2.71250815719753        2.44514873071683        1.41888470590331
H           -2.85768275069716        2.99043600347293        0.48332604087932
H           -3.68376474364320        2.37734536671946        1.91527343595196
C           -1.75655231032061        3.22349286537461        2.31541790557700
H           -2.17914897358910        4.19421213739497        2.56518801148248
H           -1.57612014215482        2.68027871291630        3.24077666880303
H           -0.80295557977805        3.38773595515274        1.82076898975899
