14
 energy: -13.664176995592 gnorm: 0.000089157843 xtb: 6.7.1 (edcfbbe)
C           -2.94633451306797        0.20108720383708        1.89593708997811
H           -2.92799426921092        0.44156037235394        2.95562255325204
H           -2.67783370155301       -0.84699076909630        1.78282216906927
H           -3.96181613448011        0.33602806080129        1.52905248520257
C           -1.97708361739480        1.08240471611136        1.11674996656269
H           -1.96197660707008        0.75329722285637        0.07471630639776
H           -0.96866489683365        0.95505943901701        1.51744032186132
C           -2.34902337735402        2.56513108719063        1.15470546321566
H           -1.70552096920711        3.10371639702127        0.45459607405524
H           -3.38015098025129        2.68542881812163        0.81420089301857
C           -2.19721099002015        3.18639781907757        2.53830956726908
H           -1.18298791725274        3.04852714759001        2.90753839832210
H           -2.40489192885782        4.25345291110826        2.49801917559991
H           -2.88636342744637        2.73507041400979        3.24714494619570
