      -----------------------------------------------------------      
     |                   =====================                   |     
     |                           x T B                           |     
     |                   =====================                   |     
     |                         S. Grimme                         |     
     |          Mulliken Center for Theoretical Chemistry        |     
     |                    University of Bonn                     |     
      -----------------------------------------------------------      

   * xtb version 6.7.1 (edcfbbe) compiled by 'conda@5dfe00f5fb80' on 2026-06-10

   xtb is free software: you can redistribute it and/or modify it under
   the terms of the GNU Lesser General Public License as published by
   the Free Software Foundation, either version 3 of the License, or
   (at your option) any later version.
   
   xtb is distributed in the hope that it will be useful,
   but WITHOUT ANY WARRANTY; without even the implied warranty of
   MERCHANTABILITY or FITNESS FOR A PARTICULAR PURPOSE.  See the
   GNU Lesser General Public License for more details.
   
   Cite this work as:
   * C. Bannwarth, E. Caldeweyher, S. Ehlert, A. Hansen, P. Pracht,
     J. Seibert, S. Spicher, S. Grimme, WIREs Comput. Mol. Sci., 2020, 11,
     e01493. DOI: 10.1002/wcms.1493
   
   for GFN2-xTB:
   * C. Bannwarth, S. Ehlert and S. Grimme., J. Chem. Theory Comput., 2019,
     15, 1652-1671. DOI: 10.1021/acs.jctc.8b01176
   for GFN1-xTB:
   * S. Grimme, C. Bannwarth, P. Shushkov, J. Chem. Theory Comput., 2017,
     13, 1989-2009. DOI: 10.1021/acs.jctc.7b00118
   for GFN0-xTB:
   * P. Pracht, E. Caldeweyher, S. Ehlert, S. Grimme, ChemRxiv, 2019, preprint.
     DOI: 10.26434/chemrxiv.8326202.v1
   for GFN-FF:
   * S. Spicher and S. Grimme, Angew. Chem. Int. Ed., 2020, 59, 15665-15673.
     DOI: 10.1002/anie.202004239
   
   for ALPB and GBSA implicit solvation:
   * S. Ehlert, M. Stahn, S. Spicher, S. Grimme, J. Chem. Theory Comput.,
     2021, 17, 4250-4261. DOI: 10.1021/acs.jctc.1c00471
   
   for ddCOSMO and CPCM-X implicit solvation:
   * M. Stahn, S. Ehlert, S. Grimme, J. Phys. Chem. A,
     2023, XX, XXXX-XXXX. DOI: 10.1021/acs.jpca.3c04382
   
   for DFT-D4:
   * E. Caldeweyher, C. Bannwarth and S. Grimme, J. Chem. Phys., 2017,
     147, 034112. DOI: 10.1063/1.4993215
   * E. Caldeweyher, S. Ehlert, A. Hansen, H. Neugebauer, S. Spicher,
     C. Bannwarth and S. Grimme, J. Chem. Phys., 2019, 150, 154122.
     DOI: 10.1063/1.5090222
   * E. Caldeweyher, J.-M. Mewes, S. Ehlert and S. Grimme, Phys. Chem. Chem. Phys.
     2020, 22, 8499-8512. DOI: 10.1039/D0CP00502A
   
   for sTDA-xTB:
   * S. Grimme and C. Bannwarth, J. Chem. Phys., 2016, 145, 054103.
     DOI: 10.1063/1.4959605
   
   in the mass-spec context:
   * V. Asgeirsson, C. Bauer and S. Grimme, Chem. Sci., 2017, 8, 4879.
     DOI: 10.1039/c7sc00601b
   * J. Koopman and S. Grimme, ACS Omega 2019, 4, 12, 15120-15133.
     DOI: 10.1021/acsomega.9b02011
   
   for metadynamics refer to:
   * S. Grimme, J. Chem. Theory Comput., 2019, 155, 2847-2862
     DOI: 10.1021/acs.jctc.9b00143
   
   for SPH calculations refer to:
   * S. Spicher and S. Grimme, J. Chem. Theory Comput., 2021, 17, 1701-1714
     DOI: 10.1021/acs.jctc.0c01306
   
   for ONIOM refer to:
   * C. Plett, A. Katbashev, S. Ehlert, S. Grimme, M. Bursch,
     Phys. Chem. Chem. Phys., 2023, 25, 17860-17868. DOI: 10.1039/D3CP02178E
   
   for DIPRO refer to:
   * J. Kohn, N. Gildemeister, S. Grimme, D. Fazzi, A. Hansen,
     J. Chem. Phys., 2023, just accepted.
   
   for PTB refer to:
   * S. Grimme, M. Mueller, A. Hansen, J. Chem. Phys., 2023, 158, 124111.
     DOI: 10.1063/5.0137838
   
   with help from (in alphabetical order)
   P. Atkinson, C. Bannwarth, F. Bohle, G. Brandenburg, E. Caldeweyher
   M. Checinski, S. Dohm, S. Ehlert, S. Ehrlich, I. Gerasimov, C. Hölzer
   A. Katbashev, J. Kohn, J. Koopman, C. Lavigne, S. Lehtola, F. März, M. Müller,
   F. Musil, H. Neugebauer, J. Pisarek, C. Plett, P. Pracht, F. Pultar,
   J. Seibert, P. Shushkov, S. Spicher, M. Stahn, M. Steiner, T. Strunk,
   J. Stückrath, T. Rose, and J. Unsleber
   
 * started run on 2026/08/11 at 11:11:59.816     
   ID    Z sym.   atoms
    1    6 C      1, 5, 8, 11
    2    1 H      2-4, 6, 7, 9, 10, 12-14

           -------------------------------------------------
          |                Calculation Setup                |
           -------------------------------------------------

          program call               : xtb input.xyz --gfn2 --opt tight --chrg 0 --uhf 0 --iterations 250
          coordinate file            : input.xyz
          omp threads                :                     4


           -------------------------------------------------
          |                 G F N 2 - x T B                 |
           -------------------------------------------------

        Reference                      10.1021/acs.jctc.8b01176
      * Hamiltonian:
        H0-scaling (s, p, d)           1.850000    2.230000    2.230000
        zeta-weighting                 0.500000
      * Dispersion:
        s8                             2.700000
        a1                             0.520000
        a2                             5.000000
        s9                             5.000000
      * Repulsion:
        kExp                           1.500000    1.000000
        rExp                           1.000000
      * Coulomb:
        alpha                          2.000000
        third order                    shell-resolved
        anisotropic                    true
        a3                             3.000000
        a5                             4.000000
        cn-shift                       1.200000
        cn-exp                         4.000000
        max-rad                        5.000000


          ...................................................
          :                      SETUP                      :
          :.................................................:
          :  # basis functions                  26          :
          :  # atomic orbitals                  26          :
          :  # shells                           18          :
          :  # electrons                        26          :
          :  max. iterations                   250          :
          :  Hamiltonian                  GFN2-xTB          :
          :  restarted?                      false          :
          :  GBSA solvation                  false          :
          :  PC potential                    false          :
          :  electronic temp.          300.0000000     K    :
          :  accuracy                    1.0000000          :
          :  -> integral cutoff          0.2500000E+02      :
          :  -> integral neglect         0.1000000E-07      :
          :  -> SCF convergence          0.1000000E-05 Eh   :
          :  -> wf. convergence          0.1000000E-03 e    :
          :  Broyden damping             0.4000000          :
          :  net charge                          0          :
          :  unpaired electrons                  0          :
          ...................................................

 iter      E             dE          RMSdq      gap      omega  full diag
   1    -13.8273037 -0.138273E+02  0.252E+00   13.70       0.0  T
   2    -13.8665229 -0.392192E-01  0.129E+00   13.31       1.0  T
   3    -13.8669606 -0.437704E-03  0.690E-01   13.29       1.0  T
   4    -13.8670743 -0.113701E-03  0.917E-02   13.30       1.0  T
   5    -13.8670808 -0.643783E-05  0.507E-02   13.30       1.0  T
   6    -13.8670811 -0.334073E-06  0.178E-03   13.30      15.0  T
   7    -13.8670811 -0.432828E-08  0.756E-04   13.30      35.4  T
   8    -13.8670811 -0.538105E-09  0.141E-04   13.30     188.9  T

   *** convergence criteria satisfied after 8 iterations ***

         #    Occupation            Energy/Eh            Energy/eV
      -------------------------------------------------------------
         1        2.0000           -0.6167885             -16.7837
       ...           ...                  ...                  ...
         7        2.0000           -0.4886919             -13.2980
         8        2.0000           -0.4796902             -13.0530
         9        2.0000           -0.4530839             -12.3290
        10        2.0000           -0.4403240             -11.9818
        11        2.0000           -0.4383706             -11.9287
        12        2.0000           -0.4265321             -11.6065
        13        2.0000           -0.4152193             -11.2987 (HOMO)
        14                          0.0735914               2.0025 (LUMO)
        15                          0.1173367               3.1929
        16                          0.1207194               3.2849
        17                          0.1520472               4.1374
        18                          0.1625856               4.4242
       ...                                ...                  ...
        26                          0.3190804               8.6826
      -------------------------------------------------------------
                  HL-Gap            0.4888107 Eh           13.3012 eV
             Fermi-level           -0.1708140 Eh           -4.6481 eV

 SCC (total)                   0 d,  0 h,  0 min,  0.096 sec
 SCC setup                      ...        0 min,  0.002 sec (  2.460%)
 Dispersion                     ...        0 min,  0.004 sec (  4.199%)
 classical contributions        ...        0 min,  0.002 sec (  1.984%)
 integral evaluation            ...        0 min,  0.006 sec (  6.326%)
 iterations                     ...        0 min,  0.060 sec ( 62.817%)
 molecular gradient             ...        0 min,  0.021 sec ( 21.976%)
 printout                       ...        0 min,  0.000 sec (  0.211%)

         :::::::::::::::::::::::::::::::::::::::::::::::::::::
         ::                     SUMMARY                     ::
         :::::::::::::::::::::::::::::::::::::::::::::::::::::
         :: total energy             -13.661043671263 Eh    ::
         :: gradient norm              0.014147408982 Eh/a0 ::
         :: HOMO-LUMO gap             13.301215547342 eV    ::
         ::.................................................::
         :: SCC energy               -13.867077231537 Eh    ::
         :: -> isotropic ES            0.002934703832 Eh    ::
         :: -> anisotropic ES          0.005116498821 Eh    ::
         :: -> anisotropic XC          0.009092739891 Eh    ::
         :: -> dispersion             -0.006015316952 Eh    ::
         :: repulsion energy           0.206033560274 Eh    ::
         :: add. restraining           0.000000000000 Eh    ::
         :: total charge               0.000000000000 e     ::
         :::::::::::::::::::::::::::::::::::::::::::::::::::::

      ----------------------------------------------------------- 
     |                   =====================                   |
     |                        A N C O P T                        |
     |                   =====================                   |
     |               Approximate Normal Coordinate               |
     |                Rational Function Optimizer                |
      ----------------------------------------------------------- 
      ----------------------------------------------------------- 
     |                   =====================                   |
     |                        A N C O P T                        |
     |                   =====================                   |
     |               Approximate Normal Coordinate               |
     |                Rational Function Optimizer                |
      ----------------------------------------------------------- 

          ...................................................
          :                      SETUP                      :
          :.................................................:
          :   optimization level             tight          :
          :   max. optcycles                   200          :
          :   ANC micro-cycles                  20          :
          :   degrees of freedom                36          :
          :.................................................:
          :   RF solver                   davidson          :
          :   write xtbopt.log                true          :
          :   linear?                        false          :
          :   energy convergence         0.1000000E-05 Eh   :
          :   grad. convergence          0.8000000E-03 Eh/α :
          :   maxmium RF displ.          1.0000000          :
          :   Hlow (freq-cutoff)         0.1000000E-01      :
          :   Hmax (freq-cutoff)         5.0000000          :
          :   S6 in model hess.         20.0000000          :
          ...................................................

generating ANC from exact Hessian ...
Using Lindh-Hessian (1995)
 Shifting diagonal of input Hessian by    5.8918751269310607E-003
 Lowest  eigenvalues of input Hessian
    0.000000    0.000000    0.000000    0.000000    0.000000    0.000000
    0.010000    0.013100    0.013541    0.017922    0.022017    0.044655
    0.046856    0.056985    0.059172    0.059987    0.061338    0.069954
 Highest eigenvalues
    1.109336    1.128065    1.173384    1.192368    1.212125    1.289377


........................................................................
.............................. CYCLE    1 ..............................
........................................................................

 iter      E             dE          RMSdq      gap      omega  full diag
   1    -13.8670811 -0.138671E+02  0.630E-05   13.30       0.0  T
   2    -13.8670811 -0.202149E-11  0.354E-05   13.30     754.7  T
   3    -13.8670811 -0.333955E-12  0.647E-06   13.30    4133.3  T
     SCC iter.                  ...        0 min,  0.002 sec
     gradient                   ...        0 min,  0.003 sec
 * total energy  :   -13.6610437 Eh     change       -0.4338396E-10 Eh
   gradient norm :     0.0141474 Eh/α   predicted     0.0000000E+00 (-100.00%)
   displ. norm   :     0.1486821 α      lambda       -0.8630936E-03
   maximum displ.:     0.1028457 α      in ANC's #5, #4, #3, ...

........................................................................
.............................. CYCLE    2 ..............................
........................................................................

 iter      E             dE          RMSdq      gap      omega  full diag
   1    -13.8704191 -0.138704E+02  0.117E-01   13.57       0.0  T
   2    -13.8704207 -0.167558E-05  0.683E-02   13.58       1.0  T
   3    -13.8704209 -0.147563E-06  0.369E-03   13.58       7.2  T
   4    -13.8704209 -0.323621E-07  0.118E-03   13.58      22.6  T
   5    -13.8704209 -0.795762E-09  0.585E-04   13.58      45.7  T
   6    -13.8704209 -0.134333E-09  0.769E-05   13.58     347.3  T
     SCC iter.                  ...        0 min,  0.008 sec
     gradient                   ...        0 min,  0.002 sec
 * total energy  :   -13.6615622 Eh     change       -0.5185721E-03 Eh
   gradient norm :     0.0049104 Eh/α   predicted    -0.4410885E-03 ( -14.94%)
   displ. norm   :     0.1358271 α      lambda       -0.2605002E-03
   maximum displ.:     0.0912719 α      in ANC's #3, #4, #5, ...

........................................................................
.............................. CYCLE    3 ..............................
........................................................................

 iter      E             dE          RMSdq      gap      omega  full diag
   1    -13.8722279 -0.138722E+02  0.546E-02   13.59       0.0  T
   2    -13.8722284 -0.533910E-06  0.319E-02   13.60       1.0  T
   3    -13.8722284 -0.355602E-07  0.260E-03   13.60      10.3  T
   4    -13.8722285 -0.113673E-07  0.729E-04   13.60      36.6  T
   5    -13.8722285 -0.472959E-09  0.357E-04   13.60      74.9  T
     SCC iter.                  ...        0 min,  0.002 sec
     gradient                   ...        0 min,  0.002 sec
 * total energy  :   -13.6617864 Eh     change       -0.2241248E-03 Eh
   gradient norm :     0.0025420 Eh/α   predicted    -0.1326542E-03 ( -40.81%)
   displ. norm   :     0.5657884 α      lambda       -0.8884080E-03
   maximum displ.:     0.3933871 α      in ANC's #3, #4, #6, ...

........................................................................
.............................. CYCLE    4 ..............................
........................................................................

 iter      E             dE          RMSdq      gap      omega  full diag
   1    -13.8708111 -0.138708E+02  0.193E-01   13.60       0.0  T
   2    -13.8708222 -0.111648E-04  0.113E-01   13.60       1.0  T
   3    -13.8708228 -0.606203E-06  0.162E-02   13.60       1.7  T
   4    -13.8708233 -0.510816E-06  0.421E-03   13.60       6.4  T
   5    -13.8708233 -0.283609E-08  0.141E-03   13.60      19.0  T
   6    -13.8708233 -0.231989E-08  0.191E-04   13.60     140.3  T
   7    -13.8708233 -0.356088E-10  0.781E-05   13.60     342.0  T
     SCC iter.                  ...        0 min,  0.003 sec
     gradient                   ...        0 min,  0.002 sec
 * total energy  :   -13.6622752 Eh     change       -0.4888697E-03 Eh
   gradient norm :     0.0176859 Eh/α   predicted    -0.5863951E-03 (  19.95%)
   displ. norm   :     0.0567446 α      lambda       -0.5599670E-03
   maximum displ.:     0.0288759 α      in ANC's #5, #4, #14, ...

........................................................................
.............................. CYCLE    5 ..............................
........................................................................

 iter      E             dE          RMSdq      gap      omega  full diag
   1    -13.8733058 -0.138733E+02  0.523E-02   13.60       0.0  T
   2    -13.8733078 -0.196218E-05  0.293E-02   13.60       1.0  T
   3    -13.8733079 -0.140199E-06  0.745E-03   13.60       3.6  T
   4    -13.8733080 -0.598177E-07  0.184E-03   13.60      14.5  T
   5    -13.8733080 -0.737032E-09  0.772E-04   13.60      34.6  T
   6    -13.8733080 -0.446780E-09  0.911E-05   13.60     293.4  T
     SCC iter.                  ...        0 min,  0.003 sec
     gradient                   ...        0 min,  0.002 sec
 * total energy  :   -13.6627180 Eh     change       -0.4427956E-03 Eh
   gradient norm :     0.0111977 Eh/α   predicted    -0.2808859E-03 ( -36.57%)
   displ. norm   :     0.5318550 α      lambda       -0.1436267E-02
   maximum displ.:     0.3848551 α      in ANC's #4, #3, #6, ...

........................................................................
.............................. CYCLE    6 ..............................
........................................................................

 iter      E             dE          RMSdq      gap      omega  full diag
   1    -13.8710290 -0.138710E+02  0.161E-01   13.60       0.0  T
   2    -13.8710341 -0.514084E-05  0.962E-02   13.60       1.0  T
   3    -13.8710343 -0.249443E-06  0.734E-03   13.60       3.6  T
   4    -13.8710344 -0.945484E-07  0.213E-03   13.60      12.6  T
   5    -13.8710344 -0.291405E-08  0.105E-03   13.60      25.4  T
   6    -13.8710344 -0.636426E-09  0.175E-04   13.60     152.9  T
   7    -13.8710344 -0.405258E-10  0.680E-05   13.60     393.0  T
     SCC iter.                  ...        0 min,  0.004 sec
     gradient                   ...        0 min,  0.002 sec
 * total energy  :   -13.6637308 Eh     change       -0.1012738E-02 Eh
   gradient norm :     0.0130360 Eh/α   predicted    -0.9212855E-03 (  -9.03%)
   displ. norm   :     0.2377495 α      lambda       -0.8103846E-03
   maximum displ.:     0.1607615 α      in ANC's #4, #3, #25, ...

........................................................................
.............................. CYCLE    7 ..............................
........................................................................

 iter      E             dE          RMSdq      gap      omega  full diag
   1    -13.8719087 -0.138719E+02  0.949E-02   13.70       0.0  T
   2    -13.8719113 -0.260487E-05  0.552E-02   13.70       1.0  T
   3    -13.8719115 -0.213819E-06  0.752E-03   13.70       3.6  T
   4    -13.8719116 -0.979733E-07  0.218E-03   13.70      12.2  T
   5    -13.8719116 -0.127651E-08  0.697E-04   13.70      38.4  T
   6    -13.8719116 -0.408763E-09  0.130E-04   13.70     206.3  T
     SCC iter.                  ...        0 min,  0.003 sec
     gradient                   ...        0 min,  0.002 sec
 * total energy  :   -13.6642146 Eh     change       -0.4838184E-03 Eh
   gradient norm :     0.0089363 Eh/α   predicted    -0.4280960E-03 ( -11.52%)
   displ. norm   :     0.3038284 α      lambda       -0.3794598E-03
   maximum displ.:     0.2060512 α      in ANC's #4, #3, #24, ...

........................................................................
.............................. CYCLE    8 ..............................
........................................................................

 iter      E             dE          RMSdq      gap      omega  full diag
   1    -13.8684354 -0.138684E+02  0.972E-02   13.71       0.0  T
   2    -13.8684406 -0.516344E-05  0.568E-02   13.71       1.0  T
   3    -13.8684408 -0.207512E-06  0.105E-02   13.71       2.6  T
   4    -13.8684409 -0.688082E-07  0.209E-03   13.71      12.8  T
   5    -13.8684409 -0.121464E-08  0.100E-03   13.71      26.7  T
   6    -13.8684409 -0.373557E-09  0.115E-04   13.71     233.3  T
   7    -13.8684409 -0.279954E-10  0.486E-05   13.71     549.4  T
     SCC iter.                  ...        0 min,  0.004 sec
     gradient                   ...        0 min,  0.002 sec
 * total energy  :   -13.6643189 Eh     change       -0.1043577E-03 Eh
   gradient norm :     0.0176869 Eh/α   predicted    -0.2072445E-03 (  98.59%)
   displ. norm   :     0.0663417 α      lambda       -0.5962207E-03
   maximum displ.:     0.0259637 α      in ANC's #24, #11, #3, ...

........................................................................
.............................. CYCLE    9 ..............................
........................................................................

 iter      E             dE          RMSdq      gap      omega  full diag
   1    -13.8738789 -0.138739E+02  0.675E-02   13.79       0.0  T
   2    -13.8738849 -0.599889E-05  0.368E-02   13.79       1.0  T
   3    -13.8738852 -0.232462E-06  0.117E-02   13.79       2.3  T
   4    -13.8738852 -0.511511E-07  0.219E-03   13.79      12.2  T
   5    -13.8738852 -0.117437E-08  0.105E-03   13.79      25.5  T
   6    -13.8738852 -0.357549E-09  0.125E-04   13.79     214.5  T
   7    -13.8738852 -0.336442E-10  0.516E-05   13.79     518.0  T
     SCC iter.                  ...        0 min,  0.007 sec
     gradient                   ...        0 min,  0.002 sec
 * total energy  :   -13.6646591 Eh     change       -0.3401395E-03 Eh
   gradient norm :     0.0077934 Eh/α   predicted    -0.2994235E-03 ( -11.97%)
   displ. norm   :     0.1474786 α      lambda       -0.2092643E-03
   maximum displ.:     0.1050416 α      in ANC's #3, #4, #24, ...

........................................................................
.............................. CYCLE   10 ..............................
........................................................................

 iter      E             dE          RMSdq      gap      omega  full diag
   1    -13.8751027 -0.138751E+02  0.466E-02   13.83       0.0  T
   2    -13.8751030 -0.294651E-06  0.277E-02   13.83       1.0  T
   3    -13.8751030 -0.211233E-07  0.167E-03   13.83      16.0  T
   4    -13.8751030 -0.370033E-08  0.538E-04   13.83      49.7  T
   5    -13.8751030 -0.190449E-09  0.249E-04   13.83     107.5  T
     SCC iter.                  ...        0 min,  0.003 sec
     gradient                   ...        0 min,  0.002 sec
 * total energy  :   -13.6648116 Eh     change       -0.1524868E-03 Eh
   gradient norm :     0.0045258 Eh/α   predicted    -0.1069091E-03 ( -29.89%)
   displ. norm   :     0.2285175 α      lambda       -0.2028341E-03
   maximum displ.:     0.1704417 α      in ANC's #3, #4, #24, ...

........................................................................
.............................. CYCLE   11 ..............................
........................................................................

 iter      E             dE          RMSdq      gap      omega  full diag
   1    -13.8750547 -0.138751E+02  0.725E-02   13.82       0.0  T
   2    -13.8750553 -0.632102E-06  0.433E-02   13.82       1.0  T
   3    -13.8750554 -0.599530E-07  0.325E-03   13.82       8.2  T
   4    -13.8750554 -0.357890E-07  0.120E-03   13.82      22.3  T
   5    -13.8750554 -0.499030E-09  0.299E-04   13.82      89.4  T
   6    -13.8750554 -0.895248E-10  0.806E-05   13.82     331.4  T
     SCC iter.                  ...        0 min,  0.003 sec
     gradient                   ...        0 min,  0.002 sec
 * total energy  :   -13.6649111 Eh     change       -0.9955069E-04 Eh
   gradient norm :     0.0046593 Eh/α   predicted    -0.1067174E-03 (   7.20%)
   displ. norm   :     0.0696847 α      lambda       -0.1027420E-03
   maximum displ.:     0.0482466 α      in ANC's #1, #4, #3, ...

........................................................................
.............................. CYCLE   12 ..............................
........................................................................

 iter      E             dE          RMSdq      gap      omega  full diag
   1    -13.8766267 -0.138766E+02  0.332E-02   13.80       0.0  T
   2    -13.8766276 -0.845575E-06  0.191E-02   13.80       1.4  T
   3    -13.8766276 -0.354144E-07  0.434E-03   13.80       6.2  T
   4    -13.8766276 -0.103654E-07  0.889E-04   13.80      30.1  T
   5    -13.8766276 -0.445135E-09  0.455E-04   13.80      58.7  T
     SCC iter.                  ...        0 min,  0.002 sec
     gradient                   ...        0 min,  0.002 sec
 * total energy  :   -13.6649688 Eh     change       -0.5767787E-04 Eh
   gradient norm :     0.0041439 Eh/α   predicted    -0.5161927E-04 ( -10.50%)
   displ. norm   :     0.1033951 α      lambda       -0.5416975E-04
   maximum displ.:     0.0744619 α      in ANC's #3, #1, #24, ...

........................................................................
.............................. CYCLE   13 ..............................
........................................................................

 iter      E             dE          RMSdq      gap      omega  full diag
   1    -13.8760939 -0.138761E+02  0.303E-02   13.79       0.0  T
   2    -13.8760940 -0.652378E-07  0.181E-02   13.78       1.5  T
   3    -13.8760940 -0.867014E-08  0.709E-04   13.78      37.7  T
   4    -13.8760940 -0.358927E-09  0.322E-04   13.78      83.0  T
     SCC iter.                  ...        0 min,  0.002 sec
     gradient                   ...        0 min,  0.002 sec
 * total energy  :   -13.6650118 Eh     change       -0.4301624E-04 Eh
   gradient norm :     0.0039067 Eh/α   predicted    -0.2737275E-04 ( -36.37%)
   displ. norm   :     0.1928922 α      lambda       -0.9129824E-04
   maximum displ.:     0.1246917 α      in ANC's #3, #1, #24, ...

........................................................................
.............................. CYCLE   14 ..............................
........................................................................

 iter      E             dE          RMSdq      gap      omega  full diag
   1    -13.8751511 -0.138752E+02  0.555E-02   13.79       0.0  T
   2    -13.8751514 -0.335643E-06  0.332E-02   13.78       1.0  T
   3    -13.8751515 -0.253202E-07  0.163E-03   13.78      16.4  T
   4    -13.8751515 -0.526961E-08  0.594E-04   13.78      45.0  T
   5    -13.8751515 -0.199718E-09  0.284E-04   13.78      94.3  T
     SCC iter.                  ...        0 min,  0.002 sec
     gradient                   ...        0 min,  0.002 sec
 * total energy  :   -13.6650655 Eh     change       -0.5364608E-04 Eh
   gradient norm :     0.0031479 Eh/α   predicted    -0.4734848E-04 ( -11.74%)
   displ. norm   :     0.0704152 α      lambda       -0.3095102E-04
   maximum displ.:     0.0543210 α      in ANC's #1, #3, #4, ...

........................................................................
.............................. CYCLE   15 ..............................
........................................................................

 iter      E             dE          RMSdq      gap      omega  full diag
   1    -13.8754931 -0.138755E+02  0.228E-02   13.79       0.0  T
   2    -13.8754931 -0.491265E-07  0.135E-02   13.79       2.0  T
   3    -13.8754931 -0.535814E-08  0.997E-04   13.79      26.8  T
   4    -13.8754932 -0.373581E-08  0.394E-04   13.79      67.8  T
     SCC iter.                  ...        0 min,  0.002 sec
     gradient                   ...        0 min,  0.002 sec
 * total energy  :   -13.6650879 Eh     change       -0.2238553E-04 Eh
   gradient norm :     0.0022155 Eh/α   predicted    -0.1555178E-04 ( -30.53%)
   displ. norm   :     0.1383484 α      lambda       -0.4251370E-04
   maximum displ.:     0.1172078 α      in ANC's #1, #3, #4, ...

........................................................................
.............................. CYCLE   16 ..............................
........................................................................

 iter      E             dE          RMSdq      gap      omega  full diag
   1    -13.8757732 -0.138758E+02  0.426E-02   13.81       0.0  T
   2    -13.8757733 -0.676925E-07  0.254E-02   13.81       1.1  T
   3    -13.8757733 -0.189492E-07  0.104E-03   13.82      25.8  T
   4    -13.8757733 -0.101055E-08  0.527E-04   13.82      50.7  T
   5    -13.8757733 -0.111456E-09  0.882E-05   13.82     303.2  T
     SCC iter.                  ...        0 min,  0.003 sec
     gradient                   ...        0 min,  0.002 sec
 * total energy  :   -13.6651097 Eh     change       -0.2185813E-04 Eh
   gradient norm :     0.0020884 Eh/α   predicted    -0.2166375E-04 (  -0.89%)
   displ. norm   :     0.0474293 α      lambda       -0.1708243E-04
   maximum displ.:     0.0401166 α      in ANC's #1, #4, #11, ...

........................................................................
.............................. CYCLE   17 ..............................
........................................................................

 iter      E             dE          RMSdq      gap      omega  full diag
   1    -13.8763463 -0.138763E+02  0.166E-02   13.81       0.0  T
   2    -13.8763463 -0.642914E-07  0.976E-03   13.81       2.7  T
   3    -13.8763464 -0.442930E-08  0.839E-04   13.81      31.9  T
   4    -13.8763464 -0.703167E-09  0.274E-04   13.81      97.7  T
     SCC iter.                  ...        0 min,  0.002 sec
     gradient                   ...        0 min,  0.002 sec
 * total energy  :   -13.6651186 Eh     change       -0.8871481E-05 Eh
   gradient norm :     0.0012977 Eh/α   predicted    -0.8561482E-05 (  -3.49%)
   displ. norm   :     0.0485335 α      lambda       -0.4783200E-05
   maximum displ.:     0.0461793 α      in ANC's #1, #4, #2, ...

........................................................................
.............................. CYCLE   18 ..............................
........................................................................

 iter      E             dE          RMSdq      gap      omega  full diag
   1    -13.8761111 -0.138761E+02  0.145E-02   13.80       0.0  T
   2    -13.8761111 -0.168520E-07  0.856E-03   13.80       3.1  T
   3    -13.8761111 -0.197347E-08  0.534E-04   13.80      50.0  T
   4    -13.8761111 -0.936492E-09  0.218E-04   13.80     122.9  T
     SCC iter.                  ...        0 min,  0.007 sec
     gradient                   ...        0 min,  0.005 sec
 * total energy  :   -13.6651232 Eh     change       -0.4620321E-05 Eh
   gradient norm :     0.0007965 Eh/α   predicted    -0.2395130E-05 ( -48.16%)
   displ. norm   :     0.0600525 α      lambda       -0.4837222E-05
   maximum displ.:     0.0481574 α      in ANC's #3, #1, #24, ...

........................................................................
.............................. CYCLE   19 ..............................
........................................................................

 iter      E             dE          RMSdq      gap      omega  full diag
   1    -13.8764204 -0.138764E+02  0.176E-02   13.80       0.0  T
   2    -13.8764205 -0.267898E-07  0.105E-02   13.80       2.6  T
   3    -13.8764205 -0.331440E-08  0.584E-04   13.80      45.7  T
   4    -13.8764205 -0.102010E-08  0.251E-04   13.80     106.3  T
     SCC iter.                  ...        0 min,  0.003 sec
     gradient                   ...        0 min,  0.002 sec
 * total energy  :   -13.6651245 Eh     change       -0.1257294E-05 Eh
   gradient norm :     0.0012487 Eh/α   predicted    -0.2423084E-05 (  92.72%)
   displ. norm   :     0.0167332 α      lambda       -0.3193960E-05
   maximum displ.:     0.0107989 α      in ANC's #4, #3, #25, ...

........................................................................
.............................. CYCLE   20 ..............................
........................................................................

 iter      E             dE          RMSdq      gap      omega  full diag
   1    -13.8759317 -0.138759E+02  0.766E-03   13.80       0.0  T
   2    -13.8759317 -0.441557E-07  0.440E-03   13.80       6.1  T
   3    -13.8759317 -0.208695E-08  0.960E-04   13.80      27.8  T
   4    -13.8759317 -0.461819E-09  0.209E-04   13.80     128.0  T
     SCC iter.                  ...        0 min,  0.002 sec
     gradient                   ...        0 min,  0.002 sec
 * total energy  :   -13.6651268 Eh     change       -0.2315526E-05 Eh
   gradient norm :     0.0005584 Eh/α   predicted    -0.1595518E-05 ( -31.09%)
   displ. norm   :     0.0054527 α      lambda       -0.5990627E-06
   maximum displ.:     0.0029201 α      in ANC's #2, #3, #4, ...
 * RMSD in coord.:     0.6400919 α      energy gain  -0.4083102E-02 Eh

generating ANC from exact Hessian ...
Using Lindh-Hessian (1995)
 Shifting diagonal of input Hessian by    5.7761752213174641E-003
 Lowest  eigenvalues of input Hessian
    0.000000    0.000000    0.000000    0.000000    0.000000    0.000000
    0.010000    0.013357    0.013759    0.018290    0.022465    0.045963
    0.047986    0.057665    0.060206    0.060587    0.062401    0.071025
 Highest eigenvalues
    1.132258    1.151285    1.198066    1.198233    1.225457    1.287999


........................................................................
.............................. CYCLE   21 ..............................
........................................................................

 iter      E             dE          RMSdq      gap      omega  full diag
   1    -13.8759640 -0.138760E+02  0.306E-03   13.80       0.0  T
   2    -13.8759640 -0.341909E-08  0.177E-03   13.80      15.1  T
   3    -13.8759640 -0.189473E-09  0.254E-04   13.80     105.2  T
   4    -13.8759640 -0.748948E-10  0.608E-05   13.80     439.8  T
     SCC iter.                  ...        0 min,  0.002 sec
     gradient                   ...        0 min,  0.002 sec
 * total energy  :   -13.6651273 Eh     change       -0.4957627E-06 Eh
   gradient norm :     0.0001966 Eh/α   predicted     0.0000000E+00 (-100.00%)
   displ. norm   :     0.0043180 α      lambda       -0.2251496E-06
   maximum displ.:     0.0036378 α      in ANC's #4, #1, #3, ...

   *** GEOMETRY OPTIMIZATION CONVERGED AFTER 21 ITERATIONS ***

------------------------------------------------------------------------
 total energy gain   :        -0.0040836 Eh       -2.5625 kcal/mol
 total RMSD          :         0.6400919 a0        0.3387 Å
 total power (kW/mol):        -0.5105468 (step)  -66.5614 (real)
------------------------------------------------------------------------

 ANCopt (total)                0 d,  0 h,  0 min,  0.161 sec
 optimizer setup                ...        0 min,  0.000 sec (  0.084%)
 model hessian                  ...        0 min,  0.011 sec (  6.725%)
 ANC generation                 ...        0 min,  0.001 sec (  0.660%)
 coordinate transformation      ...        0 min,  0.000 sec (  0.121%)
 single point calculation       ...        0 min,  0.138 sec ( 85.776%)
 optimization log               ...        0 min,  0.005 sec (  2.860%)
 hessian update                 ...        0 min,  0.001 sec (  0.514%)
 rational function              ...        0 min,  0.004 sec (  2.287%)

================
 final structure:
================
14
 xtb: 6.7.1 (edcfbbe)
C           -2.50842390539576        0.36031512966152        0.00804339100176
H           -2.25298862412899       -0.69581408898154        0.05663224964917
H           -2.02287344549262        0.79107388848475       -0.86538287222117
H           -3.58507559659360        0.44771207669476       -0.12283287048729
C           -2.06398353273076        1.07988441152001        1.27543528887195
H           -0.98396976856705        0.96716474026352        1.39694642340748
H           -2.54364735337999        0.61874460456847        2.14212966419330
C           -2.41293123809029        2.56583124393652        1.23993213833301
H           -1.93516108397032        3.02652489687202        0.37195299142281
H           -3.49314629194699        2.67857857740943        1.12076685635654
C           -1.96552385366007        3.28599309621181        2.50591910030544
H           -0.88875936036891        3.19722771878012        2.63475422364877
H           -2.21926993789710        4.34248630886705        2.45672477528659
H           -2.45017756777762        2.85687709571157        3.38052069023163

 Bond Distances (Angstroems)
 ---------------------------
C1-H2=1.0877         C1-H3=1.0882         C1-H4=1.0881         C1-C5=1.5237         H2-C1=1.0877         H3-C1=1.0882         
H4-C1=1.0881         C5-C1=1.5237         C5-H6=1.0927         C5-H7=1.0927         C5-C8=1.5268         H6-C5=1.0927         
H7-C5=1.0927         C8-C5=1.5268         C8-H9=1.0927         C8-H10=1.0926        C8-C11=1.5237        H9-C8=1.0927         
H10-C8=1.0926        C11-C8=1.5237        C11-H12=1.0881       C11-H13=1.0877       C11-H14=1.0881       H12-C11=1.0881       
H13-C11=1.0877       H14-C11=1.0881       
 C  H  Rav=1.0898 sigma=0.0023  Rmin=1.0877  Rmax=1.0927    10
 C  C  Rav=1.5247 sigma=0.0015  Rmin=1.5237  Rmax=1.5268     3

 selected bond angles (degree)
 --------------------
H3-C1-H2=108.39                H4-C1-H2=108.41                H4-C1-H3=108.25                C5-C1-H2=110.67                
C5-C1-H3=110.52                C5-C1-H4=110.53                H6-C5-C1=109.40                H7-C5-C1=109.42                
H7-C5-H6=107.59                C8-C5-C1=111.94                C8-C5-H6=109.20                C8-C5-H7=109.20                
H9-C8-C5=109.20                H10-C8-C5=109.20               H10-C8-H9=107.59               C11-C8-C5=111.94               
C11-C8-H9=109.41               C11-C8-H10=109.40              

 selected dihedral angles (degree)
 ---------------------------------
H6-C5-C1-H2= 59.01            H6-C5-C1-H3=298.93            H6-C5-C1-H4=179.11            H7-C5-C1-H2=301.38            
H7-C5-C1-H3=181.30            H7-C5-C1-H4= 61.48            C8-C5-C1-H2=180.19            C8-C5-C1-H3= 60.11            
C8-C5-C1-H4=300.29            H9-C8-C5-C1=301.44            H9-C8-C5-H6= 62.74            H9-C8-C5-H7=180.13            
H10-C8-C5-C1= 58.84           H10-C8-C5-H6=180.13           H10-C8-C5-H7=297.52           C11-C8-C5-C1=180.14           
C11-C8-C5-H6=301.43           C11-C8-C5-H7= 58.82           
           -------------------------------------------------
          |                Final Singlepoint                |
           -------------------------------------------------

          ...................................................
          :                      SETUP                      :
          :.................................................:
          :  # basis functions                  26          :
          :  # atomic orbitals                  26          :
          :  # shells                           18          :
          :  # electrons                        26          :
          :  max. iterations                   250          :
          :  Hamiltonian                  GFN2-xTB          :
          :  restarted?                      false          :
          :  GBSA solvation                  false          :
          :  PC potential                    false          :
          :  electronic temp.          300.0000000     K    :
          :  accuracy                    1.0000000          :
          :  -> integral cutoff          0.2500000E+02      :
          :  -> integral neglect         0.1000000E-07      :
          :  -> SCF convergence          0.1000000E-05 Eh   :
          :  -> wf. convergence          0.1000000E-03 e    :
          :  Broyden damping             0.4000000          :
          :  net charge                          0          :
          :  unpaired electrons                  0          :
          ...................................................

 iter      E             dE          RMSdq      gap      omega  full diag
   1    -13.8759640 -0.138760E+02  0.247E-05   13.80       0.0  T
   2    -13.8759640 -0.783373E-12  0.132E-05   13.80    2019.0  T
   3    -13.8759640 -0.532907E-14  0.564E-06   13.80    4736.5  T

   *** convergence criteria satisfied after 3 iterations ***

         #    Occupation            Energy/Eh            Energy/eV
      -------------------------------------------------------------
         1        2.0000           -0.6179712             -16.8159
       ...           ...                  ...                  ...
         7        2.0000           -0.4878855             -13.2760
         8        2.0000           -0.4789719             -13.0335
         9        2.0000           -0.4546622             -12.3720
        10        2.0000           -0.4395024             -11.9595
        11        2.0000           -0.4367388             -11.8843
        12        2.0000           -0.4258097             -11.5869
        13        2.0000           -0.4195531             -11.4166 (HOMO)
        14                          0.0876863               2.3861 (LUMO)
        15                          0.1267211               3.4483
        16                          0.1276743               3.4742
        17                          0.1525103               4.1500
        18                          0.1628394               4.4311
       ...                                ...                  ...
        26                          0.3112861               8.4705
      -------------------------------------------------------------
                  HL-Gap            0.5072395 Eh           13.8027 eV
             Fermi-level           -0.1659334 Eh           -4.5153 eV

 SCC (total)                   0 d,  0 h,  0 min,  0.005 sec
 SCC setup                      ...        0 min,  0.000 sec (  2.686%)
 Dispersion                     ...        0 min,  0.000 sec (  2.373%)
 classical contributions        ...        0 min,  0.000 sec (  0.971%)
 integral evaluation            ...        0 min,  0.001 sec ( 13.584%)
 iterations                     ...        0 min,  0.002 sec ( 33.339%)
 molecular gradient             ...        0 min,  0.002 sec ( 41.008%)
 printout                       ...        0 min,  0.000 sec (  5.620%)

         :::::::::::::::::::::::::::::::::::::::::::::::::::::
         ::                     SUMMARY                     ::
         :::::::::::::::::::::::::::::::::::::::::::::::::::::
         :: total energy             -13.665127268777 Eh    ::
         :: gradient norm              0.000196659002 Eh/a0 ::
         :: HOMO-LUMO gap             13.802688111150 eV    ::
         ::.................................................::
         :: SCC energy               -13.875960096718 Eh    ::
         :: -> isotropic ES            0.002997440559 Eh    ::
         :: -> anisotropic ES          0.004911434739 Eh    ::
         :: -> anisotropic XC          0.009062628247 Eh    ::
         :: -> dispersion             -0.006049147017 Eh    ::
         :: repulsion energy           0.210832827941 Eh    ::
         :: add. restraining           0.000000000000 Eh    ::
         :: total charge              -0.000000000000 e     ::
         :::::::::::::::::::::::::::::::::::::::::::::::::::::

           -------------------------------------------------
          |                Property Printout                |
           -------------------------------------------------

    * Orbital Energies and Occupations

         #    Occupation            Energy/Eh            Energy/eV
      -------------------------------------------------------------
         1        2.0000           -0.6179712             -16.8159
         2        2.0000           -0.5989694             -16.2988
         3        2.0000           -0.5679124             -15.4537
         4        2.0000           -0.5523964             -15.0315
         5        2.0000           -0.5138381             -13.9822
         6        2.0000           -0.4918518             -13.3840
         7        2.0000           -0.4878855             -13.2760
         8        2.0000           -0.4789719             -13.0335
         9        2.0000           -0.4546622             -12.3720
        10        2.0000           -0.4395024             -11.9595
        11        2.0000           -0.4367388             -11.8843
        12        2.0000           -0.4258097             -11.5869
        13        2.0000           -0.4195531             -11.4166 (HOMO)
        14                          0.0876863               2.3861 (LUMO)
        15                          0.1267211               3.4483
        16                          0.1276743               3.4742
        17                          0.1525103               4.1500
        18                          0.1628394               4.4311
        19                          0.1836229               4.9966
        20                          0.1936199               5.2687
        21                          0.1970014               5.3607
        22                          0.2245310               6.1098
        23                          0.2548719               6.9354
        24                          0.2644374               7.1957
       ...                                ...                  ...
        26                          0.3112861               8.4705
      -------------------------------------------------------------
                  HL-Gap            0.5072395 Eh           13.8027 eV
             Fermi-level           -0.1659334 Eh           -4.5153 eV

     #   Z          covCN         q      C6AA      α(0)
     1   6 C        3.752    -0.102    22.510     6.766
     2   1 H        0.925     0.032     2.554     2.499
     3   1 H        0.925     0.033     2.551     2.497
     4   1 H        0.925     0.033     2.550     2.497
     5   6 C        3.801    -0.053    21.534     6.607
     6   1 H        0.924     0.029     2.600     2.522
     7   1 H        0.924     0.029     2.601     2.522
     8   6 C        3.801    -0.053    21.534     6.607
     9   1 H        0.924     0.029     2.600     2.522
    10   1 H        0.924     0.029     2.601     2.522
    11   6 C        3.752    -0.102    22.510     6.766
    12   1 H        0.925     0.033     2.550     2.497
    13   1 H        0.925     0.032     2.554     2.499
    14   1 H        0.925     0.033     2.550     2.497

 Mol. C6AA /au·bohr⁶  :       1207.510232
 Mol. C8AA /au·bohr⁸  :      24480.647024
 Mol. α(0) /au        :         51.819712


Wiberg/Mayer (AO) data.
largest (>0.10) Wiberg bond orders for each atom

 ---------------------------------------------------------------------------
     #   Z sym  total        # sym  WBO       # sym  WBO       # sym  WBO
 ---------------------------------------------------------------------------
     1   6 C    3.997 --     5 C    1.019     3 H    0.988     4 H    0.988
                             2 H    0.988
     2   1 H    0.999 --     1 C    0.988
     3   1 H    0.999 --     1 C    0.988
     4   1 H    0.999 --     1 C    0.988
     5   6 C    3.998 --     1 C    1.019     8 C    1.009     7 H    0.979
                             6 H    0.979
     6   1 H    0.999 --     5 C    0.979
     7   1 H    0.999 --     5 C    0.979
     8   6 C    3.998 --    11 C    1.019     5 C    1.009    10 H    0.979
                             9 H    0.979
     9   1 H    0.999 --     8 C    0.979
    10   1 H    0.999 --     8 C    0.979
    11   6 C    3.997 --     8 C    1.019    14 H    0.988    12 H    0.988
                            13 H    0.988
    12   1 H    0.999 --    11 C    0.988
    13   1 H    0.999 --    11 C    0.988
    14   1 H    0.999 --    11 C    0.988
 ---------------------------------------------------------------------------

Topologies differ in total number of bonds
Writing topology from bond orders to xtbtopo.mol

molecular dipole:
                 x           y           z       tot (Debye)
 q only:        0.000      -0.000       0.000
   full:        0.000       0.000       0.000       0.000
molecular quadrupole (traceless):
                xx          xy          yy          xz          yz          zz
 q only:       -0.130       0.005       0.052       0.096       0.115       0.078
  q+dip:        0.733      -0.040      -0.367      -0.476      -0.697      -0.366
   full:        0.320      -0.015      -0.156      -0.211      -0.300      -0.163

           -------------------------------------------------
          |                Geometry Summary                 |
           -------------------------------------------------

      molecular mass/u    :       58.1223511
   center of mass at/Å    :       -2.2376796       1.8230151       1.2573133
Note: The following floating-point exceptions are signalling: IEEE_DENORMAL
normal termination of xtb
  moments of inertia/u·Å² :        0.2163029E+02   0.1369866E+03   0.1460799E+03
rotational constants/cm⁻¹ :        0.7793529E+00   0.1230604E+00   0.1154001E+00

 * 13 selected distances

     #   Z          #   Z                                           value/Å
     1   6 C        2   1 H                                       1.0876659
     1   6 C        3   1 H                                       1.0882031
     1   6 C        4   1 H                                       1.0880928
     1   6 C        5   6 C                                       1.5236764
     5   6 C        6   1 H                                       1.0926576
     5   6 C        7   1 H                                       1.0926512
     5   6 C        8   6 C                                       1.5267820 (max)
     8   6 C        9   1 H                                       1.0926532
     8   6 C       10   1 H                                       1.0926011
     8   6 C       11   6 C                                       1.5236567
    11   6 C       12   1 H                                       1.0880716
    11   6 C       13   1 H                                       1.0876513 (min)
    11   6 C       14   1 H                                       1.0880983

 * 2 distinct bonds (by element types)

   Z      Z             #   av. dist./Å        max./Å        min./Å
   1 H    6 C          10     1.0898346     1.0926576     1.0876513
   6 C    6 C           3     1.5247051     1.5267820     1.5236567


optimized geometry written to: xtbopt.xyz


           -------------------------------------------------
          | TOTAL ENERGY              -13.665127268777 Eh   |
          | GRADIENT NORM               0.000196659002 Eh/α |
          | HOMO-LUMO GAP              13.802688111150 eV   |
           -------------------------------------------------

------------------------------------------------------------------------
 * finished run on 2026/08/11 at 11:12:00.102     
------------------------------------------------------------------------
 total:
 * wall-time:     0 d,  0 h,  0 min,  0.286 sec
 *  cpu-time:     0 d,  0 h,  0 min,  1.074 sec
 * ratio c/w:     3.758 speedup
 SCF:
 * wall-time:     0 d,  0 h,  0 min,  0.096 sec
 *  cpu-time:     0 d,  0 h,  0 min,  0.365 sec
 * ratio c/w:     3.819 speedup
 ANC optimizer:
 * wall-time:     0 d,  0 h,  0 min,  0.167 sec
 *  cpu-time:     0 d,  0 h,  0 min,  0.622 sec
 * ratio c/w:     3.719 speedup

