14
 energy: -13.665127268777 gnorm: 0.000196659002 xtb: 6.7.1 (edcfbbe)
C           -2.50842390539576        0.36031512966152        0.00804339100176
H           -2.25298862412899       -0.69581408898154        0.05663224964917
H           -2.02287344549262        0.79107388848475       -0.86538287222117
H           -3.58507559659360        0.44771207669476       -0.12283287048729
C           -2.06398353273076        1.07988441152001        1.27543528887195
H           -0.98396976856705        0.96716474026352        1.39694642340748
H           -2.54364735337999        0.61874460456847        2.14212966419330
C           -2.41293123809029        2.56583124393652        1.23993213833301
H           -1.93516108397032        3.02652489687202        0.37195299142281
H           -3.49314629194699        2.67857857740943        1.12076685635654
C           -1.96552385366007        3.28599309621181        2.50591910030544
H           -0.88875936036891        3.19722771878012        2.63475422364877
H           -2.21926993789710        4.34248630886705        2.45672477528659
H           -2.45017756777762        2.85687709571157        3.38052069023163
