%mem=1GB
%nprocshared=1
%chk=3_mm_42.chk
#p Amber=(SoftFirst,Print) geom=nocrowd nosymm

Title

0 1
C-C0--0.267532 -2.420945 0.347575 -0.000587
H-H1-+0.083821 -3.515669 0.303108 0.138379
H-H2-+0.077363 -1.903435 -0.569016 -0.311060
H-H3-+0.077360 -2.500653 0.985004 -0.888672
C-C4--0.092257 -1.744215 1.226500 1.050158
H-H5-+0.060623 -0.668577 1.323203 0.799788
H-H6-+0.060622 -1.793082 0.734010 2.041834
C-C7--0.092258 -2.628195 2.432310 1.403521
H-H8-+0.060627 -2.739494 3.088337 0.517904
H-H9-+0.060618 -3.650842 2.086552 1.652784
C-C10--0.267532 -2.053794 3.232846 2.570206
H-H11-+0.077330 -1.053714 3.619208 2.341140
H-H12-+0.083821 -2.690032 4.091871 2.812141
H-H13-+0.077394 -1.969181 2.621460 3.476134

NonBon 3 1 0 0 0.000 0.000 0.500 0.000 0.000 -1.2
!SMARTFIELD FF
!Bonds
HrmStr1 C0 C4 311.980 1.527
HrmStr1 C0 H1 374.497 1.091
HrmStr1 C0 H2 371.629 1.092
HrmStr1 C0 H3 371.658 1.092
HrmStr1 C10 H11 371.655 1.092
HrmStr1 C10 H12 374.544 1.091
HrmStr1 C10 H13 371.655 1.092
HrmStr1 C4 C7 307.493 1.529
HrmStr1 C4 H5 362.707 1.095
HrmStr1 C4 H6 362.771 1.095
HrmStr1 C7 C10 312.233 1.527
HrmStr1 C7 H8 362.771 1.095
HrmStr1 C7 H9 362.771 1.095
!Angles
HrmBnd1 C0 C4 C7 61.426 113.369
HrmBnd1 C0 C4 H5 40.599 109.504
HrmBnd1 C0 C4 H6 40.733 109.504
HrmBnd1 C4 C7 C10 61.442 113.369
HrmBnd1 C4 C7 H8 40.889 109.112
HrmBnd1 C4 C7 H9 40.889 109.112
HrmBnd1 C7 C10 H11 44.810 111.170
HrmBnd1 C7 C10 H12 43.955 111.524
HrmBnd1 C7 C10 H13 44.810 111.170
HrmBnd1 H1 C0 C4 43.834 111.524
HrmBnd1 H1 C0 H2 36.518 107.647
HrmBnd1 H1 C0 H3 36.503 107.647
HrmBnd1 H11 C10 H12 36.541 107.647
HrmBnd1 H11 C10 H13 36.773 107.491
HrmBnd1 H12 C10 H13 36.540 107.647
HrmBnd1 H2 C0 C4 44.752 111.170
HrmBnd1 H2 C0 H3 36.755 107.491
HrmBnd1 H3 C0 C4 44.803 111.170
HrmBnd1 H5 C4 C7 40.860 109.112
HrmBnd1 H5 C4 H6 28.575 105.974
HrmBnd1 H6 C4 C7 40.883 109.112
HrmBnd1 H8 C7 C10 40.735 109.504
HrmBnd1 H8 C7 H9 28.584 105.974
HrmBnd1 H9 C7 C10 40.735 109.504
!Torsions
AmbTrs C0 C4 C7 C10 0 0 0 0 0.00 0.00 2.39 0. 9.0
AmbTrs C0 C4 C7 H8 0 0 0 0 0.0 0.0 0.0 0.0 9.0
AmbTrs C0 C4 C7 H9 0 0 0 0 0.00 0.00 2.27 0. 9.0
AmbTrs C4 C7 C10 H11 0 0 0 0 0.00 0.00 2.32 0. 9.0
AmbTrs C4 C7 C10 H12 0 0 0 0 0.00 0.00 2.21 0. 9.0
AmbTrs C4 C7 C10 H13 0 0 0 0 0.00 0.00 2.32 0. 9.0
AmbTrs H1 C0 C4 C7 0 0 0 0 0.00 0.00 2.21 0. 9.0
AmbTrs H1 C0 C4 H5 0 0 0 0 0.00 0.00 3.32 0. 9.0
AmbTrs H1 C0 C4 H6 0 0 0 0 0.00 0.00 3.33 0. 9.0
AmbTrs H2 C0 C4 C7 0 0 0 0 0.00 0.00 2.32 0. 9.0
AmbTrs H2 C0 C4 H5 0 0 0 0 0.00 0.00 1.24 0. 9.0
AmbTrs H2 C0 C4 H6 0 0 0 0 0.00 0.00 2.02 0. 9.0
AmbTrs H3 C0 C4 C7 0 0 0 0 0.00 0.00 2.32 0. 9.0
AmbTrs H3 C0 C4 H5 0 0 0 0 0.00 0.00 2.02 0. 9.0
AmbTrs H3 C0 C4 H6 0 0 0 0 0.00 0.00 1.24 0. 9.0
AmbTrs H5 C4 C7 C10 0 0 0 0 0.00 0.00 2.27 0. 9.0
AmbTrs H5 C4 C7 H8 0 0 0 0 0.00 0.00 3.55 0. 9.0
AmbTrs H5 C4 C7 H9 0 0 0 0 0.00 0.00 2.28 0. 9.0
AmbTrs H6 C4 C7 C10 0 0 0 0 0.00 0.00 2.27 0. 9.0
AmbTrs H6 C4 C7 H8 0 0 0 0 0.00 0.00 2.29 0. 9.0
AmbTrs H6 C4 C7 H9 0 0 0 0 0.00 0.00 3.55 0. 9.0
AmbTrs H8 C7 C10 H11 0 0 0 0 0.00 0.00 1.24 0. 9.0
AmbTrs H8 C7 C10 H12 0 0 0 0 0.00 0.00 3.33 0. 9.0
AmbTrs H8 C7 C10 H13 0 0 0 0 0.00 0.00 2.02 0. 9.0
AmbTrs H9 C7 C10 H11 0 0 0 0 0.00 0.00 2.02 0. 9.0
AmbTrs H9 C7 C10 H12 0 0 0 0 0.00 0.00 3.33 0. 9.0
AmbTrs H9 C7 C10 H13 0 0 0 0 0.00 0.00 1.24 0. 9.0

