%mem=1GB
%nprocshared=1
%chk=test_resp.chk
p#HF/6-31G* SCF=tight Pop=MK iop(6/33=2) iop(6/42=6) opt

Title

0 1
C    -2.417086 0.426225 -0.042231
H    -2.054762 -0.605985 -0.103920
H    -1.918599 0.997186 -0.835911
H    -3.489600 0.411151 -0.272868
C    -2.145538 1.025235 1.338335
H    -1.044607 0.913703 1.283899
H    -2.464429 0.563246 2.293174
C    -2.516945 2.515706 1.359656
H    -2.487560 2.798255 0.282794
H    -3.624004 2.522591 1.390711
C   -1.910875 3.327912 2.502781
H   -0.817057 3.361478 2.438714
H   -2.271869 4.362297 2.488173
H   -2.168896 2.903966 3.480363


