%mem=1GB
%nprocshared=1
%chk=test.chk
#p Amber=(SoftOnly,Print) geom=nocrowd nosymm

Title

0 1
C-C0--0.267532 -2.417086 0.426225 -0.042231
H-H1-+0.083821 -2.054762 -0.605985 -0.103920
H-H2-+0.077363 -1.918599 0.997186 -0.835911
H-H3-+0.077360 -3.489600 0.411151 -0.272868
C-C4--0.092257 -2.145538 1.025235 1.338335
H-H5-+0.060623 -1.044607 0.913703 1.283899
H-H6-+0.060622 -2.464429 0.563246 2.293174
C-C7--0.092258 -2.516945 2.515706 1.359656
H-H8-+0.060627 -2.487560 2.798255 0.282794
H-H9-+0.060618 -3.624004 2.522591 1.390711
C-C10--0.267532 -1.910875 3.327912 2.502781
H-H11-+0.077330 -0.817057 3.361478 2.438714
H-H12-+0.083821 -2.271869 4.362297 2.488173
H-H13-+0.077394 -2.168896 2.903966 3.480363


