      -----------------------------------------------------------      
     |                   =====================                   |     
     |                           x T B                           |     
     |                   =====================                   |     
     |                         S. Grimme                         |     
     |          Mulliken Center for Theoretical Chemistry        |     
     |                    University of Bonn                     |     
      -----------------------------------------------------------      

   * xtb version 6.7.1 (edcfbbe) compiled by 'conda@5dfe00f5fb80' on 2026-06-10

   xtb is free software: you can redistribute it and/or modify it under
   the terms of the GNU Lesser General Public License as published by
   the Free Software Foundation, either version 3 of the License, or
   (at your option) any later version.
   
   xtb is distributed in the hope that it will be useful,
   but WITHOUT ANY WARRANTY; without even the implied warranty of
   MERCHANTABILITY or FITNESS FOR A PARTICULAR PURPOSE.  See the
   GNU Lesser General Public License for more details.
   
   Cite this work as:
   * C. Bannwarth, E. Caldeweyher, S. Ehlert, A. Hansen, P. Pracht,
     J. Seibert, S. Spicher, S. Grimme, WIREs Comput. Mol. Sci., 2020, 11,
     e01493. DOI: 10.1002/wcms.1493
   
   for GFN2-xTB:
   * C. Bannwarth, S. Ehlert and S. Grimme., J. Chem. Theory Comput., 2019,
     15, 1652-1671. DOI: 10.1021/acs.jctc.8b01176
   for GFN1-xTB:
   * S. Grimme, C. Bannwarth, P. Shushkov, J. Chem. Theory Comput., 2017,
     13, 1989-2009. DOI: 10.1021/acs.jctc.7b00118
   for GFN0-xTB:
   * P. Pracht, E. Caldeweyher, S. Ehlert, S. Grimme, ChemRxiv, 2019, preprint.
     DOI: 10.26434/chemrxiv.8326202.v1
   for GFN-FF:
   * S. Spicher and S. Grimme, Angew. Chem. Int. Ed., 2020, 59, 15665-15673.
     DOI: 10.1002/anie.202004239
   
   for ALPB and GBSA implicit solvation:
   * S. Ehlert, M. Stahn, S. Spicher, S. Grimme, J. Chem. Theory Comput.,
     2021, 17, 4250-4261. DOI: 10.1021/acs.jctc.1c00471
   
   for ddCOSMO and CPCM-X implicit solvation:
   * M. Stahn, S. Ehlert, S. Grimme, J. Phys. Chem. A,
     2023, XX, XXXX-XXXX. DOI: 10.1021/acs.jpca.3c04382
   
   for DFT-D4:
   * E. Caldeweyher, C. Bannwarth and S. Grimme, J. Chem. Phys., 2017,
     147, 034112. DOI: 10.1063/1.4993215
   * E. Caldeweyher, S. Ehlert, A. Hansen, H. Neugebauer, S. Spicher,
     C. Bannwarth and S. Grimme, J. Chem. Phys., 2019, 150, 154122.
     DOI: 10.1063/1.5090222
   * E. Caldeweyher, J.-M. Mewes, S. Ehlert and S. Grimme, Phys. Chem. Chem. Phys.
     2020, 22, 8499-8512. DOI: 10.1039/D0CP00502A
   
   for sTDA-xTB:
   * S. Grimme and C. Bannwarth, J. Chem. Phys., 2016, 145, 054103.
     DOI: 10.1063/1.4959605
   
   in the mass-spec context:
   * V. Asgeirsson, C. Bauer and S. Grimme, Chem. Sci., 2017, 8, 4879.
     DOI: 10.1039/c7sc00601b
   * J. Koopman and S. Grimme, ACS Omega 2019, 4, 12, 15120-15133.
     DOI: 10.1021/acsomega.9b02011
   
   for metadynamics refer to:
   * S. Grimme, J. Chem. Theory Comput., 2019, 155, 2847-2862
     DOI: 10.1021/acs.jctc.9b00143
   
   for SPH calculations refer to:
   * S. Spicher and S. Grimme, J. Chem. Theory Comput., 2021, 17, 1701-1714
     DOI: 10.1021/acs.jctc.0c01306
   
   for ONIOM refer to:
   * C. Plett, A. Katbashev, S. Ehlert, S. Grimme, M. Bursch,
     Phys. Chem. Chem. Phys., 2023, 25, 17860-17868. DOI: 10.1039/D3CP02178E
   
   for DIPRO refer to:
   * J. Kohn, N. Gildemeister, S. Grimme, D. Fazzi, A. Hansen,
     J. Chem. Phys., 2023, just accepted.
   
   for PTB refer to:
   * S. Grimme, M. Mueller, A. Hansen, J. Chem. Phys., 2023, 158, 124111.
     DOI: 10.1063/5.0137838
   
   with help from (in alphabetical order)
   P. Atkinson, C. Bannwarth, F. Bohle, G. Brandenburg, E. Caldeweyher
   M. Checinski, S. Dohm, S. Ehlert, S. Ehrlich, I. Gerasimov, C. Hölzer
   A. Katbashev, J. Kohn, J. Koopman, C. Lavigne, S. Lehtola, F. März, M. Müller,
   F. Musil, H. Neugebauer, J. Pisarek, C. Plett, P. Pracht, F. Pultar,
   J. Seibert, P. Shushkov, S. Spicher, M. Stahn, M. Steiner, T. Strunk,
   J. Stückrath, T. Rose, and J. Unsleber
   
 * started run on 2026/08/11 at 11:12:01.176     
   ID    Z sym.   atoms
    1    6 C      1, 5, 8, 11
    2    1 H      2-4, 6, 7, 9, 10, 12-14

           -------------------------------------------------
          |                Calculation Setup                |
           -------------------------------------------------

          program call               : xtb input.xyz --gfn2 --opt tight --chrg 0 --uhf 0 --iterations 250
          coordinate file            : input.xyz
          omp threads                :                     4


           -------------------------------------------------
          |                 G F N 2 - x T B                 |
           -------------------------------------------------

        Reference                      10.1021/acs.jctc.8b01176
      * Hamiltonian:
        H0-scaling (s, p, d)           1.850000    2.230000    2.230000
        zeta-weighting                 0.500000
      * Dispersion:
        s8                             2.700000
        a1                             0.520000
        a2                             5.000000
        s9                             5.000000
      * Repulsion:
        kExp                           1.500000    1.000000
        rExp                           1.000000
      * Coulomb:
        alpha                          2.000000
        third order                    shell-resolved
        anisotropic                    true
        a3                             3.000000
        a5                             4.000000
        cn-shift                       1.200000
        cn-exp                         4.000000
        max-rad                        5.000000


          ...................................................
          :                      SETUP                      :
          :.................................................:
          :  # basis functions                  26          :
          :  # atomic orbitals                  26          :
          :  # shells                           18          :
          :  # electrons                        26          :
          :  max. iterations                   250          :
          :  Hamiltonian                  GFN2-xTB          :
          :  restarted?                      false          :
          :  GBSA solvation                  false          :
          :  PC potential                    false          :
          :  electronic temp.          300.0000000     K    :
          :  accuracy                    1.0000000          :
          :  -> integral cutoff          0.2500000E+02      :
          :  -> integral neglect         0.1000000E-07      :
          :  -> SCF convergence          0.1000000E-05 Eh   :
          :  -> wf. convergence          0.1000000E-03 e    :
          :  Broyden damping             0.4000000          :
          :  net charge                          0          :
          :  unpaired electrons                  0          :
          ...................................................

 iter      E             dE          RMSdq      gap      omega  full diag
   1    -13.8288772 -0.138289E+02  0.253E+00   14.42       0.0  T
   2    -13.8689669 -0.400897E-01  0.132E+00   14.09       1.0  T
   3    -13.8693456 -0.378697E-03  0.710E-01   14.08       1.0  T
   4    -13.8694621 -0.116529E-03  0.908E-02   14.07       1.0  T
   5    -13.8694661 -0.396871E-05  0.478E-02   14.07       1.0  T
   6    -13.8694667 -0.625447E-06  0.308E-03   14.07       8.7  T
   7    -13.8694667 -0.113394E-07  0.691E-04   14.07      38.7  T
   8    -13.8694667 -0.572934E-09  0.168E-04   14.07     158.7  T

   *** convergence criteria satisfied after 8 iterations ***

         #    Occupation            Energy/Eh            Energy/eV
      -------------------------------------------------------------
         1        2.0000           -0.6170696             -16.7913
       ...           ...                  ...                  ...
         7        2.0000           -0.4832995             -13.1512
         8        2.0000           -0.4686247             -12.7519
         9        2.0000           -0.4596770             -12.5084
        10        2.0000           -0.4479046             -12.1881
        11        2.0000           -0.4274049             -11.6303
        12        2.0000           -0.4237303             -11.5303
        13        2.0000           -0.4204366             -11.4407 (HOMO)
        14                          0.0966999               2.6313 (LUMO)
        15                          0.1043679               2.8400
        16                          0.1338242               3.6415
        17                          0.1426363               3.8813
        18                          0.1449662               3.9447
       ...                                ...                  ...
        26                          0.2944249               8.0117
      -------------------------------------------------------------
                  HL-Gap            0.5171365 Eh           14.0720 eV
             Fermi-level           -0.1618684 Eh           -4.4047 eV

 SCC (total)                   0 d,  0 h,  0 min,  0.120 sec
 SCC setup                      ...        0 min,  0.006 sec (  4.834%)
 Dispersion                     ...        0 min,  0.009 sec (  7.496%)
 classical contributions        ...        0 min,  0.006 sec (  4.923%)
 integral evaluation            ...        0 min,  0.009 sec (  7.537%)
 iterations                     ...        0 min,  0.081 sec ( 67.445%)
 molecular gradient             ...        0 min,  0.009 sec (  7.587%)
 printout                       ...        0 min,  0.000 sec (  0.158%)

         :::::::::::::::::::::::::::::::::::::::::::::::::::::
         ::                     SUMMARY                     ::
         :::::::::::::::::::::::::::::::::::::::::::::::::::::
         :: total energy             -13.663412428830 Eh    ::
         :: gradient norm              0.011702086643 Eh/a0 ::
         :: HOMO-LUMO gap             14.072000995845 eV    ::
         ::.................................................::
         :: SCC energy               -13.869459435724 Eh    ::
         :: -> isotropic ES            0.002870022648 Eh    ::
         :: -> anisotropic ES          0.005154127675 Eh    ::
         :: -> anisotropic XC          0.009000064935 Eh    ::
         :: -> dispersion             -0.006323695073 Eh    ::
         :: repulsion energy           0.206047006894 Eh    ::
         :: add. restraining           0.000000000000 Eh    ::
         :: total charge              -0.000000000000 e     ::
         :::::::::::::::::::::::::::::::::::::::::::::::::::::

      ----------------------------------------------------------- 
     |                   =====================                   |
     |                        A N C O P T                        |
     |                   =====================                   |
     |               Approximate Normal Coordinate               |
     |                Rational Function Optimizer                |
      ----------------------------------------------------------- 
      ----------------------------------------------------------- 
     |                   =====================                   |
     |                        A N C O P T                        |
     |                   =====================                   |
     |               Approximate Normal Coordinate               |
     |                Rational Function Optimizer                |
      ----------------------------------------------------------- 

          ...................................................
          :                      SETUP                      :
          :.................................................:
          :   optimization level             tight          :
          :   max. optcycles                   200          :
          :   ANC micro-cycles                  20          :
          :   degrees of freedom                36          :
          :.................................................:
          :   RF solver                   davidson          :
          :   write xtbopt.log                true          :
          :   linear?                        false          :
          :   energy convergence         0.1000000E-05 Eh   :
          :   grad. convergence          0.8000000E-03 Eh/α :
          :   maxmium RF displ.          1.0000000          :
          :   Hlow (freq-cutoff)         0.1000000E-01      :
          :   Hmax (freq-cutoff)         5.0000000          :
          :   S6 in model hess.         20.0000000          :
          ...................................................

generating ANC from exact Hessian ...
Using Lindh-Hessian (1995)
 Shifting diagonal of input Hessian by    5.9742105163640624E-003
 Lowest  eigenvalues of input Hessian
    0.000000    0.000000    0.000000    0.000000    0.000000    0.000000
    0.010000    0.012780    0.013800    0.020270    0.024994    0.044549
    0.050452    0.057443    0.057856    0.060224    0.060871    0.067179
 Highest eigenvalues
    1.109349    1.132646    1.146411    1.196008    1.246157    1.272067


........................................................................
.............................. CYCLE    1 ..............................
........................................................................

 iter      E             dE          RMSdq      gap      omega  full diag
   1    -13.8694667 -0.138695E+02  0.168E-05   14.07       0.0  T
   2    -13.8694667 -0.103029E-11  0.741E-06   14.07    3606.5  T
   3    -13.8694667 -0.355271E-14  0.315E-06   14.07    8475.8  T
     SCC iter.                  ...        0 min,  0.005 sec
     gradient                   ...        0 min,  0.002 sec
 * total energy  :   -13.6634124 Eh     change       -0.7830181E-11 Eh
   gradient norm :     0.0117016 Eh/α   predicted     0.0000000E+00 (-100.00%)
   displ. norm   :     0.1398919 α      lambda       -0.8472286E-03
   maximum displ.:     0.0665091 α      in ANC's #1, #4, #2, ...

........................................................................
.............................. CYCLE    2 ..............................
........................................................................

 iter      E             dE          RMSdq      gap      omega  full diag
   1    -13.8733686 -0.138734E+02  0.123E-01   14.27       0.0  T
   2    -13.8733696 -0.996359E-06  0.712E-02   14.27       1.0  T
   3    -13.8733698 -0.197836E-06  0.297E-03   14.27       9.0  T
   4    -13.8733698 -0.303389E-08  0.122E-03   14.27      21.9  T
   5    -13.8733698 -0.256962E-09  0.263E-04   14.27     101.4  T
   6    -13.8733698 -0.172072E-09  0.805E-05   14.27     332.2  T
     SCC iter.                  ...        0 min,  0.003 sec
     gradient                   ...        0 min,  0.002 sec
 * total energy  :   -13.6639202 Eh     change       -0.5077729E-03 Eh
   gradient norm :     0.0046950 Eh/α   predicted    -0.4319054E-03 ( -14.94%)
   displ. norm   :     0.1023177 α      lambda       -0.1480847E-03
   maximum displ.:     0.0687026 α      in ANC's #1, #4, #2, ...

........................................................................
.............................. CYCLE    3 ..............................
........................................................................

 iter      E             dE          RMSdq      gap      omega  full diag
   1    -13.8748727 -0.138749E+02  0.433E-02   14.28       0.0  T
   2    -13.8748731 -0.382615E-06  0.251E-02   14.28       1.1  T
   3    -13.8748731 -0.272211E-07  0.226E-03   14.28      11.8  T
   4    -13.8748731 -0.363939E-08  0.652E-04   14.28      41.0  T
   5    -13.8748731 -0.293008E-09  0.257E-04   14.28     104.2  T
     SCC iter.                  ...        0 min,  0.002 sec
     gradient                   ...        0 min,  0.002 sec
 * total energy  :   -13.6640262 Eh     change       -0.1059821E-03 Eh
   gradient norm :     0.0015003 Eh/α   predicted    -0.7481604E-04 ( -29.41%)
   displ. norm   :     0.1803925 α      lambda       -0.9415994E-04
   maximum displ.:     0.1214281 α      in ANC's #1, #4, #2, ...

........................................................................
.............................. CYCLE    4 ..............................
........................................................................

 iter      E             dE          RMSdq      gap      omega  full diag
   1    -13.8753676 -0.138754E+02  0.518E-02   14.28       0.0  T
   2    -13.8753679 -0.308474E-06  0.309E-02   14.28       1.0  T
   3    -13.8753680 -0.471900E-07  0.205E-03   14.28      13.0  T
   4    -13.8753680 -0.492083E-08  0.897E-04   14.28      29.8  T
   5    -13.8753680 -0.661254E-09  0.222E-04   14.28     120.2  T
     SCC iter.                  ...        0 min,  0.002 sec
     gradient                   ...        0 min,  0.002 sec
 * total energy  :   -13.6641102 Eh     change       -0.8404529E-04 Eh
   gradient norm :     0.0030425 Eh/α   predicted    -0.4776310E-04 ( -43.17%)
   displ. norm   :     0.0541233 α      lambda       -0.2824925E-04
   maximum displ.:     0.0385901 α      in ANC's #1, #4, #3, ...

........................................................................
.............................. CYCLE    5 ..............................
........................................................................

 iter      E             dE          RMSdq      gap      omega  full diag
   1    -13.8751198 -0.138751E+02  0.179E-02   14.28       0.0  T
   2    -13.8751198 -0.348418E-07  0.106E-02   14.27       2.5  T
   3    -13.8751198 -0.454961E-08  0.593E-04   14.27      45.1  T
   4    -13.8751198 -0.300682E-09  0.257E-04   14.27     103.8  T
     SCC iter.                  ...        0 min,  0.002 sec
     gradient                   ...        0 min,  0.002 sec
 * total energy  :   -13.6641323 Eh     change       -0.2210215E-04 Eh
   gradient norm :     0.0017509 Eh/α   predicted    -0.1416563E-04 ( -35.91%)
   displ. norm   :     0.1008250 α      lambda       -0.2240255E-04
   maximum displ.:     0.0742853 α      in ANC's #1, #3, #4, ...

........................................................................
.............................. CYCLE    6 ..............................
........................................................................

 iter      E             dE          RMSdq      gap      omega  full diag
   1    -13.8746276 -0.138746E+02  0.299E-02   14.29       0.0  T
   2    -13.8746278 -0.152022E-06  0.177E-02   14.28       1.5  T
   3    -13.8746278 -0.116631E-07  0.126E-03   14.28      21.2  T
   4    -13.8746278 -0.257575E-08  0.465E-04   14.28      57.5  T
   5    -13.8746278 -0.144073E-09  0.192E-04   14.28     139.3  T
     SCC iter.                  ...        0 min,  0.002 sec
     gradient                   ...        0 min,  0.002 sec
 * total energy  :   -13.6641471 Eh     change       -0.1472194E-04 Eh
   gradient norm :     0.0010641 Eh/α   predicted    -0.1125282E-04 ( -23.56%)
   displ. norm   :     0.0197524 α      lambda       -0.4500283E-05
   maximum displ.:     0.0142028 α      in ANC's #4, #1, #2, ...

........................................................................
.............................. CYCLE    7 ..............................
........................................................................

 iter      E             dE          RMSdq      gap      omega  full diag
   1    -13.8748748 -0.138749E+02  0.674E-03   14.28       0.0  T
   2    -13.8748748 -0.786991E-08  0.397E-03   14.28       6.7  T
   3    -13.8748748 -0.488980E-09  0.309E-04   14.28      86.6  T
   4    -13.8748748 -0.130905E-09  0.925E-05   14.28     289.1  T
     SCC iter.                  ...        0 min,  0.002 sec
     gradient                   ...        0 min,  0.002 sec
 * total energy  :   -13.6641528 Eh     change       -0.5771477E-05 Eh
   gradient norm :     0.0007125 Eh/α   predicted    -0.2252007E-05 ( -60.98%)
   displ. norm   :     0.0705893 α      lambda       -0.1120593E-04
   maximum displ.:     0.0445792 α      in ANC's #4, #1, #2, ...

........................................................................
.............................. CYCLE    8 ..............................
........................................................................

 iter      E             dE          RMSdq      gap      omega  full diag
   1    -13.8750416 -0.138750E+02  0.206E-02   14.28       0.0  T
   2    -13.8750416 -0.208235E-07  0.123E-02   14.28       2.2  T
   3    -13.8750416 -0.377025E-08  0.466E-04   14.28      57.4  T
   4    -13.8750416 -0.613760E-09  0.221E-04   14.28     121.0  T
     SCC iter.                  ...        0 min,  0.002 sec
     gradient                   ...        0 min,  0.002 sec
 * total energy  :   -13.6641635 Eh     change       -0.1066887E-04 Eh
   gradient norm :     0.0004355 Eh/α   predicted    -0.5616710E-05 ( -47.35%)
   displ. norm   :     0.0500017 α      lambda       -0.4039944E-05
   maximum displ.:     0.0406498 α      in ANC's #1, #2, #4, ...

........................................................................
.............................. CYCLE    9 ..............................
........................................................................

 iter      E             dE          RMSdq      gap      omega  full diag
   1    -13.8749769 -0.138750E+02  0.138E-02   14.27       0.0  T
   2    -13.8749769 -0.401623E-08  0.830E-03   14.27       3.2  T
   3    -13.8749769 -0.156265E-08  0.267E-04   14.27     100.1  T
   4    -13.8749769 -0.110910E-09  0.143E-04   14.27     186.6  T
     SCC iter.                  ...        0 min,  0.002 sec
     gradient                   ...        0 min,  0.002 sec
 * total energy  :   -13.6641680 Eh     change       -0.4511795E-05 Eh
   gradient norm :     0.0002922 Eh/α   predicted    -0.2022893E-05 ( -55.16%)
   displ. norm   :     0.0268225 α      lambda       -0.1957617E-05
   maximum displ.:     0.0246472 α      in ANC's #1, #2, #3, ...

........................................................................
.............................. CYCLE   10 ..............................
........................................................................

 iter      E             dE          RMSdq      gap      omega  full diag
   1    -13.8750183 -0.138750E+02  0.722E-03   14.27       0.0  T
   2    -13.8750183 -0.335281E-08  0.432E-03   14.27       6.2  T
   3    -13.8750183 -0.477387E-09  0.240E-04   14.27     111.6  T
   4    -13.8750183 -0.228392E-09  0.108E-04   14.27     248.4  T
     SCC iter.                  ...        0 min,  0.002 sec
     gradient                   ...        0 min,  0.002 sec
 * total energy  :   -13.6641705 Eh     change       -0.2491638E-05 Eh
   gradient norm :     0.0001455 Eh/α   predicted    -0.9805453E-06 ( -60.65%)
   displ. norm   :     0.0182126 α      lambda       -0.1176389E-05
   maximum displ.:     0.0174106 α      in ANC's #1, #4, #2, ...

........................................................................
.............................. CYCLE   11 ..............................
........................................................................

 iter      E             dE          RMSdq      gap      omega  full diag
   1    -13.8749879 -0.138750E+02  0.506E-03   14.27       0.0  T
   2    -13.8749879 -0.964214E-09  0.302E-03   14.27       8.8  T
   3    -13.8749879 -0.341190E-09  0.139E-04   14.27     192.3  T
   4    -13.8749879 -0.940936E-11  0.484E-05   14.27     552.0  T
     SCC iter.                  ...        0 min,  0.002 sec
     gradient                   ...        0 min,  0.002 sec
 * total energy  :   -13.6641720 Eh     change       -0.1546372E-05 Eh
   gradient norm :     0.0001307 Eh/α   predicted    -0.5884262E-06 ( -61.95%)
   displ. norm   :     0.0147954 α      lambda       -0.8583739E-06
   maximum displ.:     0.0140949 α      in ANC's #1, #3, #4, ...

........................................................................
.............................. CYCLE   12 ..............................
........................................................................

 iter      E             dE          RMSdq      gap      omega  full diag
   1    -13.8749965 -0.138750E+02  0.397E-03   14.27       0.0  T
   2    -13.8749965 -0.600387E-09  0.238E-03   14.27      11.3  T
   3    -13.8749965 -0.168701E-09  0.120E-04   14.27     223.6  T
   4    -13.8749965 -0.333369E-10  0.590E-05   14.27     452.7  T
     SCC iter.                  ...        0 min,  0.002 sec
     gradient                   ...        0 min,  0.002 sec
 * total energy  :   -13.6641732 Eh     change       -0.1155179E-05 Eh
   gradient norm :     0.0001338 Eh/α   predicted    -0.4305335E-06 ( -62.73%)
   displ. norm   :     0.0162088 α      lambda       -0.8193322E-06
   maximum displ.:     0.0142878 α      in ANC's #1, #3, #2, ...

........................................................................
.............................. CYCLE   13 ..............................
........................................................................

 iter      E             dE          RMSdq      gap      omega  full diag
   1    -13.8750018 -0.138750E+02  0.453E-03   14.26       0.0  T
   2    -13.8750018 -0.556597E-09  0.271E-03   14.26       9.9  T
   3    -13.8750018 -0.181426E-09  0.110E-04   14.26     243.5  T
   4    -13.8750018 -0.253966E-10  0.566E-05   14.26     472.3  T
     SCC iter.                  ...        0 min,  0.002 sec
     gradient                   ...        0 min,  0.002 sec
 * total energy  :   -13.6641743 Eh     change       -0.1094613E-05 Eh
   gradient norm :     0.0000984 Eh/α   predicted    -0.4092145E-06 ( -62.62%)
   displ. norm   :     0.0190557 α      lambda       -0.7835478E-06
   maximum displ.:     0.0159180 α      in ANC's #1, #3, #2, ...

........................................................................
.............................. CYCLE   14 ..............................
........................................................................

 iter      E             dE          RMSdq      gap      omega  full diag
   1    -13.8749797 -0.138750E+02  0.527E-03   14.26       0.0  T
   2    -13.8749797 -0.758776E-09  0.316E-03   14.26       8.4  T
   3    -13.8749797 -0.212806E-09  0.115E-04   14.26     232.2  T
   4    -13.8749797 -0.358487E-10  0.599E-05   14.26     445.9  T
     SCC iter.                  ...        0 min,  0.002 sec
     gradient                   ...        0 min,  0.002 sec
 * total energy  :   -13.6641753 Eh     change       -0.1008919E-05 Eh
   gradient norm :     0.0000757 Eh/α   predicted    -0.3916645E-06 ( -61.18%)
   displ. norm   :     0.0178210 α      lambda       -0.5490351E-06
   maximum displ.:     0.0150048 α      in ANC's #1, #3, #2, ...

........................................................................
.............................. CYCLE   15 ..............................
........................................................................

 iter      E             dE          RMSdq      gap      omega  full diag
   1    -13.8749915 -0.138750E+02  0.478E-03   14.26       0.0  T
   2    -13.8749915 -0.480982E-09  0.287E-03   14.26       9.3  T
   3    -13.8749915 -0.197348E-09  0.940E-05   14.26     284.3  T
   4    -13.8749915 -0.617462E-11  0.459E-05   14.26     582.3  T
     SCC iter.                  ...        0 min,  0.002 sec
     gradient                   ...        0 min,  0.002 sec
 * total energy  :   -13.6641760 Eh     change       -0.6930844E-06 Eh
   gradient norm :     0.0000536 Eh/α   predicted    -0.2758311E-06 ( -60.20%)
   displ. norm   :     0.0123860 α      lambda       -0.2932645E-06
   maximum displ.:     0.0110305 α      in ANC's #1, #2, #3, ...

   *** GEOMETRY OPTIMIZATION CONVERGED AFTER 15 ITERATIONS ***

------------------------------------------------------------------------
 total energy gain   :        -0.0007636 Eh       -0.4791 kcal/mol
 total RMSD          :         0.1717844 a0        0.0909 Å
 total power (kW/mol):        -0.1336495 (step)  -19.6630 (real)
------------------------------------------------------------------------

 ANCopt (total)                0 d,  0 h,  0 min,  0.102 sec
 optimizer setup                ...        0 min,  0.000 sec (  0.131%)
 model hessian                  ...        0 min,  0.008 sec (  8.303%)
 ANC generation                 ...        0 min,  0.001 sec (  0.506%)
 coordinate transformation      ...        0 min,  0.000 sec (  0.123%)
 single point calculation       ...        0 min,  0.086 sec ( 84.038%)
 optimization log               ...        0 min,  0.003 sec (  2.958%)
 hessian update                 ...        0 min,  0.001 sec (  0.516%)
 rational function              ...        0 min,  0.003 sec (  2.471%)

================
 final structure:
================
14
 xtb: 6.7.1 (edcfbbe)
C           -0.46971151267286        0.94020574088101        1.20438752319708
H           -0.20355907316505       -0.11139776634112        1.12279212536182
H            0.00692539962404        1.34065211037196        2.09520529699820
H           -0.07289282624564        1.46240203545835        0.33615423969276
C           -1.98407874374134        1.09864719151433        1.27517059591512
H           -2.35876011301812        0.60273820770821        2.17370405783646
H           -2.43142578935010        0.59939485959883        0.41205261750707
C           -2.43672451075310        2.55918288239313        1.28148191225992
H           -2.02276369779026        3.06721380999965        0.40728067700095
H           -3.52573325209679        2.58639565081404        1.19384424473038
C           -2.02618471247312        3.30893708528565        2.54353286604882
H           -2.39425140326638        2.79384627856914        3.42850314779995
H           -0.94477963832382        3.38900250786025        2.61597490086895
H           -2.43947674672745        4.31515584588657        2.53620597478250

 Bond Distances (Angstroems)
 ---------------------------
C1-H2=1.0878         C1-H3=1.0868         C1-H4=1.0881         C1-C5=1.5243         H2-C1=1.0878         H3-C1=1.0868         
H4-C1=1.0881         C5-C1=1.5243         C5-H6=1.0926         C5-H7=1.0929         C5-C8=1.5291         H6-C5=1.0926         
H7-C5=1.0929         C8-C5=1.5291         C8-H9=1.0926         C8-H10=1.0929        C8-C11=1.5243        H9-C8=1.0926         
H10-C8=1.0929        C11-C8=1.5243        C11-H12=1.0881       C11-H13=1.0868       C11-H14=1.0878       H12-C11=1.0881       
H13-C11=1.0868       H14-C11=1.0878       
 C  H  Rav=1.0896 sigma=0.0026  Rmin=1.0868  Rmax=1.0929    10
 C  C  Rav=1.5259 sigma=0.0023  Rmin=1.5243  Rmax=1.5291     3

 selected bond angles (degree)
 --------------------
H3-C1-H2=108.08                H4-C1-H2=108.35                H4-C1-H3=108.50                C5-C1-H2=110.31                
C5-C1-H3=111.06                C5-C1-H4=110.46                H6-C5-C1=109.37                H7-C5-C1=108.82                
H7-C5-H6=107.57                C8-C5-C1=113.18                C8-C5-H6=109.19                C8-C5-H7=108.57                
H9-C8-C5=109.19                H10-C8-C5=108.57               H10-C8-H9=107.57               C11-C8-C5=113.17               
C11-C8-H9=109.37               C11-C8-H10=108.82              

 selected dihedral angles (degree)
 ---------------------------------
H6-C5-C1-H2= 62.52            H6-C5-C1-H3=302.71            H6-C5-C1-H4=182.27            H7-C5-C1-H2=305.27            
H7-C5-C1-H3=185.46            H7-C5-C1-H4= 65.03            C8-C5-C1-H2=184.49            C8-C5-C1-H3= 64.68            
C8-C5-C1-H4=304.25            H9-C8-C5-C1= 55.27            H9-C8-C5-H6=177.35            H9-C8-C5-H7=294.35            
H10-C8-C5-C1=172.27           H10-C8-C5-H6=294.35           H10-C8-C5-H7= 51.35           C11-C8-C5-C1=293.20           
C11-C8-C5-H6= 55.27           C11-C8-C5-H7=172.27           
           -------------------------------------------------
          |                Final Singlepoint                |
           -------------------------------------------------

          ...................................................
          :                      SETUP                      :
          :.................................................:
          :  # basis functions                  26          :
          :  # atomic orbitals                  26          :
          :  # shells                           18          :
          :  # electrons                        26          :
          :  max. iterations                   250          :
          :  Hamiltonian                  GFN2-xTB          :
          :  restarted?                      false          :
          :  GBSA solvation                  false          :
          :  PC potential                    false          :
          :  electronic temp.          300.0000000     K    :
          :  accuracy                    1.0000000          :
          :  -> integral cutoff          0.2500000E+02      :
          :  -> integral neglect         0.1000000E-07      :
          :  -> SCF convergence          0.1000000E-05 Eh   :
          :  -> wf. convergence          0.1000000E-03 e    :
          :  Broyden damping             0.4000000          :
          :  net charge                          0          :
          :  unpaired electrons                  0          :
          ...................................................

 iter      E             dE          RMSdq      gap      omega  full diag
   1    -13.8749915 -0.138750E+02  0.833E-06   14.26       0.0  T
   2    -13.8749915 -0.746070E-13  0.461E-06   14.26    5801.6  T
   3    -13.8749915 -0.888178E-14  0.179E-06   14.26   14929.7  T

   *** convergence criteria satisfied after 3 iterations ***

         #    Occupation            Energy/Eh            Energy/eV
      -------------------------------------------------------------
         1        2.0000           -0.6178086             -16.8114
       ...           ...                  ...                  ...
         7        2.0000           -0.4848891             -13.1945
         8        2.0000           -0.4664228             -12.6920
         9        2.0000           -0.4618709             -12.5681
        10        2.0000           -0.4480684             -12.1926
        11        2.0000           -0.4258036             -11.5867
        12        2.0000           -0.4233887             -11.5210
        13        2.0000           -0.4222743             -11.4907 (HOMO)
        14                          0.1017451               2.7686 (LUMO)
        15                          0.1112411               3.0270
        16                          0.1370309               3.7288
        17                          0.1488615               4.0507
        18                          0.1501496               4.0858
       ...                                ...                  ...
        26                          0.2991799               8.1411
      -------------------------------------------------------------
                  HL-Gap            0.5240194 Eh           14.2593 eV
             Fermi-level           -0.1602646 Eh           -4.3610 eV

 SCC (total)                   0 d,  0 h,  0 min,  0.005 sec
 SCC setup                      ...        0 min,  0.000 sec (  2.257%)
 Dispersion                     ...        0 min,  0.001 sec ( 13.236%)
 classical contributions        ...        0 min,  0.000 sec (  0.845%)
 integral evaluation            ...        0 min,  0.001 sec ( 12.762%)
 iterations                     ...        0 min,  0.002 sec ( 28.670%)
 molecular gradient             ...        0 min,  0.002 sec ( 36.487%)
 printout                       ...        0 min,  0.000 sec (  5.356%)

         :::::::::::::::::::::::::::::::::::::::::::::::::::::
         ::                     SUMMARY                     ::
         :::::::::::::::::::::::::::::::::::::::::::::::::::::
         :: total energy             -13.664175995103 Eh    ::
         :: gradient norm              0.000053694943 Eh/a0 ::
         :: HOMO-LUMO gap             14.259294806183 eV    ::
         ::.................................................::
         :: SCC energy               -13.874984365120 Eh    ::
         :: -> isotropic ES            0.002972201368 Eh    ::
         :: -> anisotropic ES          0.004965865735 Eh    ::
         :: -> anisotropic XC          0.008995030745 Eh    ::
         :: -> dispersion             -0.006305003460 Eh    ::
         :: repulsion energy           0.210808370017 Eh    ::
         :: add. restraining           0.000000000000 Eh    ::
         :: total charge               0.000000000000 e     ::
         :::::::::::::::::::::::::::::::::::::::::::::::::::::

           -------------------------------------------------
          |                Property Printout                |
           -------------------------------------------------

    * Orbital Energies and Occupations

         #    Occupation            Energy/Eh            Energy/eV
      -------------------------------------------------------------
         1        2.0000           -0.6178086             -16.8114
         2        2.0000           -0.5960303             -16.2188
         3        2.0000           -0.5731746             -15.5969
         4        2.0000           -0.5474447             -14.8967
         5        2.0000           -0.5064259             -13.7805
         6        2.0000           -0.5060125             -13.7693
         7        2.0000           -0.4848891             -13.1945
         8        2.0000           -0.4664228             -12.6920
         9        2.0000           -0.4618709             -12.5681
        10        2.0000           -0.4480684             -12.1926
        11        2.0000           -0.4258036             -11.5867
        12        2.0000           -0.4233887             -11.5210
        13        2.0000           -0.4222743             -11.4907 (HOMO)
        14                          0.1017451               2.7686 (LUMO)
        15                          0.1112411               3.0270
        16                          0.1370309               3.7288
        17                          0.1488615               4.0507
        18                          0.1501496               4.0858
        19                          0.1577852               4.2936
        20                          0.2029392               5.5223
        21                          0.2064317               5.6173
        22                          0.2346468               6.3851
        23                          0.2484997               6.7620
        24                          0.2786449               7.5823
       ...                                ...                  ...
        26                          0.2991799               8.1411
      -------------------------------------------------------------
                  HL-Gap            0.5240194 Eh           14.2593 eV
             Fermi-level           -0.1602646 Eh           -4.3610 eV

     #   Z          covCN         q      C6AA      α(0)
     1   6 C        3.751    -0.101    22.493     6.763
     2   1 H        0.925     0.030     2.586     2.515
     3   1 H        0.925     0.035     2.510     2.478
     4   1 H        0.925     0.033     2.550     2.497
     5   6 C        3.800    -0.053    21.518     6.605
     6   1 H        0.924     0.030     2.593     2.518
     7   1 H        0.924     0.026     2.644     2.543
     8   6 C        3.800    -0.053    21.518     6.605
     9   1 H        0.924     0.030     2.593     2.518
    10   1 H        0.924     0.026     2.644     2.543
    11   6 C        3.751    -0.101    22.493     6.763
    12   1 H        0.925     0.033     2.550     2.497
    13   1 H        0.925     0.035     2.511     2.478
    14   1 H        0.925     0.030     2.585     2.515

 Mol. C6AA /au·bohr⁶  :       1208.199555
 Mol. C8AA /au·bohr⁸  :      24487.244293
 Mol. α(0) /au        :         51.836905


Wiberg/Mayer (AO) data.
largest (>0.10) Wiberg bond orders for each atom

 ---------------------------------------------------------------------------
     #   Z sym  total        # sym  WBO       # sym  WBO       # sym  WBO
 ---------------------------------------------------------------------------
     1   6 C    3.997 --     5 C    1.020     4 H    0.988     2 H    0.988
                             3 H    0.986
     2   1 H    0.999 --     1 C    0.988
     3   1 H    0.999 --     1 C    0.986
     4   1 H    0.999 --     1 C    0.988
     5   6 C    3.998 --     1 C    1.020     8 C    1.008     7 H    0.979
                             6 H    0.978
     6   1 H    0.999 --     5 C    0.978
     7   1 H    0.999 --     5 C    0.979
     8   6 C    3.998 --    11 C    1.020     5 C    1.008    10 H    0.979
                             9 H    0.978
     9   1 H    0.999 --     8 C    0.978
    10   1 H    0.999 --     8 C    0.979
    11   6 C    3.997 --     8 C    1.020    12 H    0.988    14 H    0.988
                            13 H    0.986
    12   1 H    0.999 --    11 C    0.988
    13   1 H    0.999 --    11 C    0.986
    14   1 H    0.999 --    11 C    0.988
 ---------------------------------------------------------------------------

Topologies differ in total number of bonds
Writing topology from bond orders to xtbtopo.mol

molecular dipole:
                 x           y           z       tot (Debye)
 q only:        0.013       0.004       0.008
   full:        0.010       0.003       0.006       0.032
molecular quadrupole (traceless):
                xx          xy          yy          xz          yz          zz
 q only:       -0.074       0.073       0.019       0.083       0.096       0.054
  q+dip:       -0.229       0.308      -0.144      -0.143      -0.363       0.373
   full:       -0.150       0.169      -0.049      -0.046      -0.137       0.200

           -------------------------------------------------
          |                Geometry Summary                 |
           -------------------------------------------------

      molecular mass/u    :       58.1223511
   center of mass at/Å    :       -1.7134802       1.9815639       1.5858597
Note: The following floating-point exceptions are signalling: IEEE_UNDERFLOW_FLAG IEEE_DENORMAL
normal termination of xtb
  moments of inertia/u·Å² :        0.3773715E+02   0.1051838E+03   0.1227575E+03
rotational constants/cm⁻¹ :        0.4467119E+00   0.1602684E+00   0.1373246E+00

 * 13 selected distances

     #   Z          #   Z                                           value/Å
     1   6 C        2   1 H                                       1.0878259
     1   6 C        3   1 H                                       1.0867827
     1   6 C        4   1 H                                       1.0881100
     1   6 C        5   6 C                                       1.5242777
     5   6 C        6   1 H                                       1.0925541
     5   6 C        7   1 H                                       1.0928610
     5   6 C        8   6 C                                       1.5290824 (max)
     8   6 C        9   1 H                                       1.0925598
     8   6 C       10   1 H                                       1.0928683
     8   6 C       11   6 C                                       1.5242858
    11   6 C       12   1 H                                       1.0881012
    11   6 C       13   1 H                                       1.0867822 (min)
    11   6 C       14   1 H                                       1.0878145

 * 2 distinct bonds (by element types)

   Z      Z             #   av. dist./Å        max./Å        min./Å
   1 H    6 C          10     1.0896260     1.0928683     1.0867822
   6 C    6 C           3     1.5258820     1.5290824     1.5242777


optimized geometry written to: xtbopt.xyz


           -------------------------------------------------
          | TOTAL ENERGY              -13.664175995103 Eh   |
          | GRADIENT NORM               0.000053694943 Eh/α |
          | HOMO-LUMO GAP              14.259294806183 eV   |
           -------------------------------------------------

------------------------------------------------------------------------
 * finished run on 2026/08/11 at 11:12:01.443     
------------------------------------------------------------------------
 total:
 * wall-time:     0 d,  0 h,  0 min,  0.267 sec
 *  cpu-time:     0 d,  0 h,  0 min,  1.030 sec
 * ratio c/w:     3.860 speedup
 SCF:
 * wall-time:     0 d,  0 h,  0 min,  0.120 sec
 *  cpu-time:     0 d,  0 h,  0 min,  0.458 sec
 * ratio c/w:     3.807 speedup
 ANC optimizer:
 * wall-time:     0 d,  0 h,  0 min,  0.109 sec
 *  cpu-time:     0 d,  0 h,  0 min,  0.424 sec
 * ratio c/w:     3.904 speedup

