14
 energy: -13.664175995103 gnorm: 0.000053694943 xtb: 6.7.1 (edcfbbe)
C           -0.46971151267286        0.94020574088101        1.20438752319708
H           -0.20355907316505       -0.11139776634112        1.12279212536182
H            0.00692539962404        1.34065211037196        2.09520529699820
H           -0.07289282624564        1.46240203545835        0.33615423969276
C           -1.98407874374134        1.09864719151433        1.27517059591512
H           -2.35876011301812        0.60273820770821        2.17370405783646
H           -2.43142578935010        0.59939485959883        0.41205261750707
C           -2.43672451075310        2.55918288239313        1.28148191225992
H           -2.02276369779026        3.06721380999965        0.40728067700095
H           -3.52573325209679        2.58639565081404        1.19384424473038
C           -2.02618471247312        3.30893708528565        2.54353286604882
H           -2.39425140326638        2.79384627856914        3.42850314779995
H           -0.94477963832382        3.38900250786025        2.61597490086895
H           -2.43947674672745        4.31515584588657        2.53620597478250
