14
 energy: -13.665127753260 gnorm: 0.000042588944 xtb: 6.7.1 (edcfbbe)
C           -2.49257402292110        0.36457781995449       -0.00023537933020
H           -2.13424834772256       -0.66231055580615       -0.00730359070811
H           -2.14006045702954        0.85732819538268       -0.90398908292577
H           -3.58027235640163        0.34870935719715       -0.02259676224789
C           -1.99448591333117        1.09978055679253        1.23790836663124
H           -0.90205774244005        1.08780177690894        1.25215888558285
H           -2.34208198383214        0.57924939928249        2.13343623539899
C           -2.48148914864473        2.54635766748850        1.27690149398884
H           -2.13389279988600        3.06688891655215        0.38137378667748
H           -3.57391731578146        2.55833645658226        1.26265064320268
C           -1.98340142601367        3.28156026278162        2.51504548035274
H           -0.89570309819756        3.29742850498781        2.53740733644899
H           -2.34172689842277        4.30844871080287        2.52211357247897
H           -2.33591548937562        2.78880993109266        3.41879901444917
