      -----------------------------------------------------------      
     |                   =====================                   |     
     |                           x T B                           |     
     |                   =====================                   |     
     |                         S. Grimme                         |     
     |          Mulliken Center for Theoretical Chemistry        |     
     |                    University of Bonn                     |     
      -----------------------------------------------------------      

   * xtb version 6.7.1 (edcfbbe) compiled by 'conda@5dfe00f5fb80' on 2026-06-10

   xtb is free software: you can redistribute it and/or modify it under
   the terms of the GNU Lesser General Public License as published by
   the Free Software Foundation, either version 3 of the License, or
   (at your option) any later version.
   
   xtb is distributed in the hope that it will be useful,
   but WITHOUT ANY WARRANTY; without even the implied warranty of
   MERCHANTABILITY or FITNESS FOR A PARTICULAR PURPOSE.  See the
   GNU Lesser General Public License for more details.
   
   Cite this work as:
   * C. Bannwarth, E. Caldeweyher, S. Ehlert, A. Hansen, P. Pracht,
     J. Seibert, S. Spicher, S. Grimme, WIREs Comput. Mol. Sci., 2020, 11,
     e01493. DOI: 10.1002/wcms.1493
   
   for GFN2-xTB:
   * C. Bannwarth, S. Ehlert and S. Grimme., J. Chem. Theory Comput., 2019,
     15, 1652-1671. DOI: 10.1021/acs.jctc.8b01176
   for GFN1-xTB:
   * S. Grimme, C. Bannwarth, P. Shushkov, J. Chem. Theory Comput., 2017,
     13, 1989-2009. DOI: 10.1021/acs.jctc.7b00118
   for GFN0-xTB:
   * P. Pracht, E. Caldeweyher, S. Ehlert, S. Grimme, ChemRxiv, 2019, preprint.
     DOI: 10.26434/chemrxiv.8326202.v1
   for GFN-FF:
   * S. Spicher and S. Grimme, Angew. Chem. Int. Ed., 2020, 59, 15665-15673.
     DOI: 10.1002/anie.202004239
   
   for ALPB and GBSA implicit solvation:
   * S. Ehlert, M. Stahn, S. Spicher, S. Grimme, J. Chem. Theory Comput.,
     2021, 17, 4250-4261. DOI: 10.1021/acs.jctc.1c00471
   
   for ddCOSMO and CPCM-X implicit solvation:
   * M. Stahn, S. Ehlert, S. Grimme, J. Phys. Chem. A,
     2023, XX, XXXX-XXXX. DOI: 10.1021/acs.jpca.3c04382
   
   for DFT-D4:
   * E. Caldeweyher, C. Bannwarth and S. Grimme, J. Chem. Phys., 2017,
     147, 034112. DOI: 10.1063/1.4993215
   * E. Caldeweyher, S. Ehlert, A. Hansen, H. Neugebauer, S. Spicher,
     C. Bannwarth and S. Grimme, J. Chem. Phys., 2019, 150, 154122.
     DOI: 10.1063/1.5090222
   * E. Caldeweyher, J.-M. Mewes, S. Ehlert and S. Grimme, Phys. Chem. Chem. Phys.
     2020, 22, 8499-8512. DOI: 10.1039/D0CP00502A
   
   for sTDA-xTB:
   * S. Grimme and C. Bannwarth, J. Chem. Phys., 2016, 145, 054103.
     DOI: 10.1063/1.4959605
   
   in the mass-spec context:
   * V. Asgeirsson, C. Bauer and S. Grimme, Chem. Sci., 2017, 8, 4879.
     DOI: 10.1039/c7sc00601b
   * J. Koopman and S. Grimme, ACS Omega 2019, 4, 12, 15120-15133.
     DOI: 10.1021/acsomega.9b02011
   
   for metadynamics refer to:
   * S. Grimme, J. Chem. Theory Comput., 2019, 155, 2847-2862
     DOI: 10.1021/acs.jctc.9b00143
   
   for SPH calculations refer to:
   * S. Spicher and S. Grimme, J. Chem. Theory Comput., 2021, 17, 1701-1714
     DOI: 10.1021/acs.jctc.0c01306
   
   for ONIOM refer to:
   * C. Plett, A. Katbashev, S. Ehlert, S. Grimme, M. Bursch,
     Phys. Chem. Chem. Phys., 2023, 25, 17860-17868. DOI: 10.1039/D3CP02178E
   
   for DIPRO refer to:
   * J. Kohn, N. Gildemeister, S. Grimme, D. Fazzi, A. Hansen,
     J. Chem. Phys., 2023, just accepted.
   
   for PTB refer to:
   * S. Grimme, M. Mueller, A. Hansen, J. Chem. Phys., 2023, 158, 124111.
     DOI: 10.1063/5.0137838
   
   with help from (in alphabetical order)
   P. Atkinson, C. Bannwarth, F. Bohle, G. Brandenburg, E. Caldeweyher
   M. Checinski, S. Dohm, S. Ehlert, S. Ehrlich, I. Gerasimov, C. Hölzer
   A. Katbashev, J. Kohn, J. Koopman, C. Lavigne, S. Lehtola, F. März, M. Müller,
   F. Musil, H. Neugebauer, J. Pisarek, C. Plett, P. Pracht, F. Pultar,
   J. Seibert, P. Shushkov, S. Spicher, M. Stahn, M. Steiner, T. Strunk,
   J. Stückrath, T. Rose, and J. Unsleber
   
 * started run on 2026/08/17 at 12:14:24.195     
   ID    Z sym.   atoms
    1    6 C      1, 5, 8, 11
    2    1 H      2-4, 6, 7, 9, 10, 12-14

           -------------------------------------------------
          |                Calculation Setup                |
           -------------------------------------------------

          program call               : xtb input.xyz --gfn2 --opt tight --chrg 0 --uhf 0 --iterations 250
          coordinate file            : input.xyz
          omp threads                :                     4


           -------------------------------------------------
          |                 G F N 2 - x T B                 |
           -------------------------------------------------

        Reference                      10.1021/acs.jctc.8b01176
      * Hamiltonian:
        H0-scaling (s, p, d)           1.850000    2.230000    2.230000
        zeta-weighting                 0.500000
      * Dispersion:
        s8                             2.700000
        a1                             0.520000
        a2                             5.000000
        s9                             5.000000
      * Repulsion:
        kExp                           1.500000    1.000000
        rExp                           1.000000
      * Coulomb:
        alpha                          2.000000
        third order                    shell-resolved
        anisotropic                    true
        a3                             3.000000
        a5                             4.000000
        cn-shift                       1.200000
        cn-exp                         4.000000
        max-rad                        5.000000

q/qsh data taken from xtbrestart
CAMM data taken from xtbrestart

          ...................................................
          :                      SETUP                      :
          :.................................................:
          :  # basis functions                  26          :
          :  # atomic orbitals                  26          :
          :  # shells                           18          :
          :  # electrons                        26          :
          :  max. iterations                   250          :
          :  Hamiltonian                  GFN2-xTB          :
          :  restarted?                       true          :
          :  GBSA solvation                  false          :
          :  PC potential                    false          :
          :  electronic temp.          300.0000000     K    :
          :  accuracy                    1.0000000          :
          :  -> integral cutoff          0.2500000E+02      :
          :  -> integral neglect         0.1000000E-07      :
          :  -> SCF convergence          0.1000000E-05 Eh   :
          :  -> wf. convergence          0.1000000E-03 e    :
          :  Broyden damping             0.4000000          :
          :  net charge                          0          :
          :  unpaired electrons                  0          :
          ...................................................

 iter      E             dE          RMSdq      gap      omega  full diag
   1    -13.8670522 -0.138671E+02  0.665E-01   13.31       0.0  T
   2    -13.8670741 -0.219173E-04  0.400E-01   13.30       1.0  T
   3    -13.8670803 -0.625433E-05  0.201E-02   13.30       1.3  T
   4    -13.8670811 -0.742828E-06  0.108E-02   13.30       2.5  T
   5    -13.8670811 -0.451598E-08  0.274E-03   13.30       9.8  T
   6    -13.8670811 -0.105296E-07  0.356E-04   13.30      75.0  T
   7    -13.8670811 -0.169925E-09  0.159E-04   13.30     168.4  T

   *** convergence criteria satisfied after 7 iterations ***

         #    Occupation            Energy/Eh            Energy/eV
      -------------------------------------------------------------
         1        2.0000           -0.6167898             -16.7837
       ...           ...                  ...                  ...
         7        2.0000           -0.4886928             -13.2980
         8        2.0000           -0.4796915             -13.0531
         9        2.0000           -0.4530851             -12.3291
        10        2.0000           -0.4403251             -11.9819
        11        2.0000           -0.4383717             -11.9287
        12        2.0000           -0.4265329             -11.6066
        13        2.0000           -0.4152203             -11.2987 (HOMO)
        14                          0.0735904               2.0025 (LUMO)
        15                          0.1173360               3.1929
        16                          0.1207183               3.2849
        17                          0.1520463               4.1374
        18                          0.1625851               4.4242
       ...                                ...                  ...
        26                          0.3190793               8.6826
      -------------------------------------------------------------
                  HL-Gap            0.4888107 Eh           13.3012 eV
             Fermi-level           -0.1708149 Eh           -4.6481 eV

 SCC (total)                   0 d,  0 h,  0 min,  0.087 sec
 SCC setup                      ...        0 min,  0.002 sec (  2.511%)
 Dispersion                     ...        0 min,  0.005 sec (  5.682%)
 classical contributions        ...        0 min,  0.000 sec (  0.567%)
 integral evaluation            ...        0 min,  0.006 sec (  6.954%)
 iterations                     ...        0 min,  0.050 sec ( 57.500%)
 molecular gradient             ...        0 min,  0.023 sec ( 26.507%)
 printout                       ...        0 min,  0.000 sec (  0.251%)

         :::::::::::::::::::::::::::::::::::::::::::::::::::::
         ::                     SUMMARY                     ::
         :::::::::::::::::::::::::::::::::::::::::::::::::::::
         :: total energy             -13.661043671283 Eh    ::
         :: gradient norm              0.014147390355 Eh/a0 ::
         :: HOMO-LUMO gap             13.301216814490 eV    ::
         ::.................................................::
         :: SCC energy               -13.867077231557 Eh    ::
         :: -> isotropic ES            0.002934876656 Eh    ::
         :: -> anisotropic ES          0.005116489184 Eh    ::
         :: -> anisotropic XC          0.009092782989 Eh    ::
         :: -> dispersion             -0.006015311341 Eh    ::
         :: repulsion energy           0.206033560274 Eh    ::
         :: add. restraining           0.000000000000 Eh    ::
         :: total charge              -0.000000000000 e     ::
         :::::::::::::::::::::::::::::::::::::::::::::::::::::

      ----------------------------------------------------------- 
     |                   =====================                   |
     |                        A N C O P T                        |
     |                   =====================                   |
     |               Approximate Normal Coordinate               |
     |                Rational Function Optimizer                |
      ----------------------------------------------------------- 
      ----------------------------------------------------------- 
     |                   =====================                   |
     |                        A N C O P T                        |
     |                   =====================                   |
     |               Approximate Normal Coordinate               |
     |                Rational Function Optimizer                |
      ----------------------------------------------------------- 

          ...................................................
          :                      SETUP                      :
          :.................................................:
          :   optimization level             tight          :
          :   max. optcycles                   200          :
          :   ANC micro-cycles                  20          :
          :   degrees of freedom                36          :
          :.................................................:
          :   RF solver                   davidson          :
          :   write xtbopt.log                true          :
          :   linear?                        false          :
          :   energy convergence         0.1000000E-05 Eh   :
          :   grad. convergence          0.8000000E-03 Eh/α :
          :   maxmium RF displ.          1.0000000          :
          :   Hlow (freq-cutoff)         0.1000000E-01      :
          :   Hmax (freq-cutoff)         5.0000000          :
          :   S6 in model hess.         20.0000000          :
          ...................................................

generating ANC from exact Hessian ...
Using Lindh-Hessian (1995)
 Shifting diagonal of input Hessian by    5.8918751269310607E-003
 Lowest  eigenvalues of input Hessian
    0.000000    0.000000    0.000000    0.000000    0.000000    0.000000
    0.010000    0.013100    0.013541    0.017922    0.022017    0.044655
    0.046856    0.056985    0.059172    0.059987    0.061338    0.069954
 Highest eigenvalues
    1.109336    1.128065    1.173384    1.192368    1.212125    1.289377


........................................................................
.............................. CYCLE    1 ..............................
........................................................................

 iter      E             dE          RMSdq      gap      omega  full diag
   1    -13.8670811 -0.138671E+02  0.243E-05   13.30       0.0  T
   2    -13.8670811 -0.587974E-12  0.136E-05   13.30    1968.4  T
   3    -13.8670811 -0.337508E-13  0.375E-06   13.30    7127.1  T
     SCC iter.                  ...        0 min,  0.002 sec
     gradient                   ...        0 min,  0.003 sec
 * total energy  :   -13.6610437 Eh     change       -0.2317790E-10 Eh
   gradient norm :     0.0141474 Eh/α   predicted     0.0000000E+00 (-100.00%)
   displ. norm   :     0.1486819 α      lambda       -0.8630966E-03
   maximum displ.:     0.1028455 α      in ANC's #5, #4, #3, ...

........................................................................
.............................. CYCLE    2 ..............................
........................................................................

 iter      E             dE          RMSdq      gap      omega  full diag
   1    -13.8704191 -0.138704E+02  0.117E-01   13.57       0.0  T
   2    -13.8704207 -0.167560E-05  0.683E-02   13.58       1.0  T
   3    -13.8704209 -0.147566E-06  0.369E-03   13.58       7.2  T
   4    -13.8704209 -0.323637E-07  0.118E-03   13.58      22.6  T
   5    -13.8704209 -0.795863E-09  0.585E-04   13.58      45.7  T
   6    -13.8704209 -0.134337E-09  0.770E-05   13.58     347.3  T
     SCC iter.                  ...        0 min,  0.003 sec
     gradient                   ...        0 min,  0.003 sec
 * total energy  :   -13.6615622 Eh     change       -0.5185719E-03 Eh
   gradient norm :     0.0049104 Eh/α   predicted    -0.4410881E-03 ( -14.94%)
   displ. norm   :     0.1358276 α      lambda       -0.2605070E-03
   maximum displ.:     0.0912725 α      in ANC's #3, #4, #5, ...

........................................................................
.............................. CYCLE    3 ..............................
........................................................................

 iter      E             dE          RMSdq      gap      omega  full diag
   1    -13.8722279 -0.138722E+02  0.546E-02   13.59       0.0  T
   2    -13.8722284 -0.533916E-06  0.319E-02   13.60       1.0  T
   3    -13.8722285 -0.355609E-07  0.260E-03   13.60      10.3  T
   4    -13.8722285 -0.113673E-07  0.729E-04   13.60      36.6  T
   5    -13.8722285 -0.472957E-09  0.357E-04   13.60      74.9  T
     SCC iter.                  ...        0 min,  0.003 sec
     gradient                   ...        0 min,  0.003 sec
 * total energy  :   -13.6617864 Eh     change       -0.2241255E-03 Eh
   gradient norm :     0.0025420 Eh/α   predicted    -0.1326548E-03 ( -40.81%)
   displ. norm   :     0.5657708 α      lambda       -0.8883867E-03
   maximum displ.:     0.3933747 α      in ANC's #3, #4, #6, ...

........................................................................
.............................. CYCLE    4 ..............................
........................................................................

 iter      E             dE          RMSdq      gap      omega  full diag
   1    -13.8708113 -0.138708E+02  0.193E-01   13.60       0.0  T
   2    -13.8708225 -0.111636E-04  0.113E-01   13.60       1.0  T
   3    -13.8708231 -0.606146E-06  0.162E-02   13.60       1.7  T
   4    -13.8708236 -0.510765E-06  0.420E-03   13.60       6.4  T
   5    -13.8708236 -0.283587E-08  0.141E-03   13.60      19.0  T
   6    -13.8708236 -0.231965E-08  0.191E-04   13.60     140.3  T
   7    -13.8708236 -0.355964E-10  0.781E-05   13.60     342.0  T
     SCC iter.                  ...        0 min,  0.005 sec
     gradient                   ...        0 min,  0.002 sec
 * total energy  :   -13.6622753 Eh     change       -0.4888856E-03 Eh
   gradient norm :     0.0176851 Eh/α   predicted    -0.5863822E-03 (  19.94%)
   displ. norm   :     0.0567594 α      lambda       -0.5599221E-03
   maximum displ.:     0.0288726 α      in ANC's #5, #4, #14, ...

........................................................................
.............................. CYCLE    5 ..............................
........................................................................

 iter      E             dE          RMSdq      gap      omega  full diag
   1    -13.8733055 -0.138733E+02  0.523E-02   13.60       0.0  T
   2    -13.8733075 -0.196111E-05  0.293E-02   13.60       1.0  T
   3    -13.8733076 -0.140132E-06  0.745E-03   13.60       3.6  T
   4    -13.8733077 -0.597981E-07  0.184E-03   13.60      14.5  T
   5    -13.8733077 -0.736772E-09  0.772E-04   13.60      34.6  T
   6    -13.8733077 -0.446621E-09  0.911E-05   13.60     293.4  T
     SCC iter.                  ...        0 min,  0.005 sec
     gradient                   ...        0 min,  0.003 sec
 * total energy  :   -13.6627181 Eh     change       -0.4427975E-03 Eh
   gradient norm :     0.0111985 Eh/α   predicted    -0.2808639E-03 ( -36.57%)
   displ. norm   :     0.5319397 α      lambda       -0.1436469E-02
   maximum displ.:     0.3849172 α      in ANC's #4, #3, #6, ...

........................................................................
.............................. CYCLE    6 ..............................
........................................................................

 iter      E             dE          RMSdq      gap      omega  full diag
   1    -13.8710269 -0.138710E+02  0.161E-01   13.60       0.0  T
   2    -13.8710320 -0.514514E-05  0.962E-02   13.60       1.0  T
   3    -13.8710323 -0.249568E-06  0.734E-03   13.60       3.6  T
   4    -13.8710324 -0.945871E-07  0.213E-03   13.60      12.6  T
   5    -13.8710324 -0.291368E-08  0.105E-03   13.60      25.4  T
   6    -13.8710324 -0.636591E-09  0.175E-04   13.60     152.9  T
   7    -13.8710324 -0.405613E-10  0.680E-05   13.60     392.9  T
     SCC iter.                  ...        0 min,  0.004 sec
     gradient                   ...        0 min,  0.002 sec
 * total energy  :   -13.6637308 Eh     change       -0.1012727E-02 Eh
   gradient norm :     0.0130408 Eh/α   predicted    -0.9214689E-03 (  -9.01%)
   displ. norm   :     0.2375634 α      lambda       -0.8105531E-03
   maximum displ.:     0.1606113 α      in ANC's #4, #3, #25, ...

........................................................................
.............................. CYCLE    7 ..............................
........................................................................

 iter      E             dE          RMSdq      gap      omega  full diag
   1    -13.8719118 -0.138719E+02  0.949E-02   13.70       0.0  T
   2    -13.8719144 -0.261107E-05  0.552E-02   13.70       1.0  T
   3    -13.8719146 -0.214260E-06  0.753E-03   13.70       3.5  T
   4    -13.8719147 -0.981821E-07  0.219E-03   13.70      12.2  T
   5    -13.8719147 -0.127558E-08  0.697E-04   13.70      38.4  T
   6    -13.8719147 -0.410450E-09  0.130E-04   13.70     206.2  T
     SCC iter.                  ...        0 min,  0.006 sec
     gradient                   ...        0 min,  0.002 sec
 * total energy  :   -13.6642145 Eh     change       -0.4837283E-03 Eh
   gradient norm :     0.0089309 Eh/α   predicted    -0.4281493E-03 ( -11.49%)
   displ. norm   :     0.3042359 α      lambda       -0.3799480E-03
   maximum displ.:     0.2063453 α      in ANC's #4, #3, #24, ...

........................................................................
.............................. CYCLE    8 ..............................
........................................................................

 iter      E             dE          RMSdq      gap      omega  full diag
   1    -13.8684267 -0.138684E+02  0.974E-02   13.71       0.0  T
   2    -13.8684318 -0.519215E-05  0.568E-02   13.71       1.0  T
   3    -13.8684321 -0.208527E-06  0.105E-02   13.71       2.5  T
   4    -13.8684321 -0.691612E-07  0.210E-03   13.71      12.7  T
   5    -13.8684321 -0.122020E-08  0.100E-03   13.71      26.6  T
   6    -13.8684321 -0.375511E-09  0.115E-04   13.71     232.9  T
   7    -13.8684321 -0.281339E-10  0.487E-05   13.71     548.4  T
     SCC iter.                  ...        0 min,  0.004 sec
     gradient                   ...        0 min,  0.002 sec
 * total energy  :   -13.6643183 Eh     change       -0.1037908E-03 Eh
   gradient norm :     0.0177074 Eh/α   predicted    -0.2075628E-03 (  99.98%)
   displ. norm   :     0.0657533 α      lambda       -0.5960088E-03
   maximum displ.:     0.0257251 α      in ANC's #24, #11, #3, ...

........................................................................
.............................. CYCLE    9 ..............................
........................................................................

 iter      E             dE          RMSdq      gap      omega  full diag
   1    -13.8738712 -0.138739E+02  0.674E-02   13.79       0.0  T
   2    -13.8738772 -0.600374E-05  0.368E-02   13.79       1.0  T
   3    -13.8738774 -0.232293E-06  0.117E-02   13.79       2.3  T
   4    -13.8738775 -0.511024E-07  0.219E-03   13.79      12.2  T
   5    -13.8738775 -0.117257E-08  0.105E-03   13.79      25.5  T
   6    -13.8738775 -0.357263E-09  0.124E-04   13.79     214.8  T
   7    -13.8738775 -0.336513E-10  0.515E-05   13.79     518.7  T
     SCC iter.                  ...        0 min,  0.004 sec
     gradient                   ...        0 min,  0.002 sec
 * total energy  :   -13.6646586 Eh     change       -0.3403099E-03 Eh
   gradient norm :     0.0077881 Eh/α   predicted    -0.2992936E-03 ( -12.05%)
   displ. norm   :     0.1473588 α      lambda       -0.2092867E-03
   maximum displ.:     0.1049486 α      in ANC's #3, #4, #24, ...

........................................................................
.............................. CYCLE   10 ..............................
........................................................................

 iter      E             dE          RMSdq      gap      omega  full diag
   1    -13.8751054 -0.138751E+02  0.466E-02   13.83       0.0  T
   2    -13.8751057 -0.295614E-06  0.277E-02   13.83       1.0  T
   3    -13.8751057 -0.210491E-07  0.167E-03   13.83      16.0  T
   4    -13.8751057 -0.362314E-08  0.536E-04   13.83      49.9  T
   5    -13.8751057 -0.188299E-09  0.248E-04   13.83     107.9  T
     SCC iter.                  ...        0 min,  0.003 sec
     gradient                   ...        0 min,  0.002 sec
 * total energy  :   -13.6648112 Eh     change       -0.1526084E-03 Eh
   gradient norm :     0.0045155 Eh/α   predicted    -0.1069156E-03 ( -29.94%)
   displ. norm   :     0.2291828 α      lambda       -0.2034105E-03
   maximum displ.:     0.1709182 α      in ANC's #3, #4, #24, ...

........................................................................
.............................. CYCLE   11 ..............................
........................................................................

 iter      E             dE          RMSdq      gap      omega  full diag
   1    -13.8750532 -0.138751E+02  0.727E-02   13.82       0.0  T
   2    -13.8750539 -0.634529E-06  0.434E-02   13.82       1.0  T
   3    -13.8750539 -0.603230E-07  0.325E-03   13.82       8.2  T
   4    -13.8750540 -0.359467E-07  0.120E-03   13.82      22.3  T
   5    -13.8750540 -0.501389E-09  0.299E-04   13.82      89.4  T
   6    -13.8750540 -0.904787E-10  0.809E-05   13.82     330.3  T
     SCC iter.                  ...        0 min,  0.004 sec
     gradient                   ...        0 min,  0.002 sec
 * total energy  :   -13.6649110 Eh     change       -0.9977125E-04 Eh
   gradient norm :     0.0046648 Eh/α   predicted    -0.1070475E-03 (   7.29%)
   displ. norm   :     0.0695323 α      lambda       -0.1027449E-03
   maximum displ.:     0.0481485 α      in ANC's #1, #4, #3, ...

........................................................................
.............................. CYCLE   12 ..............................
........................................................................

 iter      E             dE          RMSdq      gap      omega  full diag
   1    -13.8766196 -0.138766E+02  0.331E-02   13.80       0.0  T
   2    -13.8766205 -0.840738E-06  0.190E-02   13.80       1.4  T
   3    -13.8766205 -0.352768E-07  0.433E-03   13.80       6.2  T
   4    -13.8766205 -0.103527E-07  0.887E-04   13.80      30.1  T
   5    -13.8766205 -0.444201E-09  0.454E-04   13.80      58.8  T
     SCC iter.                  ...        0 min,  0.003 sec
     gradient                   ...        0 min,  0.002 sec
 * total energy  :   -13.6649688 Eh     change       -0.5784590E-04 Eh
   gradient norm :     0.0041240 Eh/α   predicted    -0.5162134E-04 ( -10.76%)
   displ. norm   :     0.1035974 α      lambda       -0.5417390E-04
   maximum displ.:     0.0745783 α      in ANC's #3, #1, #24, ...

........................................................................
.............................. CYCLE   13 ..............................
........................................................................

 iter      E             dE          RMSdq      gap      omega  full diag
   1    -13.8760930 -0.138761E+02  0.303E-02   13.79       0.0  T
   2    -13.8760931 -0.642052E-07  0.182E-02   13.78       1.5  T
   3    -13.8760931 -0.869176E-08  0.706E-04   13.78      37.9  T
   4    -13.8760931 -0.367027E-09  0.323E-04   13.78      82.8  T
     SCC iter.                  ...        0 min,  0.002 sec
     gradient                   ...        0 min,  0.003 sec
 * total energy  :   -13.6650118 Eh     change       -0.4301231E-04 Eh
   gradient norm :     0.0039059 Eh/α   predicted    -0.2737838E-04 ( -36.35%)
   displ. norm   :     0.1930389 α      lambda       -0.9124561E-04
   maximum displ.:     0.1247392 α      in ANC's #3, #1, #24, ...

........................................................................
.............................. CYCLE   14 ..............................
........................................................................

 iter      E             dE          RMSdq      gap      omega  full diag
   1    -13.8751589 -0.138752E+02  0.556E-02   13.79       0.0  T
   2    -13.8751593 -0.332633E-06  0.332E-02   13.78       1.0  T
   3    -13.8751593 -0.253489E-07  0.162E-03   13.78      16.5  T
   4    -13.8751593 -0.528217E-08  0.595E-04   13.78      44.9  T
   5    -13.8751593 -0.198430E-09  0.283E-04   13.78      94.4  T
     SCC iter.                  ...        0 min,  0.003 sec
     gradient                   ...        0 min,  0.003 sec
 * total energy  :   -13.6650655 Eh     change       -0.5364952E-04 Eh
   gradient norm :     0.0031452 Eh/α   predicted    -0.4732214E-04 ( -11.79%)
   displ. norm   :     0.0705329 α      lambda       -0.3092094E-04
   maximum displ.:     0.0543876 α      in ANC's #1, #3, #4, ...

........................................................................
.............................. CYCLE   15 ..............................
........................................................................

 iter      E             dE          RMSdq      gap      omega  full diag
   1    -13.8754955 -0.138755E+02  0.228E-02   13.79       0.0  T
   2    -13.8754955 -0.485968E-07  0.135E-02   13.79       2.0  T
   3    -13.8754955 -0.534436E-08  0.992E-04   13.79      26.9  T
   4    -13.8754955 -0.371315E-08  0.393E-04   13.79      68.0  T
     SCC iter.                  ...        0 min,  0.004 sec
     gradient                   ...        0 min,  0.002 sec
 * total energy  :   -13.6650879 Eh     change       -0.2238482E-04 Eh
   gradient norm :     0.0022108 Eh/α   predicted    -0.1553801E-04 ( -30.59%)
   displ. norm   :     0.1382394 α      lambda       -0.4247153E-04
   maximum displ.:     0.1171393 α      in ANC's #1, #3, #4, ...

........................................................................
.............................. CYCLE   16 ..............................
........................................................................

 iter      E             dE          RMSdq      gap      omega  full diag
   1    -13.8757742 -0.138758E+02  0.426E-02   13.81       0.0  T
   2    -13.8757742 -0.678655E-07  0.254E-02   13.81       1.1  T
   3    -13.8757742 -0.189372E-07  0.104E-03   13.82      25.8  T
   4    -13.8757743 -0.102500E-08  0.528E-04   13.82      50.6  T
   5    -13.8757743 -0.111731E-09  0.883E-05   13.82     302.6  T
     SCC iter.                  ...        0 min,  0.003 sec
     gradient                   ...        0 min,  0.002 sec
 * total energy  :   -13.6651097 Eh     change       -0.2180919E-04 Eh
   gradient norm :     0.0020910 Eh/α   predicted    -0.2164280E-04 (  -0.76%)
   displ. norm   :     0.0475588 α      lambda       -0.1715051E-04
   maximum displ.:     0.0401437 α      in ANC's #1, #4, #11, ...

........................................................................
.............................. CYCLE   17 ..............................
........................................................................

 iter      E             dE          RMSdq      gap      omega  full diag
   1    -13.8763510 -0.138764E+02  0.166E-02   13.81       0.0  T
   2    -13.8763511 -0.644741E-07  0.978E-03   13.81       2.7  T
   3    -13.8763511 -0.446111E-08  0.838E-04   13.81      31.9  T
   4    -13.8763511 -0.684725E-09  0.274E-04   13.81      97.6  T
     SCC iter.                  ...        0 min,  0.002 sec
     gradient                   ...        0 min,  0.004 sec
 * total energy  :   -13.6651186 Eh     change       -0.8874018E-05 Eh
   gradient norm :     0.0013095 Eh/α   predicted    -0.8594120E-05 (  -3.15%)
   displ. norm   :     0.0483491 α      lambda       -0.4812491E-05
   maximum displ.:     0.0460589 α      in ANC's #1, #4, #2, ...

........................................................................
.............................. CYCLE   18 ..............................
........................................................................

 iter      E             dE          RMSdq      gap      omega  full diag
   1    -13.8761028 -0.138761E+02  0.145E-02   13.80       0.0  T
   2    -13.8761028 -0.181493E-07  0.855E-03   13.80       3.1  T
   3    -13.8761028 -0.201110E-08  0.555E-04   13.80      48.2  T
   4    -13.8761028 -0.988832E-09  0.221E-04   13.80     120.9  T
     SCC iter.                  ...        0 min,  0.002 sec
     gradient                   ...        0 min,  0.002 sec
 * total energy  :   -13.6651232 Eh     change       -0.4607764E-05 Eh
   gradient norm :     0.0008054 Eh/α   predicted    -0.2407650E-05 ( -47.75%)
   displ. norm   :     0.0613107 α      lambda       -0.4981377E-05
   maximum displ.:     0.0489245 α      in ANC's #3, #1, #24, ...

........................................................................
.............................. CYCLE   19 ..............................
........................................................................

 iter      E             dE          RMSdq      gap      omega  full diag
   1    -13.8764224 -0.138764E+02  0.179E-02   13.80       0.0  T
   2    -13.8764225 -0.281851E-07  0.107E-02   13.80       2.5  T
   3    -13.8764225 -0.346137E-08  0.597E-04   13.80      44.8  T
   4    -13.8764225 -0.105968E-08  0.257E-04   13.80     104.0  T
     SCC iter.                  ...        0 min,  0.002 sec
     gradient                   ...        0 min,  0.002 sec
 * total energy  :   -13.6651243 Eh     change       -0.1176829E-05 Eh
   gradient norm :     0.0012744 Eh/α   predicted    -0.2494683E-05 ( 111.98%)
   displ. norm   :     0.0170536 α      lambda       -0.3265328E-05
   maximum displ.:     0.0108686 α      in ANC's #4, #3, #25, ...

........................................................................
.............................. CYCLE   20 ..............................
........................................................................

 iter      E             dE          RMSdq      gap      omega  full diag
   1    -13.8759459 -0.138759E+02  0.765E-03   13.80       0.0  T
   2    -13.8759459 -0.427788E-07  0.441E-03   13.80       6.1  T
   3    -13.8759459 -0.202699E-08  0.940E-04   13.80      28.4  T
   4    -13.8759459 -0.451339E-09  0.205E-04   13.80     130.1  T
     SCC iter.                  ...        0 min,  0.003 sec
     gradient                   ...        0 min,  0.002 sec
 * total energy  :   -13.6651268 Eh     change       -0.2438578E-05 Eh
   gradient norm :     0.0005290 Eh/α   predicted    -0.1632929E-05 ( -33.04%)
   displ. norm   :     0.0056725 α      lambda       -0.5685256E-06
   maximum displ.:     0.0029941 α      in ANC's #2, #4, #3, ...
 * RMSD in coord.:     0.6401114 α      energy gain  -0.4083115E-02 Eh

generating ANC from exact Hessian ...
Using Lindh-Hessian (1995)
 Shifting diagonal of input Hessian by    5.7761611169008728E-003
 Lowest  eigenvalues of input Hessian
    0.000000    0.000000    0.000000    0.000000    0.000000    0.000000
    0.010000    0.013357    0.013760    0.018290    0.022465    0.045964
    0.047987    0.057665    0.060206    0.060587    0.062401    0.071025
 Highest eigenvalues
    1.132266    1.151292    1.198070    1.198240    1.225459    1.288003


........................................................................
.............................. CYCLE   21 ..............................
........................................................................

 iter      E             dE          RMSdq      gap      omega  full diag
   1    -13.8759660 -0.138760E+02  0.297E-03   13.80       0.0  T
   2    -13.8759660 -0.271199E-08  0.173E-03   13.80      15.5  T
   3    -13.8759660 -0.162606E-09  0.221E-04   13.80     121.2  T
   4    -13.8759660 -0.660574E-10  0.564E-05   13.80     474.2  T
     SCC iter.                  ...        0 min,  0.002 sec
     gradient                   ...        0 min,  0.003 sec
 * total energy  :   -13.6651273 Eh     change       -0.4844709E-06 Eh
   gradient norm :     0.0002008 Eh/α   predicted     0.0000000E+00 (-100.00%)
   displ. norm   :     0.0043071 α      lambda       -0.2241422E-06
   maximum displ.:     0.0036017 α      in ANC's #4, #1, #3, ...

   *** GEOMETRY OPTIMIZATION CONVERGED AFTER 21 ITERATIONS ***

------------------------------------------------------------------------
 total energy gain   :        -0.0040836 Eh       -2.5625 kcal/mol
 total RMSD          :         0.6401114 a0        0.3387 Å
 total power (kW/mol):        -0.5105471 (step)  -60.3008 (real)
------------------------------------------------------------------------

 ANCopt (total)                0 d,  0 h,  0 min,  0.178 sec
 optimizer setup                ...        0 min,  0.000 sec (  0.068%)
 model hessian                  ...        0 min,  0.011 sec (  6.230%)
 ANC generation                 ...        0 min,  0.001 sec (  0.612%)
 coordinate transformation      ...        0 min,  0.000 sec (  0.116%)
 single point calculation       ...        0 min,  0.155 sec ( 86.928%)
 optimization log               ...        0 min,  0.005 sec (  2.576%)
 hessian update                 ...        0 min,  0.001 sec (  0.615%)
 rational function              ...        0 min,  0.004 sec (  2.061%)

================
 final structure:
================
14
 xtb: 6.7.1 (edcfbbe)
C           -2.50840070352440        0.36032085612558        0.00803395282702
H           -2.25293360628322       -0.69580521135609        0.05660737659515
H           -2.02283496477503        0.79112138576114       -0.86538025178466
H           -3.58505673453924        0.44769719756562       -0.12286162930338
C           -2.06402157157662        1.07987130851025        1.27545495244525
H           -0.98401674447922        0.96713726160336        1.39702136647582
H           -2.54374217931168        0.61872822268044        2.14211707979407
C           -2.41295323829261        2.56582340038005        1.23994254170831
H           -1.93520303914040        3.02650168142038        0.37194440746219
H           -3.49317007890383        2.67858483642605        1.12080630939090
C           -1.96550287069108        3.28599800812580        2.50590711894446
H           -0.88874439209542        3.19725440015209        2.63468623531122
H           -2.21925959405166        4.34248115311621        2.45673418936725
H           -2.45009184233564        2.85688519948912        3.38052840076639

 Bond Distances (Angstroems)
 ---------------------------
C1-H2=1.0877         C1-H3=1.0882         C1-H4=1.0881         C1-C5=1.5237         H2-C1=1.0877         H3-C1=1.0882         
H4-C1=1.0881         C5-C1=1.5237         C5-H6=1.0927         C5-H7=1.0927         C5-C8=1.5268         H6-C5=1.0927         
H7-C5=1.0927         C8-C5=1.5268         C8-H9=1.0927         C8-H10=1.0926        C8-C11=1.5237        H9-C8=1.0927         
H10-C8=1.0926        C11-C8=1.5237        C11-H12=1.0881       C11-H13=1.0876       C11-H14=1.0881       H12-C11=1.0881       
H13-C11=1.0876       H14-C11=1.0881       
 C  H  Rav=1.0898 sigma=0.0023  Rmin=1.0876  Rmax=1.0927    10
 C  C  Rav=1.5247 sigma=0.0015  Rmin=1.5237  Rmax=1.5268     3

 selected bond angles (degree)
 --------------------
H3-C1-H2=108.39                H4-C1-H2=108.41                H4-C1-H3=108.25                C5-C1-H2=110.66                
C5-C1-H3=110.52                C5-C1-H4=110.53                H6-C5-C1=109.40                H7-C5-C1=109.42                
H7-C5-H6=107.59                C8-C5-C1=111.94                C8-C5-H6=109.20                C8-C5-H7=109.20                
H9-C8-C5=109.20                H10-C8-C5=109.20               H10-C8-H9=107.59               C11-C8-C5=111.94               
C11-C8-H9=109.41               C11-C8-H10=109.40              

 selected dihedral angles (degree)
 ---------------------------------
H6-C5-C1-H2= 59.00            H6-C5-C1-H3=298.93            H6-C5-C1-H4=179.11            H7-C5-C1-H2=301.37            
H7-C5-C1-H3=181.30            H7-C5-C1-H4= 61.48            C8-C5-C1-H2=180.18            C8-C5-C1-H3= 60.11            
C8-C5-C1-H4=300.29            H9-C8-C5-C1=301.45            H9-C8-C5-H6= 62.74            H9-C8-C5-H7=180.13            
H10-C8-C5-C1= 58.84           H10-C8-C5-H6=180.14           H10-C8-C5-H7=297.53           C11-C8-C5-C1=180.14           
C11-C8-C5-H6=301.43           C11-C8-C5-H7= 58.82           
           -------------------------------------------------
          |                Final Singlepoint                |
           -------------------------------------------------

          ...................................................
          :                      SETUP                      :
          :.................................................:
          :  # basis functions                  26          :
          :  # atomic orbitals                  26          :
          :  # shells                           18          :
          :  # electrons                        26          :
          :  max. iterations                   250          :
          :  Hamiltonian                  GFN2-xTB          :
          :  restarted?                      false          :
          :  GBSA solvation                  false          :
          :  PC potential                    false          :
          :  electronic temp.          300.0000000     K    :
          :  accuracy                    1.0000000          :
          :  -> integral cutoff          0.2500000E+02      :
          :  -> integral neglect         0.1000000E-07      :
          :  -> SCF convergence          0.1000000E-05 Eh   :
          :  -> wf. convergence          0.1000000E-03 e    :
          :  Broyden damping             0.4000000          :
          :  net charge                          0          :
          :  unpaired electrons                  0          :
          ...................................................

 iter      E             dE          RMSdq      gap      omega  full diag
   1    -13.8759660 -0.138760E+02  0.222E-05   13.80       0.0  T
   2    -13.8759660 -0.701661E-12  0.118E-05   13.80    2261.0  T
   3    -13.8759660 -0.213163E-13  0.523E-06   13.80    5105.8  T

   *** convergence criteria satisfied after 3 iterations ***

         #    Occupation            Energy/Eh            Energy/eV
      -------------------------------------------------------------
         1        2.0000           -0.6179712             -16.8159
       ...           ...                  ...                  ...
         7        2.0000           -0.4878857             -13.2760
         8        2.0000           -0.4789721             -13.0335
         9        2.0000           -0.4546620             -12.3720
        10        2.0000           -0.4395023             -11.9595
        11        2.0000           -0.4367389             -11.8843
        12        2.0000           -0.4258098             -11.5869
        13        2.0000           -0.4195532             -11.4166 (HOMO)
        14                          0.0876867               2.3861 (LUMO)
        15                          0.1267216               3.4483
        16                          0.1276755               3.4742
        17                          0.1525129               4.1501
        18                          0.1628397               4.4311
       ...                                ...                  ...
        26                          0.3112875               8.4706
      -------------------------------------------------------------
                  HL-Gap            0.5072399 Eh           13.8027 eV
             Fermi-level           -0.1659333 Eh           -4.5153 eV

 SCC (total)                   0 d,  0 h,  0 min,  0.005 sec
 SCC setup                      ...        0 min,  0.000 sec (  2.986%)
 Dispersion                     ...        0 min,  0.000 sec (  2.815%)
 classical contributions        ...        0 min,  0.000 sec (  1.222%)
 integral evaluation            ...        0 min,  0.001 sec ( 13.114%)
 iterations                     ...        0 min,  0.002 sec ( 35.431%)
 molecular gradient             ...        0 min,  0.002 sec ( 40.616%)
 printout                       ...        0 min,  0.000 sec (  3.419%)

         :::::::::::::::::::::::::::::::::::::::::::::::::::::
         ::                     SUMMARY                     ::
         :::::::::::::::::::::::::::::::::::::::::::::::::::::
         :: total energy             -13.665127270638 Eh    ::
         :: gradient norm              0.000200802482 Eh/a0 ::
         :: HOMO-LUMO gap             13.802699962844 eV    ::
         ::.................................................::
         :: SCC energy               -13.875962168652 Eh    ::
         :: -> isotropic ES            0.002997463801 Eh    ::
         :: -> anisotropic ES          0.004911369708 Eh    ::
         :: -> anisotropic XC          0.009062537946 Eh    ::
         :: -> dispersion             -0.006049147713 Eh    ::
         :: repulsion energy           0.210834898013 Eh    ::
         :: add. restraining           0.000000000000 Eh    ::
         :: total charge               0.000000000000 e     ::
         :::::::::::::::::::::::::::::::::::::::::::::::::::::

           -------------------------------------------------
          |                Property Printout                |
           -------------------------------------------------

    * Orbital Energies and Occupations

         #    Occupation            Energy/Eh            Energy/eV
      -------------------------------------------------------------
         1        2.0000           -0.6179712             -16.8159
         2        2.0000           -0.5989697             -16.2988
         3        2.0000           -0.5679126             -15.4537
         4        2.0000           -0.5523965             -15.0315
         5        2.0000           -0.5138382             -13.9822
         6        2.0000           -0.4918520             -13.3840
         7        2.0000           -0.4878857             -13.2760
         8        2.0000           -0.4789721             -13.0335
         9        2.0000           -0.4546620             -12.3720
        10        2.0000           -0.4395023             -11.9595
        11        2.0000           -0.4367389             -11.8843
        12        2.0000           -0.4258098             -11.5869
        13        2.0000           -0.4195532             -11.4166 (HOMO)
        14                          0.0876867               2.3861 (LUMO)
        15                          0.1267216               3.4483
        16                          0.1276755               3.4742
        17                          0.1525129               4.1501
        18                          0.1628397               4.4311
        19                          0.1836269               4.9967
        20                          0.1936243               5.2688
        21                          0.1970042               5.3608
        22                          0.2245326               6.1098
        23                          0.2548733               6.9355
        24                          0.2644401               7.1958
       ...                                ...                  ...
        26                          0.3112875               8.4706
      -------------------------------------------------------------
                  HL-Gap            0.5072399 Eh           13.8027 eV
             Fermi-level           -0.1659333 Eh           -4.5153 eV

     #   Z          covCN         q      C6AA      α(0)
     1   6 C        3.752    -0.102    22.510     6.766
     2   1 H        0.925     0.032     2.554     2.499
     3   1 H        0.925     0.033     2.551     2.498
     4   1 H        0.925     0.033     2.550     2.497
     5   6 C        3.801    -0.053    21.534     6.607
     6   1 H        0.924     0.029     2.600     2.522
     7   1 H        0.924     0.029     2.601     2.522
     8   6 C        3.801    -0.053    21.534     6.607
     9   1 H        0.924     0.029     2.600     2.522
    10   1 H        0.924     0.029     2.601     2.522
    11   6 C        3.752    -0.102    22.510     6.766
    12   1 H        0.925     0.033     2.550     2.497
    13   1 H        0.925     0.032     2.554     2.499
    14   1 H        0.925     0.033     2.550     2.497

 Mol. C6AA /au·bohr⁶  :       1207.510028
 Mol. C8AA /au·bohr⁸  :      24480.644927
 Mol. α(0) /au        :         51.819707


Wiberg/Mayer (AO) data.
largest (>0.10) Wiberg bond orders for each atom

 ---------------------------------------------------------------------------
     #   Z sym  total        # sym  WBO       # sym  WBO       # sym  WBO
 ---------------------------------------------------------------------------
     1   6 C    3.997 --     5 C    1.019     3 H    0.988     4 H    0.988
                             2 H    0.988
     2   1 H    0.999 --     1 C    0.988
     3   1 H    0.999 --     1 C    0.988
     4   1 H    0.999 --     1 C    0.988
     5   6 C    3.998 --     1 C    1.019     8 C    1.009     7 H    0.979
                             6 H    0.979
     6   1 H    0.999 --     5 C    0.979
     7   1 H    0.999 --     5 C    0.979
     8   6 C    3.998 --    11 C    1.019     5 C    1.009    10 H    0.979
                             9 H    0.979
     9   1 H    0.999 --     8 C    0.979
    10   1 H    0.999 --     8 C    0.979
    11   6 C    3.997 --     8 C    1.019    14 H    0.988    12 H    0.988
                            13 H    0.988
    12   1 H    0.999 --    11 C    0.988
    13   1 H    0.999 --    11 C    0.988
    14   1 H    0.999 --    11 C    0.988
 ---------------------------------------------------------------------------

Topologies differ in total number of bonds
Writing topology from bond orders to xtbtopo.mol

molecular dipole:
                 x           y           z       tot (Debye)
 q only:        0.000      -0.000       0.000
   full:        0.000       0.000       0.000       0.000
molecular quadrupole (traceless):
                xx          xy          yy          xz          yz          zz
 q only:       -0.130       0.005       0.052       0.096       0.115       0.078
  q+dip:        0.733      -0.040      -0.367      -0.476      -0.697      -0.366
   full:        0.320      -0.015      -0.156      -0.211      -0.300      -0.163

           -------------------------------------------------
          |                Geometry Summary                 |
           -------------------------------------------------

      molecular mass/u    :       58.1223511
   center of mass at/Å    :       -2.2376826       1.8230131       1.2573149
Note: The following floating-point exceptions are signalling: IEEE_DENORMAL
normal termination of xtb
  moments of inertia/u·Å² :        0.2163028E+02   0.1369865E+03   0.1460797E+03
rotational constants/cm⁻¹ :        0.7793533E+00   0.1230606E+00   0.1154002E+00

 * 13 selected distances

     #   Z          #   Z                                           value/Å
     1   6 C        2   1 H                                       1.0876697
     1   6 C        3   1 H                                       1.0882168
     1   6 C        4   1 H                                       1.0880977
     1   6 C        5   6 C                                       1.5236739
     5   6 C        6   1 H                                       1.0926564
     5   6 C        7   1 H                                       1.0926519
     5   6 C        8   6 C                                       1.5267837 (max)
     8   6 C        9   1 H                                       1.0926531
     8   6 C       10   1 H                                       1.0926011
     8   6 C       11   6 C                                       1.5236568
    11   6 C       12   1 H                                       1.0880572
    11   6 C       13   1 H                                       1.0876430 (min)
    11   6 C       14   1 H                                       1.0880840

 * 2 distinct bonds (by element types)

   Z      Z             #   av. dist./Å        max./Å        min./Å
   1 H    6 C          10     1.0898331     1.0926564     1.0876430
   6 C    6 C           3     1.5247048     1.5267837     1.5236568


optimized geometry written to: xtbopt.xyz


           -------------------------------------------------
          | TOTAL ENERGY              -13.665127270638 Eh   |
          | GRADIENT NORM               0.000200802482 Eh/α |
          | HOMO-LUMO GAP              13.802699962844 eV   |
           -------------------------------------------------

------------------------------------------------------------------------
 * finished run on 2026/08/17 at 12:14:24.504     
------------------------------------------------------------------------
 total:
 * wall-time:     0 d,  0 h,  0 min,  0.309 sec
 *  cpu-time:     0 d,  0 h,  0 min,  1.143 sec
 * ratio c/w:     3.701 speedup
 SCF:
 * wall-time:     0 d,  0 h,  0 min,  0.087 sec
 *  cpu-time:     0 d,  0 h,  0 min,  0.329 sec
 * ratio c/w:     3.768 speedup
 ANC optimizer:
 * wall-time:     0 d,  0 h,  0 min,  0.184 sec
 *  cpu-time:     0 d,  0 h,  0 min,  0.669 sec
 * ratio c/w:     3.625 speedup

