14
 energy: -13.665127270638 gnorm: 0.000200802482 xtb: 6.7.1 (edcfbbe)
C           -2.50840070352440        0.36032085612558        0.00803395282702
H           -2.25293360628322       -0.69580521135609        0.05660737659515
H           -2.02283496477503        0.79112138576114       -0.86538025178466
H           -3.58505673453924        0.44769719756562       -0.12286162930338
C           -2.06402157157662        1.07987130851025        1.27545495244525
H           -0.98401674447922        0.96713726160336        1.39702136647582
H           -2.54374217931168        0.61872822268044        2.14211707979407
C           -2.41295323829261        2.56582340038005        1.23994254170831
H           -1.93520303914040        3.02650168142038        0.37194440746219
H           -3.49317007890383        2.67858483642605        1.12080630939090
C           -1.96550287069108        3.28599800812580        2.50590711894446
H           -0.88874439209542        3.19725440015209        2.63468623531122
H           -2.21925959405166        4.34248115311621        2.45673418936725
H           -2.45009184233564        2.85688519948912        3.38052840076639
