%mem=1GB
%nprocshared=1
%chk=02_conf_010_hessfit.chk
#p Amber=(SoftFirst,Print) nosymm geom=nocrowd opt(MaxMicroiterations=2000) Freq=intmodes

Title

0 1
C-c3--0.646624  -0.586838  1.436978  -0.566964
H-h3-+0.210695  -1.380948  2.181498  -0.480955
H-h3-+0.210038  -0.741117  0.896584  -1.502852
H-h3-+0.212760  0.366163  1.968936  -0.639975
C-c3--0.406786  -0.586838  0.491947  0.635348
H-h3-+0.211064  -1.526348  -0.071004  0.657687
H-h3-+0.208865  -0.554528  1.082342  1.555793
C-c3--0.406821  0.586838  -0.491947  0.635348
H-h3-+0.211063  1.526348  0.071004  0.657687
H-h3-+0.208870  0.554528  -1.082342  1.555793
C-c3--0.646584  0.586838  -1.436978  -0.566964
H-h3-+0.210691  1.380948  -2.181498  -0.480955
H-h3-+0.212749  -0.366163  -1.968936  -0.639975
H-h3-+0.210021  0.741117  -0.896584  -1.502852

!Master function
NonBon 3 1 0 0 0.000 0.000 0.500 0.000 0.000 -1.2
!SMARTFIELD FF
!Bonds
HrmStr1 c3 c3  318.884 1.530
HrmStr1 c3 h3  389.262 1.093
!Angles
HrmBnd1 c3 c3 c3  44.286 113.391
HrmBnd1 c3 c3 h3  39.426 109.996
HrmBnd1 h3 c3 h3  34.868 107.484
!Torsions
AmbTrs c3 c3 c3 c3 0  0  0  0 0.00 0.00 3.62 0. 9.0
AmbTrs c3 c3 c3 h3 0  0  0  0 0.00 0.75 2.61 0. 9.0
AmbTrs h3 c3 c3 h3 0  0  0  0 0.00 0.75 2.61 0. 9.0

!VDW
VDW c3 1.9080 0.1094
VDW h3 1.4870 0.0157

