 Entering Gaussian System, Link 0=/home/emanuele/chem_software/gaussian/g09/g09
 Input=02_conf_010_hessfit.gjf
 Output=02_conf_010_hessfit.log
 Initial command:
 /home/emanuele/chem_software/gaussian//gdv/l1.exe "/home/emanuele/chem_software/gaussian/scratch/Gau-8313.inp" -scrdir="/home/emanuele/chem_software/gaussian/scratch/"
 Entering Link 1 = /home/emanuele/chem_software/gaussian//gdv/l1.exe PID=      8315.
  
 Copyright (c) 1988-2020, Gaussian, Inc.  All Rights Reserved.
  
 This is the private, development version of
 the Gaussian(R) DV system of programs. It is based on
 the Gaussian(R) 16 system (copyright 2016, Gaussian, Inc.),
 the Gaussian(R) 09 system (copyright 2009, Gaussian, Inc.),
 the Gaussian(R) 03 system (copyright 2003, Gaussian, Inc.),
 the Gaussian(R) 98 system (copyright 1998, Gaussian, Inc.),
 the Gaussian(R) 94 system (copyright 1995, Gaussian, Inc.),
 the Gaussian 92(TM) system (copyright 1992, Gaussian, Inc.),
 the Gaussian 90(TM) system (copyright 1990, Gaussian, Inc.),
 the Gaussian 88(TM) system (copyright 1988, Gaussian, Inc.),
 the Gaussian 86(TM) system (copyright 1986, Carnegie Mellon
 University), and the Gaussian 82(TM) system (copyright 1983,
 Carnegie Mellon University). Gaussian is a federally registered
 trademark of Gaussian, Inc.
  
 This software contains proprietary and confidential information,
 including trade secrets, belonging to Gaussian, Inc.
  
 This software is provided under written license and may be
 used, copied, transmitted, or stored only in accord with that
 written license.
  
 The following legend is applicable only to US Government
 contracts under FAR:
  
                    RESTRICTED RIGHTS LEGEND
  
 Use, reproduction and disclosure by the US Government is
 subject to restrictions as set forth in subparagraphs (a)
 and (c) of the Commercial Computer Software - Restricted
 Rights clause in FAR 52.227-19.
  
 Gaussian, Inc.
 340 Quinnipiac St., Bldg. 40, Wallingford CT 06492
  
  
 ---------------------------------------------------------------
 Warning -- This program may not be used in any manner that
 competes with the business of Gaussian, Inc. or will provide
 assistance to any competitor of Gaussian, Inc.  The licensee
 of this program is prohibited from giving any competitor of
 Gaussian, Inc. access to this program.  By using this program,
 the user acknowledges that Gaussian, Inc. is engaged in the
 business of creating and licensing software in the field of
 computational chemistry and represents and warrants to the
 licensee that it is not a competitor of Gaussian, Inc. and that
 it will not use this program in any manner prohibited above.
 ---------------------------------------------------------------
  

 Cite this work as:
 Gaussian Development Version, Revision J.14,
 M. J. Frisch, G. W. Trucks, H. B. Schlegel, G. E. Scuseria, 
 M. A. Robb, J. R. Cheeseman, G. Scalmani, V. Barone, 
 G. A. Petersson, H. Nakatsuji, X. Li, A. V. Marenich, M. Caricato, 
 J. Bloino, B. G. Janesko, J. Zheng, R. Gomperts, B. Mennucci, 
 H. P. Hratchian, J. V. Ortiz, A. F. Izmaylov, J. L. Sonnenberg, 
 D. Williams-Young, F. Ding, F. Lipparini, F. Egidi, J. Goings, 
 B. Peng, A. Petrone, T. Henderson, D. Ranasinghe, V. G. Zakrzewski, 
 J. Gao, N. Rega, G. Zheng, W. Liang, M. Hada, M. Ehara, K. Toyota, 
 R. Fukuda, J. Hasegawa, M. Ishida, T. Nakajima, Y. Honda, O. Kitao, 
 H. Nakai, T. Vreven, K. Throssell, J. A. Montgomery, Jr., 
 J. E. Peralta, F. Ogliaro, M. J. Bearpark, J. J. Heyd, 
 E. N. Brothers, K. N. Kudin, V. N. Staroverov, T. A. Keith, 
 R. Kobayashi, J. Normand, K. Raghavachari, A. P. Rendell, 
 J. C. Burant, S. S. Iyengar, J. Tomasi, M. Cossi, J. M. Millam, 
 M. Klene, C. Adamo, R. Cammi, J. W. Ochterski, R. L. Martin, 
 K. Morokuma, O. Farkas, J. B. Foresman, and D. J. Fox, 
 Gaussian, Inc., Wallingford CT, 2020.
 
 ******************************************
 Gaussian DV:  ES64L-GDVRevJ.14 29-Dec-2020
                15-Aug-2026 
 ******************************************
 %mem=1GB
 %nprocshared=1
 Will use up to    1 processors via shared memory.
 %chk=02_conf_010_hessfit.chk
 ----------------------------------------------------------------------
 #p Amber=(SoftFirst,Print) nosymm geom=nocrowd opt(MaxMicroiterations=
 2000) Freq=intmodes
 ----------------------------------------------------------------------
 1/6=10,10=10,18=4000020,19=15,37=210000000,38=1,56=2,64=203,139=2000/1,3;
 2/9=110,12=1,15=1,40=1/2;
 3/5=30,11=9,25=1,30=1,41=10030000,43=2,71=1/1;
 4/20=11,22=1001,24=3,119=11,120=2000/2;
 7/30=1,44=-1/16;
 1/6=10,10=10,18=4000020,19=15,64=203,139=2000/3(2);
 2/9=110,12=1,15=1/2;
 99//99;
 2/9=110,12=1,15=1/2;
 3/5=30,11=9,25=1,30=1,41=10030000,43=2,71=1/1;
 4/16=2,20=11,22=1001,24=3,119=11,120=2000/2;
 7/30=1,44=-1/16;
 1/6=10,10=10,18=4000020,19=15,64=203,139=2000/3(-4);
 2/9=110,12=1,15=1/2;
 99/9=10/99;
 Leave Link    1 at Sat Aug 15 12:20:54 2026, MaxMem=   134217728 cpu:               0.0 elap:               0.0
 (Enter /home/emanuele/chem_software/gaussian//gdv/l101.exe)
 -----
 Title
 -----
 Symbolic Z-matrix:
 Charge =  0 Multiplicity = 1
 C-c3--0.646624       -0.58684   1.43698  -0.56696 
 H-h3-+0.210695       -1.38095   2.1815   -0.48096 
 H-h3-+0.210038       -0.74112   0.89658  -1.50285 
 H-h3-+0.212760        0.36616   1.96894  -0.63998 
 C-c3--0.406786       -0.58684   0.49195   0.63535 
 H-h3-+0.211064       -1.52635  -0.071     0.65769 
 H-h3-+0.208865       -0.55453   1.08234   1.55579 
 C-c3--0.406821        0.58684  -0.49195   0.63535 
 H-h3-+0.211063        1.52635   0.071     0.65769 
 H-h3-+0.208870        0.55453  -1.08234   1.55579 
 C-c3--0.646584        0.58684  -1.43698  -0.56696 
 H-h3-+0.210691        1.38095  -2.1815   -0.48096 
 H-h3-+0.212749       -0.36616  -1.96894  -0.63998 
 H-h3-+0.210021        0.74112  -0.89658  -1.50285 
 
 ITRead=  3  3  3  3  3  3  3  3  3  3  3  3  3  3
 MicOpt=  0  0  0  0  0  0  0  0  0  0  0  0  0  0
 NAtoms=     14 NQM=        0 NQMF=       0 NMMI=      0 NMMIF=      0
                NMic=      14 NMicF=      0.
                    Isotopes and Nuclear Properties:
 (Nuclear quadrupole moments (NQMom) in fm**2, nuclear magnetic moments (NMagM)
  in nuclear magnetons)

  Atom         1           2           3           4           5           6           7           8           9          10
 IAtWgt=          12           1           1           1          12           1           1          12           1           1
 AtmWgt=  12.0000000   1.0078250   1.0078250   1.0078250  12.0000000   1.0078250   1.0078250  12.0000000   1.0078250   1.0078250
 NucSpn=           0           1           1           1           0           1           1           0           1           1
 AtZEff=  -0.0000000  -0.0000000  -0.0000000  -0.0000000  -0.0000000  -0.0000000  -0.0000000  -0.0000000  -0.0000000  -0.0000000
 NQMom=    0.0000000   0.0000000   0.0000000   0.0000000   0.0000000   0.0000000   0.0000000   0.0000000   0.0000000   0.0000000
 NMagM=    0.0000000   2.7928460   2.7928460   2.7928460   0.0000000   2.7928460   2.7928460   0.0000000   2.7928460   2.7928460
 AtZNuc=   6.0000000   1.0000000   1.0000000   1.0000000   6.0000000   1.0000000   1.0000000   6.0000000   1.0000000   1.0000000

  Atom        11          12          13          14
 IAtWgt=          12           1           1           1
 AtmWgt=  12.0000000   1.0078250   1.0078250   1.0078250
 NucSpn=           0           1           1           1
 AtZEff=  -0.0000000  -0.0000000  -0.0000000  -0.0000000
 NQMom=    0.0000000   0.0000000   0.0000000   0.0000000
 NMagM=    0.0000000   2.7928460   2.7928460   2.7928460
 AtZNuc=   6.0000000   1.0000000   1.0000000   1.0000000
 Generating MM parameters.
 Read MM parameter file:
 Define C3         1
 Include all MM classes

 MM sanity checks:
 All charges sum to:                0.00000100
 Charges of atoms sum to:           0.00000100
 WARNING -- The following centers have non-zero partial charges, but zero Vanderwaals
 parameters.  These centers can collapse onto other centers with non-zero charge.
   Center  Layer   Charge
      1 C    R   -0.646624
      5 C    R   -0.406786
      8 C    R   -0.406821
     11 C    R   -0.646584
 MMInit generated parameter data with length LenPar=        2717.
 MM Charge=              0.0000 electrons
 MM Dipole moment (Debye):
    X=             -0.0000    Y=             -0.0000    Z=              0.1803  Tot=              0.1803
 MM Quadrupole moment (Debye-Ang):
   XX=              7.0978   YY=              7.7660   ZZ=              8.0217
   XY=             -0.5829   XZ=             -0.0000   YZ=             -0.0000
 MM Traceless Quadrupole moment (Debye-Ang):
   XX=             -0.5307   YY=              0.1375   ZZ=              0.3932
   XY=             -0.5829   XZ=             -0.0000   YZ=             -0.0000
 MM Octapole moment (Debye-Ang**2):
  XXX=             -0.0001  YYY=              0.0001  ZZZ=              0.6532  XYY=              0.0001
  XXY=              0.0001  XXZ=              0.7272  XZZ=             -0.0001  YZZ=              0.0001
  YYZ=             -1.8060  XYZ=              0.0224
 MM Hexadecapole moment (Debye-Ang**3):
 XXXX=             18.0007 YYYY=             53.8981 ZZZZ=             21.5995 XXXY=             -9.8326
 XXXZ=              0.0000 YYYX=            -14.7030 YYYZ=             -0.0002 ZZZX=              0.0002
 ZZZY=             -0.0003 XXYY=             16.3255 XXZZ=              5.8138 YYZZ=             10.3254
 XXYZ=             -0.0000 YYXZ=             -0.0000 ZZXY=             -4.5156
 Leave Link  101 at Sat Aug 15 12:20:55 2026, MaxMem=   134217728 cpu:               0.3 elap:               0.3
 (Enter /home/emanuele/chem_software/gaussian//gdv/l103.exe)

 GradGradGradGradGradGradGradGradGradGradGradGradGradGradGradGradGradGrad
 Berny optimization.
 Initialization pass.
 No Z-matrix variables, so optimization will use Cartesian coordinates.
 Trust Radius=1.00D-01 FncErr=1.00D-07 GrdErr=1.00D-07 EigMax=2.50D+02 EigMin=1.00D-04
 Number of steps in this run=      2 maximum allowed number of steps=      2.
 GradGradGradGradGradGradGradGradGradGradGradGradGradGradGradGradGradGrad

 Leave Link  103 at Sat Aug 15 12:20:55 2026, MaxMem=   134217728 cpu:               0.0 elap:               0.0
 (Enter /home/emanuele/chem_software/gaussian//gdv/l202.exe)
                          Input orientation:                          
 ---------------------------------------------------------------------
 Center     Atomic      Atomic             Coordinates (Angstroms)
 Number     Number       Type             X           Y           Z
 ---------------------------------------------------------------------
      1          6    90000001       -0.586838    1.436978   -0.566964
      2          1    20001037       -1.380948    2.181498   -0.480955
      3          1    20001037       -0.741117    0.896584   -1.502852
      4          1    20001037        0.366163    1.968936   -0.639975
      5          6    90000001       -0.586838    0.491947    0.635348
      6          1    20001037       -1.526348   -0.071004    0.657687
      7          1    20001037       -0.554528    1.082342    1.555793
      8          6    90000001        0.586838   -0.491947    0.635348
      9          1    20001037        1.526348    0.071004    0.657687
     10          1    20001037        0.554528   -1.082342    1.555793
     11          6    90000001        0.586838   -1.436978   -0.566964
     12          1    20001037        1.380948   -2.181498   -0.480955
     13          1    20001037       -0.366163   -1.968936   -0.639975
     14          1    20001037        0.741117   -0.896584   -1.502852
 ---------------------------------------------------------------------
                    Distance matrix (angstroms):
                    1          2          3          4          5
     1  C    0.000000
     2  H    1.091933   0.000000
     3  H    1.091657   1.762005   0.000000
     4  H    1.093856   1.767163   1.766512   0.000000
     5  C    1.529261   2.175161   2.181612   2.171671   0.000000
     6  H    2.157883   2.528124   2.494142   3.070322   1.095487
     7  H    2.152419   2.457531   3.069956   2.540692   1.093997
     8  C    2.558089   3.502231   2.874610   2.780484   1.531523
     9  H    2.798430   3.768695   3.238967   2.575287   2.154820
    10  H    3.486515   4.306630   3.866543   3.763931   2.151353
    11  C    3.104374   4.119824   2.843389   3.413836   2.558089
    12  H    4.119824   5.163701   3.875825   4.275649   3.502231
    13  H    3.413836   4.275649   3.016016   4.005389   2.780484
    14  H    2.843389   3.875825   2.326471   3.016016   2.874610
                    6          7          8          9         10
     6  H    0.000000
     7  H    1.755345   0.000000
     8  C    2.154820   2.151353   0.000000
     9  H    3.055997   2.481823   1.095487   0.000000
    10  H    2.481823   2.432255   1.093997   1.755345   0.000000
    11  C    2.798430   3.486515   1.529261   2.157883   2.152419
    12  H    3.768695   4.306630   2.175161   2.528124   2.457531
    13  H    2.575287   3.763931   2.171671   3.070322   2.540692
    14  H    3.238967   3.866543   2.181612   2.494142   3.069956
                   11         12         13         14
    11  C    0.000000
    12  H    1.091933   0.000000
    13  H    1.093856   1.767163   0.000000
    14  H    1.091657   1.762005   1.766512   0.000000
 Symmetry turned off by external request.
 Stoichiometry    C4H10
 Framework group  C2[X(C4H10)]
 Deg. of freedom    19
 Full point group                 C2      NOp   2
 Rotational constants (GHZ):          13.0604814           4.8673063           4.1051409
 Leave Link  202 at Sat Aug 15 12:20:55 2026, MaxMem=   134217728 cpu:               0.0 elap:               0.0
 (Enter /home/emanuele/chem_software/gaussian//gdv/l301.exe)
 Standard basis: Dummy (5D, 7F)
    14 basis functions,    14 primitive gaussians,    14 cartesian basis functions
     9 alpha electrons        9 beta electrons
       nuclear repulsion energy        37.1103129954 Hartrees.
 IExCor=       0 DFT=F Ex=HF Corr=None N6=None ScaHFX=  1.000000
 ScaDFX=  1.000000  1.000000  1.000000  1.000000  1.000000  0.000000
 ScaDFX=  0.000000  0.000000  0.000000  0.000000  0.000000  0.000000
 IRadAn=      5 IRanWt=     -1 IRanGd=            0 ICorTp=0 IEmpDi=  4
 NAtoms=   14 NActive=   14 NUniq=   14 SFac= 1.00D+00 NAtFMM=   60 NAOKFM=F Big=F
 Integral buffers will be    131072 words long.
 Raffenetti 1 integral format.
 Two-electron integral symmetry is turned off.
 Leave Link  301 at Sat Aug 15 12:20:55 2026, MaxMem=   134217728 cpu:               0.0 elap:               0.0
 (Enter /home/emanuele/chem_software/gaussian//gdv/l402.exe)
 AMBER calculation of energy and first derivatives.
 NRF= 0 NRA=   0 NVA=  14 HaveQM=F NVQ=       0
 Convergence limit is  0.750E-04 MaxStp=  2000 StMxLn= 3.00D-04 StpMin= 1.00D-06.
 Convergence criteria             0.00011250 0.00007500 0.00045000 0.00030000
  Step  NS  ND Rises OKQ   Scale  Max. Force  RMS Force Max. Disp.  RMS Disp.     Energy   Flag
     1   0   0   F    T  1.00D+00 0.00654087 0.00232556 0.00654087 0.00232556    0.0407952 ----
     2   0   0   F    F  5.54D-01 0.00654087 0.00232556 0.00362099 0.00128742    0.0406412 ----
     3   0   0   F    T  2.37D+00 0.00200121 0.00132542 0.00621842 0.00361298    0.0406188 ----
     4   0   0   F    F  2.61D+00 0.00200121 0.00132542 0.01622513 0.00942701    0.0404681 ----
     5   0   0   F    T  4.22D+00 0.00320989 0.00172002 0.02188276 0.01303999    0.0403027 ----
     6   0   0   F    F -3.84D-01 0.00320989 0.00172002 0.00840220 0.00500689    0.0402040 ----
     7   0   0   F    T  2.98D+00 0.00382013 0.00147521 0.01680264 0.00803310    0.0401410 ----
     8   0   0   F    F  4.13D-01 0.00382013 0.00147521 0.00694027 0.00331805    0.0399653 ----
     9   0   0   F    T  3.69D+00 0.00336767 0.00147273 0.02513068 0.01135114    0.0399489 ----
    10   0   0   F    F  6.04D-01 0.00336767 0.00147273 0.01518096 0.00685701    0.0397177 ----
    11   0   0   F    T  5.13D+00 0.00283974 0.00149587 0.03961973 0.01820815    0.0396796 ----
    12   0   0   F    F  1.11D-01 0.00283974 0.00149587 0.00441159 0.00202745    0.0394116 ----
    13   0   0   F    T  1.97D+00 0.00790860 0.00251164 0.04390740 0.02023560    0.0394088 ----
    14   0   0   F    F  9.25D-01 0.00790860 0.00251164 0.04060539 0.01871380    0.0390186 ----
    15   0   0   F    F -7.85D-03 0.00790860 0.00251164 0.00031863 0.00014685    0.0389001 --++
    16   0   0   F    T  1.93D+01 0.00259903 0.00130437 0.07489958 0.03880255    0.0389001 ----
    17   0   0   T    F  3.84D-01 0.00259903 0.00130437 0.02873005 0.01488392    0.0393105 ----
    18   0   0   F    T  2.48D+00 0.00574832 0.00217625 0.02829529 0.01488392    0.0386360 ----
    19   0   0   F    F -5.46D-02 0.00574832 0.00217625 0.00154581 0.00081313    0.0384044 ----
    20   0   0   F    T  1.31D+01 0.00189243 0.00075086 0.04358706 0.01407079    0.0384036 ----
    21   0   0   T    F  3.45D-01 0.00189243 0.00075086 0.01503190 0.00485260    0.0385436 ----
    22   0   0   F    T  2.53D+00 0.00276598 0.00093728 0.01426177 0.00485260    0.0383502 ----
    23   0   0   F    F  7.27D-02 0.00276598 0.00093728 0.00103745 0.00035300    0.0383003 ----
    24   0   0   F    T  7.62D+00 0.00117995 0.00047872 0.01160016 0.00520560    0.0383001 ----
    25   0   0   T    F  4.06D-01 0.00117995 0.00047872 0.00470598 0.00211182    0.0383171 ----
    26   0   0   F    T  4.83D+00 0.00077542 0.00031764 0.00399527 0.00211182    0.0382852 ----
    27   0   0   F    F -1.72D-01 0.00077542 0.00031764 0.00068537 0.00036227    0.0382771 ----
    28   0   0   F    T  2.67D+00 0.00085468 0.00035603 0.00357167 0.00174955    0.0382767 ----
    29   0   0   F    T  4.38D+00 0.00053504 0.00024809 0.00339880 0.00174955    0.0382695 ----
    30   0   0   F    F  1.74D+00 0.00053504 0.00024809 0.00592245 0.00304861    0.0382601 ----
    31   0   0   F    T  6.11D+00 0.00075750 0.00032836 0.00781516 0.00479816    0.0382537 ----
    32   0   0   T    F  3.12D-01 0.00075750 0.00032836 0.00243802 0.00149683    0.0382705 ----
    33   0   0   F    T  3.29D+00 0.00039895 0.00023278 0.00327442 0.00149683    0.0382494 ----
    34   0   0   F    F  3.79D+00 0.00039895 0.00023278 0.01239563 0.00566641    0.0382427 ----
    35   0   0   F    T  5.14D+00 0.00089733 0.00039947 0.01440655 0.00716325    0.0382315 ----
    36   0   0   T    F  3.25D-01 0.00089733 0.00039947 0.00468470 0.00232933    0.0382500 ----
    37   0   0   F    T  6.81D+00 0.00034505 0.00018140 0.00594883 0.00232933    0.0382259 ----
    38   0   0   F    F  3.75D-01 0.00034505 0.00018140 0.00223184 0.00087390    0.0382199 ----
    39   0   0   F    T  7.54D+00 0.00066324 0.00019132 0.00808440 0.00320323    0.0382194 ----
    40   0   0   T    F  3.28D-01 0.00066324 0.00019132 0.00264911 0.00104964    0.0382255 ----
    41   0   0   F    T  3.20D+00 0.00033704 0.00015795 0.00210803 0.00104964    0.0382175 ----
    42   0   0   F    T  6.05D+00 0.00027145 0.00010627 0.00189755 0.00104964    0.0382158 ----
    43   0   0   F    F -4.32D-01 0.00027145 0.00010627 0.00081939 0.00045325    0.0382154 ----
    44   0   0   F    T  4.39D+00 0.00017937 0.00008035 0.00120219 0.00059639    0.0382149 ----
    45   0   0   F    F  7.85D-01 0.00017937 0.00008035 0.00094386 0.00046824    0.0382141 ----
    46   0   0   F    T  1.65D+00 0.00046174 0.00017306 0.00217962 0.00106463    0.0382138 ----
    47   0   0   F    F  4.47D+00 0.00046174 0.00017306 0.00973817 0.00475657    0.0382120 ----
    48   0   0   F    T  3.64D+00 0.00066734 0.00027005 0.01209723 0.00582120    0.0382082 ----
    49   0   0   F    F -2.45D-01 0.00066734 0.00027005 0.00296392 0.00142624    0.0382044 ----
    50   0   0   F    T  7.18D+00 0.00048313 0.00016420 0.00970445 0.00439496    0.0382040 ----
    51   0   0   F    F -2.85D-01 0.00048313 0.00016420 0.00276512 0.00125227    0.0382015 ----
    52   0   0   F    T  2.27D+00 0.00065351 0.00024567 0.00713137 0.00314269    0.0382010 ----
    53   0   0   F    F  1.13D+00 0.00065351 0.00024567 0.00808376 0.00356239    0.0381966 ----
    54   0   0   F    T  7.52D+00 0.00050905 0.00019689 0.01488398 0.00670509    0.0381949 ----
    55   0   0   F    F -4.40D-01 0.00050905 0.00019689 0.00654428 0.00294814    0.0381936 ----
    56   0   0   F    T  5.85D+00 0.00040239 0.00016502 0.00779433 0.00375695    0.0381915 ----
    57   0   0   F    F -4.70D-01 0.00040239 0.00016502 0.00366402 0.00176609    0.0381911 ----
    58   0   0   F    T  2.79D+00 0.00047796 0.00017128 0.00450959 0.00199086    0.0381897 ----
    59   0   0   F    F  5.99D-01 0.00047796 0.00017128 0.00270077 0.00119231    0.0381873 ----
    60   0   0   F    T  7.18D+00 0.00036246 0.00013087 0.00674469 0.00318317    0.0381870 ----
    61   0   0   F    F -3.53D-01 0.00036246 0.00013087 0.00238264 0.00112449    0.0381858 ----
    62   0   0   F    T  8.03D+00 0.00024885 0.00009596 0.00534041 0.00205868    0.0381853 ----
    63   0   0   F    F -4.96D-01 0.00024885 0.00009596 0.00265024 0.00102164    0.0381853 ----
    64   0   0   F    T  3.16D+00 0.00032304 0.00010576 0.00291021 0.00103704    0.0381845 ----
    65   0   0   F    T  3.57D+00 0.00020526 0.00009711 0.00314774 0.00103704    0.0381838 ----
    66   0   0   F    F  6.51D-01 0.00020526 0.00009711 0.00204793 0.00067470    0.0381828 ----
    67   0   0   F    T  3.26D+00 0.00036152 0.00012766 0.00519104 0.00171173    0.0381826 ----
    68   0   0   F    F  3.22D-01 0.00036152 0.00012766 0.00166961 0.00055055    0.0381812 ----
    69   0   0   F    T  5.91D+00 0.00024248 0.00010724 0.00655557 0.00226229    0.0381811 ----
    70   0   0   F    F -3.55D-01 0.00024248 0.00010724 0.00232777 0.00080330    0.0381805 ----
    71   0   0   F    T  2.43D+00 0.00040500 0.00013267 0.00405526 0.00145899    0.0381802 ----
    72   0   0   F    F  8.26D-01 0.00040500 0.00013267 0.00334848 0.00120471    0.0381789 ----
    73   0   0   F    T  1.34D+01 0.00017000 0.00007367 0.00675599 0.00266370    0.0381786 -+--
    74   0   0   T    F  1.79D-01 0.00017000 0.00007367 0.00120987 0.00047702    0.0381840 -+--
    75   0   0   F    T  3.80D+00 0.00011619 0.00005545 0.00107907 0.00047702    0.0381783 -+--
    76   0   0   F    T  4.11D+00 0.00009689 0.00005427 0.00117444 0.00047702    0.0381780 ++--
    77   0   0   F    F  3.09D-01 0.00009689 0.00005427 0.00036253 0.00014725    0.0381776 ++++
    78   0   0   F    T  7.30D+00 0.00009243 0.00003343 0.00160322 0.00062426    0.0381776 ++--
    79   0   0   T    F  4.18D-01 0.00009243 0.00003343 0.00067042 0.00026105    0.0381777 ++-+
    80   0   0   F    T  5.56D+00 0.00007991 0.00002505 0.00057009 0.00026105    0.0381775 ++-+
    81   0   0   T    T  1.00D+00 0.00018481 0.00005872 0.00018481 0.00005872    0.0381776 -+++
    82   0   0   T    F  5.00D-01 0.00018481 0.00005872 0.00009241 0.00002936    0.0381776 -+++
    83   0   0   T    F  5.00D-01 0.00018481 0.00005872 0.00004620 0.00001468    0.0381776 -+++
    84   0   0   T    F  5.00D-01 0.00018481 0.00005872 0.00002310 0.00000734    0.0381776 -+++
    85   0   0   T    F  5.00D-01 0.00018481 0.00005872 0.00001155 0.00000367    0.0381776 -+++
    86   0   0   T    F  5.00D-01 0.00018481 0.00005872 0.00000578 0.00000184    0.0381775 -+++
    87   0   0   T    F  5.00D-01 0.00018481 0.00005872 0.00000289 0.00000092    0.0381775 -+++
    88   0   0   T    F  5.00D-01 0.00018481 0.00005872 0.00000144 0.00000046    0.0381775 -+++
    89   0   0   T    F  5.00D-01 0.00018481 0.00005872 0.00000072 0.00000023    0.0381775 -+++
    90   0   0   T    T  1.00D+00 0.00008047 0.00002520 0.00003937 0.00001579    0.0381775 ++++
    91   0   0   F    T  1.00D+00 0.00006984 0.00002217 0.00007116 0.00002216    0.0381775 ====
 ****************************
 MOLECULAR MECHANICS FUNCTION
 ****************************
 Atomic parameters:
 Center  VDW
      1 0.0000 0.0000000
      2 1.1870 0.0157000
      3 1.1870 0.0157000
      4 1.1870 0.0157000
      5 0.0000 0.0000000
      6 1.1870 0.0157000
      7 1.1870 0.0157000
      8 0.0000 0.0000000
      9 1.1870 0.0157000
     10 1.1870 0.0157000
     11 0.0000 0.0000000
     12 1.1870 0.0157000
     13 1.1870 0.0157000
     14 1.1870 0.0157000
 Molecular mechanics terms:
 NBDir 3 1      0      0
 HrmStr1  1- 2  389.26 1.0930
 HrmStr1  1- 3  389.26 1.0930
 HrmStr1  1- 4  389.26 1.0930
 HrmStr1  1- 5  318.88 1.5300
 HrmStr1  5- 6  389.26 1.0930
 HrmStr1  5- 7  389.26 1.0930
 HrmStr1  5- 8  318.88 1.5300
 HrmStr1  8- 9  389.26 1.0930
 HrmStr1  8-10  389.26 1.0930
 HrmStr1  8-11  318.88 1.5300
 HrmStr1 11-12  389.26 1.0930
 HrmStr1 11-13  389.26 1.0930
 HrmStr1 11-14  389.26 1.0930
 HrmBnd1  1- 5- 6  39.43 110.00
 HrmBnd1  1- 5- 7  39.43 110.00
 HrmBnd1  1- 5- 8  44.29 113.39
 HrmBnd1  2- 1- 3  34.87 107.48
 HrmBnd1  2- 1- 4  34.87 107.48
 HrmBnd1  5- 1- 2  39.43 110.00
 HrmBnd1  3- 1- 4  34.87 107.48
 HrmBnd1  5- 1- 3  39.43 110.00
 HrmBnd1  5- 1- 4  39.43 110.00
 HrmBnd1  5- 8- 9  39.43 110.00
 HrmBnd1  5- 8-10  39.43 110.00
 HrmBnd1  5- 8-11  44.29 113.39
 HrmBnd1  6- 5- 7  34.87 107.48
 HrmBnd1  8- 5- 6  39.43 110.00
 HrmBnd1  8- 5- 7  39.43 110.00
 HrmBnd1  8-11-12  39.43 110.00
 HrmBnd1  8-11-13  39.43 110.00
 HrmBnd1  8-11-14  39.43 110.00
 HrmBnd1  9- 8-10  34.87 107.48
 HrmBnd1 11- 8- 9  39.43 110.00
 HrmBnd1 11- 8-10  39.43 110.00
 HrmBnd1 12-11-13  34.87 107.48
 HrmBnd1 12-11-14  34.87 107.48
 HrmBnd1 13-11-14  34.87 107.48
 AmbTrs  2- 1- 5- 6   0   0   0   0  0.0000  0.7500  2.6100  0.0000  9.0
 AmbTrs  2- 1- 5- 7   0   0   0   0  0.0000  0.7500  2.6100  0.0000  9.0
 AmbTrs  8- 5- 1- 2   0   0   0   0  0.0000  0.7500  2.6100  0.0000  9.0
 AmbTrs  3- 1- 5- 6   0   0   0   0  0.0000  0.7500  2.6100  0.0000  9.0
 AmbTrs  3- 1- 5- 7   0   0   0   0  0.0000  0.7500  2.6100  0.0000  9.0
 AmbTrs  8- 5- 1- 3   0   0   0   0  0.0000  0.7500  2.6100  0.0000  9.0
 AmbTrs  4- 1- 5- 6   0   0   0   0  0.0000  0.7500  2.6100  0.0000  9.0
 AmbTrs  4- 1- 5- 7   0   0   0   0  0.0000  0.7500  2.6100  0.0000  9.0
 AmbTrs  8- 5- 1- 4   0   0   0   0  0.0000  0.7500  2.6100  0.0000  9.0
 AmbTrs  1- 5- 8- 9   0   0   0   0  0.0000  0.7500  2.6100  0.0000  9.0
 AmbTrs  1- 5- 8-10   0   0   0   0  0.0000  0.7500  2.6100  0.0000  9.0
 AmbTrs  1- 5- 8-11   0   0   0   0  0.0000  0.0000  3.6200  0.0000  9.0
 AmbTrs  6- 5- 8- 9   0   0   0   0  0.0000  0.7500  2.6100  0.0000  9.0
 AmbTrs  6- 5- 8-10   0   0   0   0  0.0000  0.7500  2.6100  0.0000  9.0
 AmbTrs 11- 8- 5- 6   0   0   0   0  0.0000  0.7500  2.6100  0.0000  9.0
 AmbTrs  7- 5- 8- 9   0   0   0   0  0.0000  0.7500  2.6100  0.0000  9.0
 AmbTrs  7- 5- 8-10   0   0   0   0  0.0000  0.7500  2.6100  0.0000  9.0
 AmbTrs 11- 8- 5- 7   0   0   0   0  0.0000  0.7500  2.6100  0.0000  9.0
 AmbTrs  5- 8-11-12   0   0   0   0  0.0000  0.7500  2.6100  0.0000  9.0
 AmbTrs  5- 8-11-13   0   0   0   0  0.0000  0.7500  2.6100  0.0000  9.0
 AmbTrs  5- 8-11-14   0   0   0   0  0.0000  0.7500  2.6100  0.0000  9.0
 AmbTrs  9- 8-11-12   0   0   0   0  0.0000  0.7500  2.6100  0.0000  9.0
 AmbTrs  9- 8-11-13   0   0   0   0  0.0000  0.7500  2.6100  0.0000  9.0
 AmbTrs  9- 8-11-14   0   0   0   0  0.0000  0.7500  2.6100  0.0000  9.0
 AmbTrs 10- 8-11-12   0   0   0   0  0.0000  0.7500  2.6100  0.0000  9.0
 AmbTrs 10- 8-11-13   0   0   0   0  0.0000  0.7500  2.6100  0.0000  9.0
 AmbTrs 10- 8-11-14   0   0   0   0  0.0000  0.7500  2.6100  0.0000  9.0
 NBPair  2- 1 3 1      0      0 -1.000 -1.000
 NBPair  3- 2 3 1      0      0 -1.000 -1.000
 NBPair  4- 2 3 1      0      0 -1.000 -1.000
 NBPair  5- 2 3 1      0      0 -1.000 -1.000
 NBPair  3- 1 3 1      0      0 -1.000 -1.000
 NBPair  4- 3 3 1      0      0 -1.000 -1.000
 NBPair  5- 3 3 1      0      0 -1.000 -1.000
 NBPair  4- 1 3 1      0      0 -1.000 -1.000
 NBPair  5- 4 3 1      0      0 -1.000 -1.000
 NBPair  5- 1 3 1      0      0 -1.000 -1.000
 NBPair  6- 2 3 1      0      0 -0.500 -0.167
 NBPair  7- 2 3 1      0      0 -0.500 -0.167
 NBPair  8- 2 3 1      0      0 -0.500 -0.167
 NBPair  6- 3 3 1      0      0 -0.500 -0.167
 NBPair  7- 3 3 1      0      0 -0.500 -0.167
 NBPair  8- 3 3 1      0      0 -0.500 -0.167
 NBPair  6- 4 3 1      0      0 -0.500 -0.167
 NBPair  7- 4 3 1      0      0 -0.500 -0.167
 NBPair  8- 4 3 1      0      0 -0.500 -0.167
 NBPair  6- 1 3 1      0      0 -1.000 -1.000
 NBPair  7- 1 3 1      0      0 -1.000 -1.000
 NBPair  8- 1 3 1      0      0 -1.000 -1.000
 NBPair  6- 5 3 1      0      0 -1.000 -1.000
 NBPair  7- 6 3 1      0      0 -1.000 -1.000
 NBPair  8- 6 3 1      0      0 -1.000 -1.000
 NBPair  7- 5 3 1      0      0 -1.000 -1.000
 NBPair  8- 7 3 1      0      0 -1.000 -1.000
 NBPair  8- 5 3 1      0      0 -1.000 -1.000
 NBPair  9- 1 3 1      0      0 -0.500 -0.167
 NBPair 10- 1 3 1      0      0 -0.500 -0.167
 NBPair 11- 1 3 1      0      0 -0.500 -0.167
 NBPair  9- 6 3 1      0      0 -0.500 -0.167
 NBPair 10- 6 3 1      0      0 -0.500 -0.167
 NBPair 11- 6 3 1      0      0 -0.500 -0.167
 NBPair  9- 7 3 1      0      0 -0.500 -0.167
 NBPair 10- 7 3 1      0      0 -0.500 -0.167
 NBPair 11- 7 3 1      0      0 -0.500 -0.167
 NBPair  9- 5 3 1      0      0 -1.000 -1.000
 NBPair 10- 5 3 1      0      0 -1.000 -1.000
 NBPair 11- 5 3 1      0      0 -1.000 -1.000
 NBPair  9- 8 3 1      0      0 -1.000 -1.000
 NBPair 10- 9 3 1      0      0 -1.000 -1.000
 NBPair 11- 9 3 1      0      0 -1.000 -1.000
 NBPair 10- 8 3 1      0      0 -1.000 -1.000
 NBPair 11-10 3 1      0      0 -1.000 -1.000
 NBPair 11- 8 3 1      0      0 -1.000 -1.000
 NBPair 12- 5 3 1      0      0 -0.500 -0.167
 NBPair 13- 5 3 1      0      0 -0.500 -0.167
 NBPair 14- 5 3 1      0      0 -0.500 -0.167
 NBPair 12- 9 3 1      0      0 -0.500 -0.167
 NBPair 13- 9 3 1      0      0 -0.500 -0.167
 NBPair 14- 9 3 1      0      0 -0.500 -0.167
 NBPair 12-10 3 1      0      0 -0.500 -0.167
 NBPair 13-10 3 1      0      0 -0.500 -0.167
 NBPair 14-10 3 1      0      0 -0.500 -0.167
 NBPair 12- 8 3 1      0      0 -1.000 -1.000
 NBPair 13- 8 3 1      0      0 -1.000 -1.000
 NBPair 14- 8 3 1      0      0 -1.000 -1.000
 NBPair 12-11 3 1      0      0 -1.000 -1.000
 NBPair 13-12 3 1      0      0 -1.000 -1.000
 NBPair 14-12 3 1      0      0 -1.000 -1.000
 NBPair 13-11 3 1      0      0 -1.000 -1.000
 NBPair 14-13 3 1      0      0 -1.000 -1.000
 NBPair 14-11 3 1      0      0 -1.000 -1.000
 Energy per function type:
 Direct Coulomb + vdW (small)                           0.004568092
 Direct Coulomb (large)                                -0.404578727
 Direct vdW (large)                                     0.000000000
 Non-direct Coulomb + vdW (small)                       0.003314550
 Non-direct Coulomb (large)                             0.429482473
 Non-direct vdW (large)                                 0.000000000
 Harmonic stretch I                                     0.000143351
 Harmonic bend I                                        0.001561203
 Amber torsion                                          0.003686593
 Energy per function class:
        Coulomb               0.032841004
    Vanderwaals              -0.000054616
     Stretching               0.000143351
        Bending               0.001561203
        Torsion               0.003686593
 Energy=    3.817753424E-02 NIter=   0.
 Dipole moment=      -0.000044      -0.000027       0.011463
 Leave Link  402 at Sat Aug 15 12:20:55 2026, MaxMem=   134217728 cpu:               0.2 elap:               0.2
 (Enter /home/emanuele/chem_software/gaussian//gdv/l716.exe)
 Dipole        =-4.42162078D-05-2.73398690D-05 1.14627108D-02
 -------------------------------------------------------------------
 Center     Atomic                   Forces (Hartrees/Bohr)
 Number     Number              X              Y              Z
 -------------------------------------------------------------------
      1        6          -0.000002638   -0.000032108   -0.000040417
      2        1          -0.000005927    0.000013872   -0.000015968
      3        1           0.000011574   -0.000012405    0.000012764
      4        1           0.000016506    0.000012718    0.000012547
      5        6          -0.000003283   -0.000007796    0.000069837
      6        1           0.000042450    0.000010547   -0.000013051
      7        1          -0.000008653   -0.000012549   -0.000025863
      8        6          -0.000027548    0.000001150    0.000066622
      9        1          -0.000017422    0.000001799   -0.000011778
     10        1           0.000011557    0.000009524   -0.000023469
     11        6           0.000004337    0.000008118   -0.000024815
     12        1           0.000000941   -0.000008222   -0.000017413
     13        1          -0.000011893   -0.000008043    0.000012870
     14        1          -0.000010001    0.000023396   -0.000001866
 -------------------------------------------------------------------
 Cartesian Forces:  Max     0.000069837 RMS     0.000022170
 Z-matrix is all fixed cartesians, so copy forces.
 Leave Link  716 at Sat Aug 15 12:20:55 2026, MaxMem=   134217728 cpu:               0.0 elap:               0.0
 (Enter /home/emanuele/chem_software/gaussian//gdv/l103.exe)

 GradGradGradGradGradGradGradGradGradGradGradGradGradGradGradGradGradGrad
 Berny optimization.
 Search for a local minimum.
 Step number   1 out of a maximum of    2
 All quantities printed in internal units (Hartrees-Bohrs-Radians)
 RMS Force = .22170D-04 SwitMx=.10000D-02 MixMth= 2
 Mixed Optimization -- En-DIIS/RFO-DIIS
 Second derivative matrix not updated -- unit matrix used.
 ITU=  0
 RFO step:  Lambda=-2.06439950D-08 EMin= 1.00000000D+00
 Linear search not attempted -- first point.
 Variable       Old X    -DE/DX   Delta X   Delta X   Delta X     New X
                                 (Linear)    (Quad)   (Total)
    X1       -1.00691  -0.00000   0.00000  -0.00000  -0.00000  -1.00692
    Y1        2.49980  -0.00003   0.00000  -0.00003  -0.00003   2.49977
    Z1       -1.10888  -0.00004   0.00000  -0.00004  -0.00004  -1.10893
    X2       -2.52819  -0.00001   0.00000  -0.00001  -0.00001  -2.52819
    Y2        3.89973   0.00001   0.00000   0.00001   0.00001   3.89975
    Z2       -1.18459  -0.00002   0.00000  -0.00002  -0.00002  -1.18460
    X3       -1.18254   0.00001   0.00000   0.00001   0.00001  -1.18253
    Y3        1.31231  -0.00001   0.00000  -0.00001  -0.00001   1.31229
    Z3       -2.78976   0.00001   0.00000   0.00001   0.00001  -2.78975
    X4        0.79087   0.00002   0.00000   0.00002   0.00002   0.79089
    Y4        3.51096   0.00001   0.00000   0.00001   0.00001   3.51097
    Z4       -1.25140   0.00001   0.00000   0.00001   0.00001  -1.25139
    X5       -1.12435  -0.00000   0.00000  -0.00000  -0.00000  -1.12436
    Y5        0.89505  -0.00001   0.00000  -0.00001  -0.00001   0.89504
    Z5        1.30057   0.00007   0.00000   0.00007   0.00007   1.30064
    X6       -2.89617   0.00004   0.00000   0.00004   0.00004  -2.89613
    Y6       -0.18357   0.00001   0.00000   0.00001   0.00001  -0.18356
    Z6        1.38735  -0.00001   0.00000  -0.00001  -0.00001   1.38734
    X7       -1.09654  -0.00001   0.00000  -0.00001  -0.00001  -1.09655
    Y7        2.08818  -0.00001   0.00000  -0.00001  -0.00001   2.08817
    Z7        3.00061  -0.00003   0.00000  -0.00003  -0.00003   3.00058
    X8        1.12439  -0.00003   0.00000  -0.00003  -0.00003   1.12436
    Y8       -0.89504   0.00000   0.00000   0.00000   0.00000  -0.89504
    Z8        1.30056   0.00007   0.00000   0.00007   0.00007   1.30063
    X9        2.89612  -0.00002   0.00000  -0.00002  -0.00002   2.89610
    Y9        0.18356   0.00000   0.00000   0.00000   0.00000   0.18356
    Z9        1.38734  -0.00001   0.00000  -0.00001  -0.00001   1.38733
   X10        1.09653   0.00001   0.00000   0.00001   0.00001   1.09654
   Y10       -2.08817   0.00001   0.00000   0.00001   0.00001  -2.08816
   Z10        3.00059  -0.00002   0.00000  -0.00002  -0.00002   3.00057
   X11        1.00692   0.00000   0.00000   0.00000   0.00000   1.00692
   Y11       -2.49977   0.00001   0.00000   0.00001   0.00001  -2.49976
   Z11       -1.10891  -0.00002   0.00000  -0.00002  -0.00002  -1.10893
   X12        2.52820   0.00000   0.00000   0.00000   0.00000   2.52820
   Y12       -3.89973  -0.00001   0.00000  -0.00001  -0.00001  -3.89974
   Z12       -1.18458  -0.00002   0.00000  -0.00002  -0.00002  -1.18460
   X13       -0.79087  -0.00001   0.00000  -0.00001  -0.00001  -0.79088
   Y13       -3.51097  -0.00001   0.00000  -0.00001  -0.00001  -3.51098
   Z13       -1.25141   0.00001   0.00000   0.00001   0.00001  -1.25140
   X14        1.18254  -0.00001   0.00000  -0.00001  -0.00001   1.18253
   Y14       -1.31233   0.00002   0.00000   0.00002   0.00002  -1.31231
   Z14       -2.78976  -0.00000   0.00000  -0.00000  -0.00000  -2.78976
         Item               Value     Threshold  Converged?
 Maximum Force            0.000070     0.000450     YES
 RMS     Force            0.000022     0.000300     YES
 Maximum Displacement     0.000070     0.001800     YES
 RMS     Displacement     0.000022     0.001200     YES
 Predicted change in Energy=-1.032200D-08
 Optimization completed.
    -- Stationary point found.
 Largest change from initial coordinates is atom    3       0.234 Angstoms.
 GradGradGradGradGradGradGradGradGradGradGradGradGradGradGradGradGradGrad

 Leave Link  103 at Sat Aug 15 12:20:55 2026, MaxMem=   134217728 cpu:               0.0 elap:               0.0
 (Enter /home/emanuele/chem_software/gaussian//gdv/l202.exe)
                          Input orientation:                          
 ---------------------------------------------------------------------
 Center     Atomic      Atomic             Coordinates (Angstroms)
 Number     Number       Type             X           Y           Z
 ---------------------------------------------------------------------
      1          6    90000001       -0.532836    1.322837   -0.586797
      2          1    20001037       -1.337858    2.063650   -0.626856
      3          1    20001037       -0.625773    0.694443   -1.476279
      4          1    20001037        0.418512    1.857919   -0.662214
      5          6    90000001       -0.594983    0.473638    0.688233
      6          1    20001037       -1.532588   -0.097139    0.734156
      7          1    20001037       -0.580263    1.105020    1.587855
      8          6    90000001        0.595003   -0.473637    0.688227
      9          1    20001037        1.532562    0.097135    0.734150
     10          1    20001037        0.580258   -1.105011    1.587846
     11          6    90000001        0.532838   -1.322823   -0.586809
     12          1    20001037        1.337864   -2.063649   -0.626852
     13          1    20001037       -0.418509   -1.857928   -0.662218
     14          1    20001037        0.625775   -0.694456   -1.476277
 ---------------------------------------------------------------------
                    Distance matrix (angstroms):
                    1          2          3          4          5
     1  C    0.000000
     2  H    1.094746   0.000000
     3  H    1.093022   1.761622   0.000000
     4  H    1.094104   1.768731   1.762643   0.000000
     5  C    1.533200   2.193048   2.175963   2.183372   0.000000
     6  H    2.181915   2.561109   2.516931   3.094979   1.098636
     7  H    2.186047   2.529400   3.091854   2.574338   1.099172
     8  C    2.474878   3.450104   2.745868   2.700184   1.520985
     9  H    2.741005   3.736151   3.146614   2.508246   2.161089
    10  H    3.444197   4.315609   3.752520   3.723961   2.163938
    11  C    2.852223   3.869018   2.490561   3.183689   2.474870
    12  H    3.869032   4.918748   3.490626   4.028046   3.450097
    13  H    3.183712   4.028054   2.687052   3.808952   2.700196
    14  H    2.490588   3.490633   1.869602   2.687057   2.745869
                    6          7          8          9         10
     6  H    0.000000
     7  H    1.755252   0.000000
     8  C    2.161135   2.163963   0.000000
     9  H    3.071301   2.491720   1.098593   0.000000
    10  H    2.491729   2.496206   1.099166   1.755231   0.000000
    11  C    2.741028   3.444209   1.533198   2.181894   2.186051
    12  H    3.736175   4.315622   2.193037   2.561097   2.529395
    13  H    2.508269   3.723983   2.183385   3.094962   2.574337
    14  H    3.146639   3.752538   2.175956   2.516916   3.091841
                   11         12         13         14
    11  C    0.000000
    12  H    1.094757   0.000000
    13  H    1.094113   1.768733   0.000000
    14  H    1.092994   1.761614   1.762636   0.000000
 Symmetry turned off by external request.
 Stoichiometry    C4H10
 Framework group  C1[X(C4H10)]
 Deg. of freedom    36
 Full point group                 C1      NOp   1
 Rotational constants (GHZ):          12.0847916           5.5023057           4.4453996
 Leave Link  202 at Sat Aug 15 12:20:55 2026, MaxMem=   134217728 cpu:               0.0 elap:               0.0
 (Enter /home/emanuele/chem_software/gaussian//gdv/l9999.exe)
 Unable to Open any file for archive entry.
 1\1\GINC-EMANUELE-XPS-13-9343\FOpt\AMBER\ZDO\C4H10\EMANUELE\15-Aug-202
 6\0\\#p Amber=(SoftFirst,Print) nosymm geom=nocrowd opt(MaxMicroiterat
 ions=2000) Freq=intmodes\\Title\\0,1\C,-0.5328361166,1.3228370433,-0.5
 867965411\H,-1.3378583216,2.0636495986,-0.6268558984\H,-0.625773102,0.
 6944426823,-1.4762791897\H,0.4185116574,1.8579187371,-0.6622144196\C,-
 0.5949825333,0.4736381887,0.6882330159\H,-1.5325884641,-0.0971387125,0
 .7341561341\H,-0.5802627807,1.1050197971,1.5878547296\C,0.5950029017,-
 0.4736368583,0.6882265004\H,1.5325615513,0.0971354786,0.7341495522\H,0
 .5802578907,-1.1050105465,1.5878462639\C,0.5328376275,-1.3228228613,-0
 .5868092565\H,1.3378638984,-2.0636489011,-0.6268515593\H,-0.4185090712
 ,-1.8579275056,-0.6622183127\H,0.6257748624,-0.6944561404,-1.476277018
 9\\Version=ES64L-GDVRevJ.14\HF=0.0381775\RMSD=0.000e+00\RMSF=2.217e-05
 \Dipole=-0.0000442,-0.0000273,0.0114627\PG=C01 [X(C4H10)]\\@
 The archive entry for this job was punched.


 UNLESS WE CHANGE DIRECTIONS, WE WILL WIND UP WHERE WE ARE HEADED.
     -- CONFUCIUS
 Leave Link 9999 at Sat Aug 15 12:20:55 2026, MaxMem=   134217728 cpu:               0.0 elap:               0.0
 Job cpu time:       0 days  0 hours  0 minutes  0.7 seconds.
 Elapsed time:       0 days  0 hours  0 minutes  0.6 seconds.
 File lengths (MBytes):  RWF=      6 Int=      0 D2E=      0 Chk=      1 Scr=      1
 Normal termination of Gaussian DV at Sat Aug 15 12:20:55 2026.
 (Enter /home/emanuele/chem_software/gaussian//gdv/l1.exe)
 Link1:  Proceeding to internal job step number  2.
 --------------------------------------------------------------
 #P Geom=AllCheck Guess=TCheck SCRF=Check GenChk AMBER/ZDO Freq
 --------------------------------------------------------------
 1/10=4,18=20,29=7,30=1,38=1,40=1,56=2,64=203,139=2000/1,3;
 2/9=110,12=1,15=1,40=1/2;
 3/5=30,11=9,14=-4,25=1,30=1,41=10030000,43=2,70=40000002,71=2,116=-2,140=1/1;
 4/20=11,22=2,24=3,120=2000/2;
 7/8=21,25=1,30=1,44=-1/16;
 1/10=4,18=20,30=1,64=203,139=2000/3;
 99//99;
 Leave Link    1 at Sat Aug 15 12:20:55 2026, MaxMem=   134217728 cpu:               0.0 elap:               0.0
 (Enter /home/emanuele/chem_software/gaussian//gdv/l101.exe)
 MM symbol table in CpMMST:
 There are    3 entries in the MM symbol table.
 Symbol    1 IAtTpT=           0 IUser=           0 String=*
 Symbol    2 IAtTpT=    90000001 IUser=           1 String=C3
 Symbol    3 IAtTpT=    20001037 IUser=           0 String=h3
 Structure from the checkpoint file:  "02_conf_010_hessfit.chk"
 -----
 Title
 -----
 Charge =  0 Multiplicity = 1
 No Z-Matrix found in chk file; cartesian coordinates used.
  C-C3--0.646624                                   -0.532836116567      1.322837043280     -0.586796541065
  H-H3-0.210695                                    -1.337858321626      2.063649598628     -0.626855898361
  H-H3-0.210038                                    -0.625773101998      0.694442682280     -1.476279189656
  H-H3-0.212760                                     0.418511657403      1.857918737119     -0.662214419565
  C-C3--0.406786                                   -0.594982533264      0.473638188730      0.688233015869
  H-H3-0.211064                                    -1.532588464074     -0.097138712510      0.734156134058
  H-H3-0.208865                                    -0.580262780691      1.105019797070      1.587854729602
  C-C3--0.406821                                    0.595002901704     -0.473636858297      0.688226500388
  H-H3-0.211063                                     1.532561551273      0.097135478605      0.734149552155
  H-H3-0.208870                                     0.580257890707     -1.105010546480      1.587846263948
  C-C3--0.646584                                    0.532837627544     -1.322822861311     -0.586809256526
  H-H3-0.210691                                     1.337863898353     -2.063648901115     -0.626851559283
  H-H3-0.212749                                    -0.418509071172     -1.857927505637     -0.662218312666
  H-H3-0.210021                                     0.625774862407     -0.694456140363     -1.476277018897
 Recover connectivity data from disk.
 ITRead=  0  0  0  0  0  0  0  0  0  0  0  0  0  0
 MicOpt= -1 -1 -1 -1 -1 -1 -1 -1 -1 -1 -1 -1 -1 -1
 NAtoms=     14 NQM=       14 NQMF=       0 NMMI=      0 NMMIF=      0
                NMic=       0 NMicF=      0.
                    Isotopes and Nuclear Properties:
 (Nuclear quadrupole moments (NQMom) in fm**2, nuclear magnetic moments (NMagM)
  in nuclear magnetons)

  Atom         1           2           3           4           5           6           7           8           9          10
 IAtWgt=          12           1           1           1          12           1           1          12           1           1
 AtmWgt=  12.0000000   1.0078250   1.0078250   1.0078250  12.0000000   1.0078250   1.0078250  12.0000000   1.0078250   1.0078250
 NucSpn=           0           1           1           1           0           1           1           0           1           1
 AtZEff=   3.9000000   1.0000000   1.0000000   1.0000000   3.9000000   1.0000000   1.0000000   3.9000000   1.0000000   1.0000000
 NQMom=    0.0000000   0.0000000   0.0000000   0.0000000   0.0000000   0.0000000   0.0000000   0.0000000   0.0000000   0.0000000
 NMagM=    0.0000000   2.7928460   2.7928460   2.7928460   0.0000000   2.7928460   2.7928460   0.0000000   2.7928460   2.7928460
 AtZNuc=   6.0000000   1.0000000   1.0000000   1.0000000   6.0000000   1.0000000   1.0000000   6.0000000   1.0000000   1.0000000

  Atom        11          12          13          14
 IAtWgt=          12           1           1           1
 AtmWgt=  12.0000000   1.0078250   1.0078250   1.0078250
 NucSpn=           0           1           1           1
 AtZEff=   3.9000000   1.0000000   1.0000000   1.0000000
 NQMom=    0.0000000   0.0000000   0.0000000   0.0000000
 NMagM=    0.0000000   2.7928460   2.7928460   2.7928460
 AtZNuc=   6.0000000   1.0000000   1.0000000   1.0000000
 Generating MM parameters.
 Retrieving read-in MM parameters from chk file.
 Include all MM classes

 MM sanity checks:
 All charges sum to:                0.00000100
 Charges of atoms sum to:           0.00000100
 WARNING -- The following centers have non-zero partial charges, but zero Vanderwaals
 parameters.  These centers can collapse onto other centers with non-zero charge.
   Center  Layer   Charge
      1 C    R   -0.646624
      5 C    R   -0.406786
      8 C    R   -0.406821
     11 C    R   -0.646584
 MMInit generated parameter data with length LenPar=        2717.
 MM Charge=              0.0000 electrons
 MM Dipole moment (Debye):
    X=             -0.0001    Y=             -0.0001    Z=              0.0291  Tot=              0.0291
 MM Quadrupole moment (Debye-Ang):
   XX=              7.0616   YY=              7.3705   ZZ=              8.2506
   XY=             -0.3808   XZ=             -0.0001   YZ=             -0.0000
 MM Traceless Quadrupole moment (Debye-Ang):
   XX=             -0.4993   YY=             -0.1904   ZZ=              0.6897
   XY=             -0.3808   XZ=             -0.0001   YZ=             -0.0000
 MM Octapole moment (Debye-Ang**2):
  XXX=             -0.0003  YYY=             -0.0002  ZZZ=              1.2326  XYY=              0.0002
  XXY=              0.0000  XXZ=              0.9773  XZZ=             -0.0002  YZZ=              0.0001
  YYZ=             -1.8324  XYZ=              0.1124
 MM Hexadecapole moment (Debye-Ang**3):
 XXXX=             17.2789 YYYY=             45.3046 ZZZZ=             22.0193 XXXY=             -8.1581
 XXXZ=             -0.0002 YYYX=            -12.3943 YYYZ=              0.0000 ZZZX=              0.0001
 ZZZY=             -0.0002 XXYY=             14.5181 XXZZ=              6.3100 YYZZ=             10.6309
 XXYZ=             -0.0000 YYXZ=             -0.0001 ZZXY=             -4.4616
 Leave Link  101 at Sat Aug 15 12:20:55 2026, MaxMem=   134217728 cpu:               0.2 elap:               0.3
 (Enter /home/emanuele/chem_software/gaussian//gdv/l103.exe)

 GradGradGradGradGradGradGradGradGradGradGradGradGradGradGradGradGradGrad
 Berny optimization.
 Initialization pass.
                           ----------------------------
                           !    Initial Parameters    !
                           ! (Angstroms and Degrees)  !
 --------------------------                            --------------------------
 ! Name  Definition              Value          Derivative Info.                !
 --------------------------------------------------------------------------------
 ! R1    R(1,2)                  1.0947         calculate D2E/DX2 analytically  !
 ! R2    R(1,3)                  1.093          calculate D2E/DX2 analytically  !
 ! R3    R(1,4)                  1.0941         calculate D2E/DX2 analytically  !
 ! R4    R(1,5)                  1.5332         calculate D2E/DX2 analytically  !
 ! R5    R(5,6)                  1.0986         calculate D2E/DX2 analytically  !
 ! R6    R(5,7)                  1.0992         calculate D2E/DX2 analytically  !
 ! R7    R(5,8)                  1.521          calculate D2E/DX2 analytically  !
 ! R8    R(8,9)                  1.0986         calculate D2E/DX2 analytically  !
 ! R9    R(8,10)                 1.0992         calculate D2E/DX2 analytically  !
 ! R10   R(8,11)                 1.5332         calculate D2E/DX2 analytically  !
 ! R11   R(11,12)                1.0948         calculate D2E/DX2 analytically  !
 ! R12   R(11,13)                1.0941         calculate D2E/DX2 analytically  !
 ! R13   R(11,14)                1.093          calculate D2E/DX2 analytically  !
 ! A1    A(2,1,3)              107.2619         calculate D2E/DX2 analytically  !
 ! A2    A(2,1,4)              107.8145         calculate D2E/DX2 analytically  !
 ! A3    A(2,1,5)              112.0509         calculate D2E/DX2 analytically  !
 ! A4    A(3,1,4)              107.3979         calculate D2E/DX2 analytically  !
 ! A5    A(3,1,5)              110.7859         calculate D2E/DX2 analytically  !
 ! A6    A(4,1,5)              111.312          calculate D2E/DX2 analytically  !
 ! A7    A(1,5,6)              110.9228         calculate D2E/DX2 analytically  !
 ! A8    A(1,5,7)              111.2194         calculate D2E/DX2 analytically  !
 ! A9    A(1,5,8)              108.2545         calculate D2E/DX2 analytically  !
 ! A10   A(6,5,7)              106.0005         calculate D2E/DX2 analytically  !
 ! A11   A(6,5,8)              110.1291         calculate D2E/DX2 analytically  !
 ! A12   A(7,5,8)              110.3207         calculate D2E/DX2 analytically  !
 ! A13   A(5,8,9)              110.128          calculate D2E/DX2 analytically  !
 ! A14   A(5,8,10)             110.319          calculate D2E/DX2 analytically  !
 ! A15   A(5,8,11)             108.254          calculate D2E/DX2 analytically  !
 ! A16   A(9,8,10)             106.002          calculate D2E/DX2 analytically  !
 ! A17   A(9,8,11)             110.9238         calculate D2E/DX2 analytically  !
 ! A18   A(10,8,11)            111.2202         calculate D2E/DX2 analytically  !
 ! A19   A(8,11,12)            112.0493         calculate D2E/DX2 analytically  !
 ! A20   A(8,11,13)            111.3125         calculate D2E/DX2 analytically  !
 ! A21   A(8,11,14)            110.787          calculate D2E/DX2 analytically  !
 ! A22   A(12,11,13)           107.8131         calculate D2E/DX2 analytically  !
 ! A23   A(12,11,14)           107.2624         calculate D2E/DX2 analytically  !
 ! A24   A(13,11,14)           107.3986         calculate D2E/DX2 analytically  !
 ! D1    D(2,1,5,6)             61.8423         calculate D2E/DX2 analytically  !
 ! D2    D(2,1,5,7)            -55.8684         calculate D2E/DX2 analytically  !
 ! D3    D(2,1,5,8)           -177.2233         calculate D2E/DX2 analytically  !
 ! D4    D(3,1,5,6)            -57.9068         calculate D2E/DX2 analytically  !
 ! D5    D(3,1,5,7)           -175.6175         calculate D2E/DX2 analytically  !
 ! D6    D(3,1,5,8)             63.0276         calculate D2E/DX2 analytically  !
 ! D7    D(4,1,5,6)           -177.3383         calculate D2E/DX2 analytically  !
 ! D8    D(4,1,5,7)             64.951          calculate D2E/DX2 analytically  !
 ! D9    D(4,1,5,8)            -56.4039         calculate D2E/DX2 analytically  !
 ! D10   D(1,5,8,9)             63.6778         calculate D2E/DX2 analytically  !
 ! D11   D(1,5,8,10)          -179.6558         calculate D2E/DX2 analytically  !
 ! D12   D(1,5,8,11)           -57.748          calculate D2E/DX2 analytically  !
 ! D13   D(6,5,8,9)           -174.8967         calculate D2E/DX2 analytically  !
 ! D14   D(6,5,8,10)           -58.2303         calculate D2E/DX2 analytically  !
 ! D15   D(6,5,8,11)            63.6775         calculate D2E/DX2 analytically  !
 ! D16   D(7,5,8,9)            -58.2305         calculate D2E/DX2 analytically  !
 ! D17   D(7,5,8,10)            58.4359         calculate D2E/DX2 analytically  !
 ! D18   D(7,5,8,11)          -179.6562         calculate D2E/DX2 analytically  !
 ! D19   D(5,8,11,12)         -177.2223         calculate D2E/DX2 analytically  !
 ! D20   D(5,8,11,13)          -56.4052         calculate D2E/DX2 analytically  !
 ! D21   D(5,8,11,14)           63.0284         calculate D2E/DX2 analytically  !
 ! D22   D(9,8,11,12)           61.8443         calculate D2E/DX2 analytically  !
 ! D23   D(9,8,11,13)         -177.3386         calculate D2E/DX2 analytically  !
 ! D24   D(9,8,11,14)          -57.905          calculate D2E/DX2 analytically  !
 ! D25   D(10,8,11,12)         -55.8693         calculate D2E/DX2 analytically  !
 ! D26   D(10,8,11,13)          64.9477         calculate D2E/DX2 analytically  !
 ! D27   D(10,8,11,14)        -175.6187         calculate D2E/DX2 analytically  !
 --------------------------------------------------------------------------------
 Trust Radius=3.00D-01 FncErr=1.00D-07 GrdErr=1.00D-07 EigMax=2.50D+02 EigMin=1.00D-04
 Number of steps in this run=      2 maximum allowed number of steps=      2.
 GradGradGradGradGradGradGradGradGradGradGradGradGradGradGradGradGradGrad

 Leave Link  103 at Sat Aug 15 12:20:55 2026, MaxMem=   134217728 cpu:               0.0 elap:               0.0
 (Enter /home/emanuele/chem_software/gaussian//gdv/l202.exe)
                          Input orientation:                          
 ---------------------------------------------------------------------
 Center     Atomic      Atomic             Coordinates (Angstroms)
 Number     Number       Type             X           Y           Z
 ---------------------------------------------------------------------
      1          6    90000001       -0.532836    1.322837   -0.586797
      2          1    20001037       -1.337858    2.063650   -0.626856
      3          1    20001037       -0.625773    0.694443   -1.476279
      4          1    20001037        0.418512    1.857919   -0.662214
      5          6    90000001       -0.594983    0.473638    0.688233
      6          1    20001037       -1.532588   -0.097139    0.734156
      7          1    20001037       -0.580263    1.105020    1.587855
      8          6    90000001        0.595003   -0.473637    0.688227
      9          1    20001037        1.532562    0.097135    0.734150
     10          1    20001037        0.580258   -1.105011    1.587846
     11          6    90000001        0.532838   -1.322823   -0.586809
     12          1    20001037        1.337864   -2.063649   -0.626852
     13          1    20001037       -0.418509   -1.857928   -0.662218
     14          1    20001037        0.625775   -0.694456   -1.476277
 ---------------------------------------------------------------------
                    Distance matrix (angstroms):
                    1          2          3          4          5
     1  C    0.000000
     2  H    1.094746   0.000000
     3  H    1.093022   1.761622   0.000000
     4  H    1.094104   1.768731   1.762643   0.000000
     5  C    1.533200   2.193048   2.175963   2.183372   0.000000
     6  H    2.181915   2.561109   2.516931   3.094979   1.098636
     7  H    2.186047   2.529400   3.091854   2.574338   1.099172
     8  C    2.474878   3.450104   2.745868   2.700184   1.520985
     9  H    2.741005   3.736151   3.146614   2.508246   2.161089
    10  H    3.444197   4.315609   3.752520   3.723961   2.163938
    11  C    2.852223   3.869018   2.490561   3.183689   2.474870
    12  H    3.869032   4.918748   3.490626   4.028046   3.450097
    13  H    3.183712   4.028054   2.687052   3.808952   2.700196
    14  H    2.490588   3.490633   1.869602   2.687057   2.745869
                    6          7          8          9         10
     6  H    0.000000
     7  H    1.755252   0.000000
     8  C    2.161135   2.163963   0.000000
     9  H    3.071301   2.491720   1.098593   0.000000
    10  H    2.491729   2.496206   1.099166   1.755231   0.000000
    11  C    2.741028   3.444209   1.533198   2.181894   2.186051
    12  H    3.736175   4.315622   2.193037   2.561097   2.529395
    13  H    2.508269   3.723983   2.183385   3.094962   2.574337
    14  H    3.146639   3.752538   2.175956   2.516916   3.091841
                   11         12         13         14
    11  C    0.000000
    12  H    1.094757   0.000000
    13  H    1.094113   1.768733   0.000000
    14  H    1.092994   1.761614   1.762636   0.000000
 Symmetry turned off by external request.
 Stoichiometry    C4H10
 Framework group  C1[X(C4H10)]
 Deg. of freedom    36
 Full point group                 C1      NOp   1
 Rotational constants (GHZ):          12.0847916           5.5023057           4.4453996
 Leave Link  202 at Sat Aug 15 12:20:55 2026, MaxMem=   134217728 cpu:               0.0 elap:               0.0
 (Enter /home/emanuele/chem_software/gaussian//gdv/l301.exe)
 Standard basis: Dummy (5D, 7F)
    14 basis functions,    14 primitive gaussians,    14 cartesian basis functions
     9 alpha electrons        9 beta electrons
       nuclear repulsion energy        37.5846543049 Hartrees.
 IExCor=       0 DFT=F Ex=HF Corr=None N6=None ScaHFX=  1.000000
 ScaDFX=  1.000000  1.000000  1.000000  1.000000  1.000000  0.000000
 ScaDFX=  0.000000  0.000000  0.000000  0.000000  0.000000  0.000000
 IRadAn=      5 IRanWt=     -1 IRanGd=            0 ICorTp=0 IEmpDi=  4
 NAtoms=   14 NActive=   14 NUniq=   14 SFac= 1.00D+00 NAtFMM=   60 NAOKFM=F Big=F
 Integral buffers will be    131072 words long.
 Raffenetti 1 integral format.
 Two-electron integral symmetry is turned off.
 Leave Link  301 at Sat Aug 15 12:20:56 2026, MaxMem=   134217728 cpu:               0.0 elap:               0.0
 (Enter /home/emanuele/chem_software/gaussian//gdv/l402.exe)
 AMBER calculation of energy, first and second derivatives.
 Energy per function type:
 Direct Coulomb + vdW (small)                           0.280395808
 Direct Coulomb (large)                                -0.680406443
 Direct vdW (large)                                     0.000000000
 Non-direct Coulomb + vdW (small)                       0.003314550
 Non-direct Coulomb (large)                             0.429482473
 Non-direct vdW (large)                                 0.000000000
 Harmonic stretch I                                     0.000143351
 Harmonic bend I                                        0.001561203
 Amber torsion                                          0.003686593
 Energy per function class:
        Coulomb               0.032841004
    Vanderwaals              -0.000054616
     Stretching               0.000143351
        Bending               0.001561203
        Torsion               0.003686593
 Energy=    3.817753424E-02 NIter=   0.
 Dipole moment=      -0.000044      -0.000027       0.011463
 Leave Link  402 at Sat Aug 15 12:20:56 2026, MaxMem=   134217728 cpu:               0.0 elap:               0.0
 (Enter /home/emanuele/chem_software/gaussian//gdv/l716.exe)
 Dipole        =-4.42162078D-05-2.73398690D-05 1.14627108D-02
 Full mass-weighted force constant matrix:
 Low frequencies ---   -1.5029   -0.0000   -0.0000    0.0000    3.6580    4.1611
 Low frequencies ---  123.8369  265.3879  287.4631
 Diagonal vibrational polarizability:
        8.2913331       8.5741323       7.2487684
 Harmonic frequencies (cm**-1), IR intensities (KM/Mole), Raman scattering
 activities (A**4/AMU), depolarization ratios for plane and unpolarized
 incident light, reduced masses (AMU), force constants (mDyne/A),
 and normal coordinates:
                      1                      2                      3
                      A                      A                      A
 Frequencies --    123.8367               265.3878               287.4631
 Red. masses --      1.8057                 1.0611                 2.4005
 Frc consts  --      0.0163                 0.0440                 0.1169
 IR Inten    --      0.0655                 1.4135                 1.3729
  Atom  AN      X      Y      Z        X      Y      Z        X      Y      Z
     1   6    -0.01  -0.15  -0.06    -0.03   0.01  -0.00    -0.15   0.14  -0.01
     2   1     0.10  -0.03  -0.06    -0.29  -0.28  -0.15    -0.19   0.11   0.11
     3   1    -0.24  -0.28   0.05     0.35  -0.04  -0.01    -0.25   0.11   0.01
     4   1     0.07  -0.32  -0.28    -0.21   0.34   0.15    -0.18   0.19  -0.17
     5   6     0.04   0.05   0.07     0.04  -0.00  -0.01     0.08   0.13   0.00
     6   1    -0.01   0.13   0.22     0.07  -0.05  -0.02     0.00   0.27   0.18
     7   1     0.17   0.16  -0.01    -0.01  -0.01   0.00     0.28   0.15  -0.02
     8   6    -0.04  -0.05   0.07     0.04  -0.00   0.01    -0.08  -0.13   0.00
     9   1     0.01  -0.13   0.22     0.07  -0.05   0.02    -0.00  -0.27   0.18
    10   1    -0.17  -0.16  -0.01    -0.01  -0.01  -0.00    -0.28  -0.15  -0.02
    11   6     0.01   0.15  -0.06    -0.03   0.01   0.00     0.15  -0.14  -0.01
    12   1    -0.10   0.03  -0.06    -0.29  -0.28   0.15     0.19  -0.10   0.11
    13   1    -0.07   0.32  -0.28    -0.21   0.34  -0.15     0.18  -0.19  -0.17
    14   1     0.24   0.28   0.05     0.35  -0.04   0.01     0.24  -0.11   0.01
                      4                      5                      6
                      A                      A                      A
 Frequencies --    366.1676               393.6884               783.3728
 Red. masses --      2.3867                 1.1640                 1.1327
 Frc consts  --      0.1885                 0.1063                 0.4095
 IR Inten    --      7.6168                 0.3425                93.8502
  Atom  AN      X      Y      Z        X      Y      Z        X      Y      Z
     1   6    -0.07   0.08  -0.08     0.03  -0.03  -0.03    -0.01  -0.00   0.04
     2   1    -0.06   0.11   0.20    -0.21  -0.31  -0.24    -0.04  -0.04  -0.05
     3   1    -0.27   0.28  -0.20     0.38  -0.10  -0.01    -0.09  -0.23   0.21
     4   1    -0.09   0.10  -0.16    -0.14   0.29   0.11     0.01  -0.07  -0.17
     5   6     0.10  -0.10  -0.15     0.04   0.04   0.03     0.03   0.05   0.02
     6   1     0.14  -0.17  -0.24     0.02   0.08   0.07     0.15  -0.16  -0.37
     7   1    -0.06  -0.15  -0.12     0.06   0.09   0.00    -0.37  -0.10   0.13
     8   6     0.10  -0.10   0.15    -0.04  -0.04   0.03     0.03   0.05  -0.02
     9   1     0.14  -0.17   0.24    -0.02  -0.08   0.07     0.15  -0.16   0.37
    10   1    -0.06  -0.15   0.12    -0.06  -0.09   0.00    -0.37  -0.10  -0.14
    11   6    -0.07   0.08   0.08    -0.03   0.03  -0.03    -0.01  -0.00  -0.04
    12   1    -0.06   0.11  -0.20     0.21   0.31  -0.24    -0.04  -0.04   0.05
    13   1    -0.09   0.10   0.16     0.14  -0.29   0.11     0.01  -0.07   0.17
    14   1    -0.27   0.28   0.20    -0.38   0.10  -0.01    -0.09  -0.23  -0.21
                      7                      8                      9
                      A                      A                      A
 Frequencies --    818.1101               843.2546               906.3562
 Red. masses --      1.6979                 1.1565                 1.4147
 Frc consts  --      0.6696                 0.4845                 0.6847
 IR Inten    --     22.2879                19.0551                57.1254
  Atom  AN      X      Y      Z        X      Y      Z        X      Y      Z
     1   6     0.03  -0.08   0.05    -0.05  -0.02  -0.01    -0.02   0.09  -0.05
     2   1    -0.08  -0.19   0.46     0.11   0.15  -0.08     0.06   0.17  -0.47
     3   1    -0.06   0.09  -0.06     0.18   0.16  -0.16     0.09  -0.11   0.08
     4   1    -0.05   0.09   0.09     0.05  -0.16   0.39     0.05  -0.05  -0.20
     5   6     0.10  -0.06  -0.09    -0.06  -0.01  -0.01    -0.01  -0.06   0.05
     6   1     0.08  -0.01   0.07    -0.14   0.14   0.27     0.02  -0.11   0.14
     7   1     0.40  -0.06  -0.11     0.20   0.14  -0.13     0.14  -0.27   0.20
     8   6    -0.10   0.06  -0.09     0.06   0.01  -0.01    -0.01  -0.06  -0.05
     9   1    -0.08   0.01   0.07     0.14  -0.14   0.27     0.02  -0.11  -0.14
    10   1    -0.40   0.06  -0.11    -0.20  -0.14  -0.13     0.14  -0.27  -0.20
    11   6    -0.03   0.08   0.05     0.05   0.02  -0.01    -0.02   0.09   0.05
    12   1     0.08   0.19   0.46    -0.11  -0.15  -0.08     0.06   0.17   0.47
    13   1     0.05  -0.08   0.09    -0.05   0.16   0.38     0.05  -0.05   0.20
    14   1     0.06  -0.09  -0.06    -0.18  -0.16  -0.16     0.09  -0.11  -0.08
                     10                     11                     12
                      A                      A                      A
 Frequencies --    943.9984               949.5789               974.7118
 Red. masses --      1.2456                 1.5283                 1.6056
 Frc consts  --      0.6540                 0.8120                 0.8988
 IR Inten    --     63.2804                 4.6884                 7.1905
  Atom  AN      X      Y      Z        X      Y      Z        X      Y      Z
     1   6    -0.09  -0.03  -0.00    -0.02  -0.02   0.10     0.03  -0.04  -0.09
     2   1     0.15   0.23  -0.15    -0.07  -0.07  -0.06     0.04  -0.03   0.16
     3   1     0.18   0.08  -0.11    -0.01  -0.30   0.32    -0.04   0.32  -0.36
     4   1     0.08  -0.28   0.44     0.04  -0.13   0.12    -0.07   0.14  -0.02
     5   6     0.04   0.03  -0.00    -0.02   0.05  -0.10    -0.02   0.04   0.12
     6   1     0.16  -0.15  -0.02    -0.17   0.29  -0.28     0.10  -0.17   0.01
     7   1    -0.08   0.07  -0.02    -0.05   0.14  -0.16    -0.18  -0.18   0.29
     8   6     0.04   0.03   0.00     0.02  -0.05  -0.10    -0.02   0.04  -0.12
     9   1     0.16  -0.15   0.02     0.17  -0.29  -0.28     0.10  -0.17  -0.01
    10   1    -0.08   0.07   0.02     0.05  -0.14  -0.16    -0.18  -0.18  -0.29
    11   6    -0.09  -0.02   0.00     0.02   0.02   0.10     0.03  -0.04   0.09
    12   1     0.15   0.23   0.15     0.06   0.07  -0.07     0.04  -0.03  -0.16
    13   1     0.08  -0.28  -0.44    -0.04   0.13   0.12    -0.07   0.14   0.02
    14   1     0.18   0.08   0.11     0.01   0.30   0.32    -0.04   0.32   0.36
                     13                     14                     15
                      A                      A                      A
 Frequencies --    989.6944              1042.7529              1133.4619
 Red. masses --      1.2429                 1.6328                 1.0684
 Frc consts  --      0.7173                 1.0460                 0.8087
 IR Inten    --      0.0533                 0.0001                 2.1305
  Atom  AN      X      Y      Z        X      Y      Z        X      Y      Z
     1   6     0.01  -0.06  -0.03    -0.08  -0.04  -0.00    -0.03  -0.03  -0.01
     2   1    -0.01  -0.06   0.37     0.09   0.15  -0.10    -0.01  -0.00  -0.00
     3   1    -0.07   0.21  -0.23     0.13   0.03  -0.08     0.02   0.01  -0.05
     4   1    -0.06   0.09   0.09     0.05  -0.23   0.33    -0.01  -0.06   0.10
     5   6    -0.02   0.07   0.03     0.13   0.06   0.00     0.03   0.02  -0.01
     6   1    -0.08   0.15  -0.20     0.27  -0.15  -0.31    -0.21   0.40  -0.33
     7   1    -0.33   0.21  -0.05    -0.07  -0.15   0.16     0.21  -0.28   0.20
     8   6     0.02  -0.07   0.03    -0.13  -0.06   0.00     0.03   0.02   0.01
     9   1     0.08  -0.15  -0.20    -0.27   0.15  -0.31    -0.21   0.40   0.33
    10   1     0.33  -0.21  -0.05     0.07   0.15   0.16     0.21  -0.29  -0.21
    11   6    -0.01   0.06  -0.03     0.08   0.04  -0.00    -0.03  -0.03   0.01
    12   1     0.01   0.06   0.37    -0.09  -0.15  -0.10    -0.01  -0.00   0.00
    13   1     0.06  -0.09   0.09    -0.05   0.23   0.33    -0.01  -0.06  -0.10
    14   1     0.07  -0.21  -0.23    -0.13  -0.03  -0.08     0.02   0.02   0.05
                     16                     17                     18
                      A                      A                      A
 Frequencies --   1138.9625              1310.7637              1374.7773
 Red. masses --      1.0483                 1.3004                 1.2284
 Frc consts  --      0.8012                 1.3163                 1.3679
 IR Inten    --      0.2485               181.9156               265.0876
  Atom  AN      X      Y      Z        X      Y      Z        X      Y      Z
     1   6     0.01   0.02   0.02     0.02   0.01  -0.03     0.03   0.01  -0.06
     2   1     0.02   0.03   0.00    -0.09  -0.09   0.25     0.00  -0.01   0.17
     3   1     0.01  -0.04   0.07    -0.02  -0.19   0.11    -0.22  -0.29   0.16
     4   1     0.02  -0.01   0.02     0.07  -0.06   0.17     0.01   0.12   0.39
     5   6     0.02   0.01  -0.02    -0.05   0.07  -0.07    -0.03   0.06  -0.03
     6   1     0.25  -0.33   0.19     0.17  -0.29   0.10     0.06  -0.08   0.25
     7   1    -0.18   0.41  -0.30     0.31  -0.28   0.16    -0.08  -0.19   0.15
     8   6    -0.02  -0.01  -0.02    -0.05   0.07   0.07     0.03  -0.06  -0.03
     9   1    -0.25   0.33   0.19     0.17  -0.29  -0.10    -0.06   0.08   0.25
    10   1     0.18  -0.40  -0.29     0.31  -0.28  -0.16     0.08   0.19   0.15
    11   6    -0.01  -0.02   0.02     0.02   0.01   0.03    -0.03  -0.01  -0.06
    12   1    -0.02  -0.03   0.00    -0.09  -0.09  -0.25    -0.00   0.01   0.17
    13   1    -0.02   0.01   0.02     0.07  -0.06  -0.17    -0.01  -0.12   0.39
    14   1    -0.01   0.04   0.07    -0.02  -0.19  -0.11     0.22   0.29   0.16
                     19                     20                     21
                      A                      A                      A
 Frequencies --   1385.1806              1388.8952              1394.3616
 Red. masses --      1.0513                 1.0713                 1.0407
 Frc consts  --      1.1885                 1.2175                 1.1921
 IR Inten    --     41.7654                11.2405                57.7842
  Atom  AN      X      Y      Z        X      Y      Z        X      Y      Z
     1   6    -0.03  -0.02  -0.03     0.00   0.04  -0.00    -0.03   0.03   0.01
     2   1     0.26   0.32   0.29    -0.32  -0.29   0.11    -0.17  -0.11   0.22
     3   1     0.28  -0.25   0.10     0.12   0.10  -0.05     0.41   0.10  -0.08
     4   1    -0.17   0.21  -0.08     0.25  -0.39  -0.07     0.15  -0.34  -0.29
     5   6     0.01  -0.01   0.00    -0.01   0.03  -0.02    -0.00   0.00   0.00
     6   1    -0.03   0.05   0.04     0.02  -0.00   0.17    -0.01   0.02   0.04
     7   1    -0.08  -0.03   0.01    -0.11  -0.09   0.07    -0.04  -0.00   0.01
     8   6     0.01  -0.01  -0.00     0.01  -0.03  -0.02    -0.00   0.00  -0.00
     9   1    -0.03   0.05  -0.04    -0.02   0.00   0.17    -0.01   0.02  -0.04
    10   1    -0.08  -0.03  -0.01     0.11   0.09   0.07    -0.04  -0.00  -0.01
    11   6    -0.03  -0.02   0.03    -0.00  -0.04  -0.00    -0.03   0.03  -0.01
    12   1     0.26   0.32  -0.29     0.32   0.29   0.11    -0.17  -0.11  -0.22
    13   1    -0.17   0.21   0.08    -0.25   0.39  -0.07     0.15  -0.34   0.29
    14   1     0.28  -0.25  -0.10    -0.12  -0.11  -0.05     0.41   0.10   0.08
                     22                     23                     24
                      A                      A                      A
 Frequencies --   1419.0433              1428.8471              1477.0251
 Red. masses --      1.1279                 1.0538                 1.3086
 Frc consts  --      1.3381                 1.2676                 1.6820
 IR Inten    --     88.5024                24.7633                 0.9081
  Atom  AN      X      Y      Z        X      Y      Z        X      Y      Z
     1   6    -0.01  -0.03   0.05    -0.03  -0.01  -0.00    -0.00   0.02  -0.03
     2   1     0.11   0.09  -0.08     0.14   0.20   0.31    -0.06  -0.02   0.19
     3   1     0.11   0.13  -0.08     0.46  -0.18   0.07     0.11  -0.10   0.04
     4   1    -0.10   0.08  -0.22    -0.08   0.02  -0.23     0.05  -0.07   0.00
     5   6    -0.04   0.02   0.01    -0.00   0.02  -0.02    -0.09   0.05   0.04
     6   1     0.09  -0.24  -0.35    -0.00   0.03   0.13     0.07  -0.29  -0.33
     7   1     0.39   0.15  -0.08    -0.11  -0.09   0.05     0.44   0.13  -0.01
     8   6    -0.04   0.02  -0.01     0.00  -0.02  -0.02     0.09  -0.05   0.04
     9   1     0.09  -0.24   0.35     0.00  -0.03   0.13    -0.07   0.29  -0.33
    10   1     0.39   0.15   0.08     0.11   0.09   0.05    -0.44  -0.13  -0.01
    11   6    -0.01  -0.03  -0.05     0.03   0.01  -0.00     0.00  -0.02  -0.03
    12   1     0.11   0.09   0.08    -0.14  -0.20   0.30     0.06   0.02   0.19
    13   1    -0.10   0.08   0.22     0.08  -0.02  -0.23    -0.05   0.07   0.00
    14   1     0.11   0.13   0.08    -0.46   0.18   0.07    -0.11   0.10   0.04
                     25                     26                     27
                      A                      A                      A
 Frequencies --   1500.9944              1525.9618              3071.1111
 Red. masses --      1.7378                 2.3384                 1.0459
 Frc consts  --      2.3068                 3.2082                 5.8120
 IR Inten    --      4.2499                13.5054                16.5771
  Atom  AN      X      Y      Z        X      Y      Z        X      Y      Z
     1   6    -0.00  -0.07   0.11     0.01  -0.09   0.11    -0.00  -0.02   0.03
     2   1     0.15   0.05  -0.22     0.13  -0.01  -0.23    -0.30   0.28  -0.02
     3   1     0.05   0.23  -0.10    -0.07   0.31  -0.15    -0.03  -0.23  -0.33
     4   1    -0.13   0.08  -0.24    -0.13   0.11  -0.21     0.35   0.20  -0.03
     5   6     0.00   0.06  -0.11    -0.09   0.16  -0.09    -0.00   0.00   0.00
     6   1     0.05   0.05   0.34     0.16  -0.23   0.17     0.05   0.03  -0.00
     7   1    -0.13  -0.31   0.13     0.09  -0.19   0.16     0.00  -0.03  -0.05
     8   6     0.00   0.06   0.11     0.09  -0.16  -0.09    -0.00   0.00  -0.00
     9   1     0.05   0.05  -0.34    -0.16   0.23   0.17     0.05   0.03   0.00
    10   1    -0.13  -0.31  -0.13    -0.09   0.19   0.16     0.00  -0.03   0.05
    11   6    -0.00  -0.07  -0.11    -0.01   0.09   0.11    -0.00  -0.02  -0.03
    12   1     0.15   0.05   0.22    -0.13   0.01  -0.23    -0.30   0.28   0.02
    13   1    -0.13   0.08   0.24     0.13  -0.10  -0.21     0.35   0.20   0.03
    14   1     0.05   0.23   0.10     0.07  -0.31  -0.15    -0.03  -0.23   0.33
                     28                     29                     30
                      A                      A                      A
 Frequencies --   3076.1691              3111.9742              3121.9932
 Red. masses --      1.0467                 1.0727                 1.0766
 Frc consts  --      5.8356                 6.1207                 6.1827
 IR Inten    --     50.0472                41.4395                27.8695
  Atom  AN      X      Y      Z        X      Y      Z        X      Y      Z
     1   6    -0.00  -0.02   0.03     0.00   0.00  -0.01     0.00  -0.01   0.01
     2   1    -0.30   0.28  -0.02     0.04  -0.04   0.01    -0.06   0.06  -0.01
     3   1    -0.03  -0.21  -0.31     0.00   0.02   0.03    -0.01  -0.04  -0.06
     4   1     0.36   0.20  -0.03    -0.04  -0.02   0.00     0.06   0.03  -0.01
     5   6    -0.01   0.00   0.00    -0.04   0.00   0.04     0.04  -0.00  -0.04
     6   1     0.08   0.05  -0.00     0.43   0.26  -0.03    -0.41  -0.24   0.03
     7   1     0.00  -0.05  -0.07    -0.00  -0.28  -0.40    -0.00   0.29   0.41
     8   6     0.01  -0.00   0.00    -0.04   0.00  -0.04    -0.04   0.00  -0.04
     9   1    -0.08  -0.05  -0.00     0.43   0.26   0.03     0.41   0.24   0.03
    10   1    -0.00   0.05  -0.07    -0.00  -0.28   0.40     0.00  -0.29   0.41
    11   6     0.00   0.02   0.03     0.00   0.00   0.01    -0.00   0.01   0.01
    12   1     0.30  -0.28  -0.02     0.04  -0.04  -0.01     0.06  -0.06  -0.01
    13   1    -0.36  -0.20  -0.03    -0.04  -0.02  -0.00    -0.06  -0.03  -0.01
    14   1     0.03   0.21  -0.31     0.00   0.02  -0.03     0.01   0.04  -0.06
                     31                     32                     33
                      A                      A                      A
 Frequencies --   3179.4216              3181.2541              3182.9503
 Red. masses --      1.1102                 1.1127                 1.1163
 Frc consts  --      6.6122                 6.6347                 6.6634
 IR Inten    --    186.0888                30.4463                50.5000
  Atom  AN      X      Y      Z        X      Y      Z        X      Y      Z
     1   6     0.01  -0.04  -0.03     0.04   0.01   0.01     0.01  -0.04  -0.03
     2   1    -0.20   0.19  -0.01    -0.19   0.17  -0.01    -0.23   0.22  -0.01
     3   1     0.03   0.23   0.32    -0.01  -0.07  -0.10     0.03   0.22   0.30
     4   1     0.11   0.07  -0.01    -0.31  -0.17   0.03     0.04   0.03   0.00
     5   6    -0.03  -0.03  -0.02     0.03   0.04   0.02     0.03   0.03   0.03
     6   1     0.30   0.18  -0.01    -0.32  -0.21   0.01    -0.29  -0.18   0.01
     7   1     0.01   0.20   0.28    -0.01  -0.22  -0.31    -0.01  -0.21  -0.29
     8   6    -0.03  -0.03   0.02    -0.03  -0.04   0.02     0.03   0.03  -0.03
     9   1     0.30   0.18   0.01     0.32   0.21   0.01    -0.29  -0.18  -0.01
    10   1     0.01   0.20  -0.28     0.01   0.22  -0.31    -0.01  -0.21   0.29
    11   6     0.01  -0.04   0.03    -0.04  -0.01   0.01     0.01  -0.04   0.03
    12   1    -0.20   0.19   0.01     0.19  -0.17  -0.01    -0.23   0.22   0.01
    13   1     0.11   0.07   0.01     0.31   0.17   0.03     0.04   0.03  -0.00
    14   1     0.03   0.23  -0.32     0.01   0.07  -0.10     0.03   0.22  -0.30
                     34                     35                     36
                      A                      A                      A
 Frequencies --   3185.2760              3186.1738              3191.9277
 Red. masses --      1.1162                 1.1173                 1.1160
 Frc consts  --      6.6725                 6.6828                 6.6993
 IR Inten    --    146.9574                23.5002                28.7125
  Atom  AN      X      Y      Z        X      Y      Z        X      Y      Z
     1   6    -0.07  -0.01  -0.01    -0.05   0.02   0.01    -0.01  -0.05  -0.04
     2   1     0.29  -0.25   0.02     0.33  -0.30   0.02    -0.17   0.16  -0.00
     3   1     0.03   0.10   0.14    -0.00  -0.07  -0.11     0.04   0.33   0.46
     4   1     0.49   0.27  -0.04     0.30   0.16  -0.02     0.24   0.14  -0.01
     5   6     0.00   0.00   0.00     0.02   0.03   0.02     0.01   0.01   0.01
     6   1    -0.04  -0.02  -0.00    -0.26  -0.16   0.01    -0.12  -0.08   0.00
     7   1    -0.00  -0.02  -0.03    -0.01  -0.16  -0.22    -0.00  -0.08  -0.11
     8   6     0.00   0.00  -0.00    -0.02  -0.03   0.02    -0.01  -0.01   0.01
     9   1    -0.04  -0.02   0.00     0.26   0.16   0.01     0.12   0.08   0.00
    10   1    -0.00  -0.02   0.03     0.01   0.16  -0.22     0.00   0.08  -0.11
    11   6    -0.07  -0.01   0.01     0.05  -0.02   0.01     0.01   0.05  -0.04
    12   1     0.29  -0.25  -0.02    -0.33   0.30   0.02     0.17  -0.16  -0.00
    13   1     0.49   0.27   0.04    -0.30  -0.16  -0.02    -0.24  -0.14  -0.01
    14   1     0.03   0.10  -0.14     0.00   0.07  -0.11    -0.04  -0.33   0.46

 -------------------
 - Thermochemistry -
 -------------------
 Temperature   298.150 Kelvin.  Pressure      1.00000 Atm.
 Atom     1 has atomic number  6 and mass  12.00000
 Atom     2 has atomic number  1 and mass   1.00783
 Atom     3 has atomic number  1 and mass   1.00783
 Atom     4 has atomic number  1 and mass   1.00783
 Atom     5 has atomic number  6 and mass  12.00000
 Atom     6 has atomic number  1 and mass   1.00783
 Atom     7 has atomic number  1 and mass   1.00783
 Atom     8 has atomic number  6 and mass  12.00000
 Atom     9 has atomic number  1 and mass   1.00783
 Atom    10 has atomic number  1 and mass   1.00783
 Atom    11 has atomic number  6 and mass  12.00000
 Atom    12 has atomic number  1 and mass   1.00783
 Atom    13 has atomic number  1 and mass   1.00783
 Atom    14 has atomic number  1 and mass   1.00783
 Molecular mass:    58.07825 amu.
 Principal axes and moments of inertia in atomic units:
                                 1                 2                 3
     Eigenvalues --          149.339870        327.997262        405.979523
           X                  -0.464147          0.000005          0.885758
           Y                   0.885758         -0.000002          0.464147
           Z                   0.000004          1.000000         -0.000003
 This molecule is an asymmetric top.
 Rotational symmetry number  1.
 Rotational temperatures (Kelvin)      0.57998     0.26407     0.21335
 Rotational constants (GHZ):          12.08479     5.50231     4.44540
 Zero-point vibrational energy     344852.9 (Joules/Mol)
                                   82.42182 (Kcal/Mol)
 Warning -- explicit consideration of   5 degrees of freedom as
           vibrations may cause significant error
 Vibrational temperatures:    178.17   381.83   413.60   526.83   566.43
          (Kelvin)           1127.10  1177.08  1213.26  1304.04  1358.20
                             1366.23  1402.39  1423.95  1500.29  1630.80
                             1638.71  1885.90  1978.00  1992.97  1998.31
                             2006.18  2041.69  2055.79  2125.11  2159.60
                             2195.52  4418.64  4425.92  4477.44  4491.85
                             4574.48  4577.12  4579.56  4582.90  4584.19
                             4592.47
 
 Zero-point correction=                           0.131348 (Hartree/Particle)
 Thermal correction to Energy=                    0.137021
 Thermal correction to Enthalpy=                  0.137965
 Thermal correction to Gibbs Free Energy=         0.103589
 Sum of electronic and zero-point Energies=              0.169525
 Sum of electronic and thermal Energies=                 0.175199
 Sum of electronic and thermal Enthalpies=               0.176143
 Sum of electronic and thermal Free Energies=            0.141767
 
                     E (Thermal)             CV                S
                      KCal/Mol        Cal/Mol-Kelvin    Cal/Mol-Kelvin
 Total                   85.982             20.237             72.350
 Electronic               0.000              0.000              0.000
 Translational            0.889              2.981             38.098
 Rotational               0.889              2.981             24.501
 Vibrational             84.205             14.275              9.751
 Vibration     1          0.610              1.929              3.040
 Vibration     2          0.671              1.737              1.626
 Vibration     3          0.685              1.697              1.489
 Vibration     4          0.739              1.542              1.096
 Vibration     5          0.761              1.484              0.986
                       Q            Log10(Q)             Ln(Q)
 Total Bot       0.225021D-47        -47.647777       -109.713062
 Total V=0       0.585918D+13         12.767837         29.399030
 Vib (Bot)       0.256229D-59        -59.591372       -137.214205
 Vib (Bot)    1  0.164873D+01          0.217149          0.500003
 Vib (Bot)    2  0.729922D+00         -0.136723         -0.314817
 Vib (Bot)    3  0.666161D+00         -0.176421         -0.406224
 Vib (Bot)    4  0.498497D+00         -0.302337         -0.696158
 Vib (Bot)    5  0.454816D+00         -0.342165         -0.787863
 Vib (V=0)       0.667178D+01          0.824242          1.897887
 Vib (V=0)    1  0.222288D+01          0.346915          0.798802
 Vib (V=0)    2  0.138475D+01          0.141372          0.325521
 Vib (V=0)    3  0.133293D+01          0.124807          0.287379
 Vib (V=0)    4  0.120604D+01          0.081363          0.187346
 Vib (V=0)    5  0.117591D+01          0.070375          0.162044
 Electronic      0.100000D+01          0.000000          0.000000
 Translational   0.173970D+08          7.240474         16.671808
 Rotational      0.504802D+05          4.703121         10.829336
                           ----------------------------
                           ! Normal Mode     1        !
 --------------------------                            --------------------------
 ! Name  Definition              Value          Relative Weight (%)             !
 --------------------------------------------------------------------------------
 ! D1    D(2,1,5,6)              0.0511                  2.0                    !
 ! D2    D(2,1,5,7)              0.047                   1.8                    !
 ! D3    D(2,1,5,8)              0.0413                  1.6                    !
 ! D4    D(3,1,5,6)              0.0569                  2.2                    !
 ! D5    D(3,1,5,7)              0.0527                  2.1                    !
 ! D6    D(3,1,5,8)              0.047                   1.8                    !
 ! D7    D(4,1,5,6)              0.0561                  2.2                    !
 ! D8    D(4,1,5,7)              0.052                   2.0                    !
 ! D9    D(4,1,5,8)              0.0462                  1.8                    !
 ! D10   D(1,5,8,9)              0.1723                  6.7                    !
 ! D11   D(1,5,8,10)             0.1775                  6.9                    !
 ! D12   D(1,5,8,11)             0.1908                  7.5                    !
 ! D13   D(6,5,8,9)              0.1539                  6.0                    !
 ! D14   D(6,5,8,10)             0.159                   6.2                    !
 ! D15   D(6,5,8,11)             0.1723                  6.7                    !
 ! D16   D(7,5,8,9)              0.159                   6.2                    !
 ! D17   D(7,5,8,10)             0.1642                  6.4                    !
 ! D18   D(7,5,8,11)             0.1775                  6.9                    !
 ! D19   D(5,8,11,12)            0.0413                  1.6                    !
 ! D20   D(5,8,11,13)            0.0463                  1.8                    !
 ! D21   D(5,8,11,14)            0.047                   1.8                    !
 ! D22   D(9,8,11,12)            0.0511                  2.0                    !
 ! D23   D(9,8,11,13)            0.0561                  2.2                    !
 ! D24   D(9,8,11,14)            0.0569                  2.2                    !
 ! D25   D(10,8,11,12)           0.047                   1.8                    !
 ! D26   D(10,8,11,13)           0.052                   2.0                    !
 ! D27   D(10,8,11,14)           0.0528                  2.1                    !
 --------------------------------------------------------------------------------
                           ----------------------------
                           ! Normal Mode     2        !
 --------------------------                            --------------------------
 ! Name  Definition              Value          Relative Weight (%)             !
 --------------------------------------------------------------------------------
 ! D1    D(2,1,5,6)             -0.185                   5.0                    !
 ! D2    D(2,1,5,7)             -0.1741                  4.7                    !
 ! D3    D(2,1,5,8)             -0.2112                  5.7                    !
 ! D4    D(3,1,5,6)             -0.1816                  4.9                    !
 ! D5    D(3,1,5,7)             -0.1707                  4.6                    !
 ! D6    D(3,1,5,8)             -0.2077                  5.6                    !
 ! D7    D(4,1,5,6)             -0.1817                  4.9                    !
 ! D8    D(4,1,5,7)             -0.1708                  4.6                    !
 ! D9    D(4,1,5,8)             -0.2078                  5.6                    !
 ! D19   D(5,8,11,12)            0.2111                  5.7                    !
 ! D20   D(5,8,11,13)            0.2077                  5.6                    !
 ! D21   D(5,8,11,14)            0.2077                  5.6                    !
 ! D22   D(9,8,11,12)            0.1849                  5.0                    !
 ! D23   D(9,8,11,13)            0.1815                  4.9                    !
 ! D24   D(9,8,11,14)            0.1815                  4.9                    !
 ! D25   D(10,8,11,12)           0.1741                  4.7                    !
 ! D26   D(10,8,11,13)           0.1707                  4.6                    !
 ! D27   D(10,8,11,14)           0.1707                  4.6                    !
 --------------------------------------------------------------------------------
                           ----------------------------
                           ! Normal Mode     3        !
 --------------------------                            --------------------------
 ! Name  Definition              Value          Relative Weight (%)             !
 --------------------------------------------------------------------------------
 ! R7    R(5,8)                  0.0284                  0.9                    !
 ! A7    A(1,5,6)               -0.0345                  1.1                    !
 ! A9    A(1,5,8)                0.1167                  3.6                    !
 ! A11   A(6,5,8)               -0.0258                  0.8                    !
 ! A12   A(7,5,8)               -0.0218                  0.7                    !
 ! A13   A(5,8,9)               -0.0258                  0.8                    !
 ! A14   A(5,8,10)              -0.0218                  0.7                    !
 ! A15   A(5,8,11)               0.1168                  3.6                    !
 ! A17   A(9,8,11)              -0.0345                  1.1                    !
 ! D1    D(2,1,5,6)             -0.108                   3.3                    !
 ! D2    D(2,1,5,7)             -0.0491                  1.5                    !
 ! D3    D(2,1,5,8)             -0.0859                  2.6                    !
 ! D4    D(3,1,5,6)             -0.1102                  3.4                    !
 ! D5    D(3,1,5,7)             -0.0513                  1.6                    !
 ! D6    D(3,1,5,8)             -0.0881                  2.7                    !
 ! D7    D(4,1,5,6)             -0.1027                  3.2                    !
 ! D8    D(4,1,5,7)             -0.0438                  1.3                    !
 ! D9    D(4,1,5,8)             -0.0806                  2.5                    !
 ! D10   D(1,5,8,9)              0.1616                  5.0                    !
 ! D11   D(1,5,8,10)             0.1097                  3.4                    !
 ! D12   D(1,5,8,11)             0.146                   4.5                    !
 ! D13   D(6,5,8,9)              0.1772                  5.4                    !
 ! D14   D(6,5,8,10)             0.1252                  3.8                    !
 ! D15   D(6,5,8,11)             0.1616                  5.0                    !
 ! D16   D(7,5,8,9)              0.1253                  3.8                    !
 ! D17   D(7,5,8,10)             0.0733                  2.2                    !
 ! D18   D(7,5,8,11)             0.1097                  3.4                    !
 ! D19   D(5,8,11,12)           -0.0863                  2.6                    !
 ! D20   D(5,8,11,13)           -0.081                   2.5                    !
 ! D21   D(5,8,11,14)           -0.0885                  2.7                    !
 ! D22   D(9,8,11,12)           -0.1084                  3.3                    !
 ! D23   D(9,8,11,13)           -0.1031                  3.2                    !
 ! D24   D(9,8,11,14)           -0.1106                  3.4                    !
 ! D25   D(10,8,11,12)          -0.0495                  1.5                    !
 ! D26   D(10,8,11,13)          -0.0442                  1.4                    !
 ! D27   D(10,8,11,14)          -0.0517                  1.6                    !
 --------------------------------------------------------------------------------
                           ----------------------------
                           ! Normal Mode     4        !
 --------------------------                            --------------------------
 ! Name  Definition              Value          Relative Weight (%)             !
 --------------------------------------------------------------------------------
 ! R4    R(1,5)                  0.0358                  1.0                    !
 ! R10   R(8,11)                -0.0358                  1.0                    !
 ! A3    A(2,1,5)               -0.0273                  0.7                    !
 ! A5    A(3,1,5)                0.044                   1.2                    !
 ! A7    A(1,5,6)               -0.0423                  1.1                    !
 ! A8    A(1,5,7)               -0.0327                  0.9                    !
 ! A9    A(1,5,8)                0.1801                  4.8                    !
 ! A11   A(6,5,8)               -0.0447                  1.2                    !
 ! A12   A(7,5,8)               -0.0448                  1.2                    !
 ! A13   A(5,8,9)                0.0447                  1.2                    !
 ! A14   A(5,8,10)               0.0449                  1.2                    !
 ! A15   A(5,8,11)              -0.1801                  4.8                    !
 ! A17   A(9,8,11)               0.0423                  1.1                    !
 ! A18   A(10,8,11)              0.0327                  0.9                    !
 ! A19   A(8,11,12)              0.0272                  0.7                    !
 ! A21   A(8,11,14)             -0.044                   1.2                    !
 ! D1    D(2,1,5,6)              0.1008                  2.7                    !
 ! D2    D(2,1,5,7)              0.1777                  4.8                    !
 ! D3    D(2,1,5,8)              0.1356                  3.6                    !
 ! D4    D(3,1,5,6)              0.111                   3.0                    !
 ! D5    D(3,1,5,7)              0.1879                  5.0                    !
 ! D6    D(3,1,5,8)              0.1457                  3.9                    !
 ! D7    D(4,1,5,6)              0.067                   1.8                    !
 ! D8    D(4,1,5,7)              0.1439                  3.8                    !
 ! D9    D(4,1,5,8)              0.1018                  2.7                    !
 ! D10   D(1,5,8,9)             -0.0344                  0.9                    !
 ! D11   D(1,5,8,10)             0.0475                  1.3                    !
 ! D14   D(6,5,8,10)             0.082                   2.2                    !
 ! D15   D(6,5,8,11)             0.0345                  0.9                    !
 ! D16   D(7,5,8,9)             -0.082                   2.2                    !
 ! D18   D(7,5,8,11)            -0.0475                  1.3                    !
 ! D19   D(5,8,11,12)           -0.1359                  3.6                    !
 ! D20   D(5,8,11,13)           -0.1021                  2.7                    !
 ! D21   D(5,8,11,14)           -0.146                   3.9                    !
 ! D22   D(9,8,11,12)           -0.1011                  2.7                    !
 ! D23   D(9,8,11,13)           -0.0673                  1.8                    !
 ! D24   D(9,8,11,14)           -0.1112                  3.0                    !
 ! D25   D(10,8,11,12)          -0.178                   4.8                    !
 ! D26   D(10,8,11,13)          -0.1442                  3.9                    !
 ! D27   D(10,8,11,14)          -0.1881                  5.0                    !
 --------------------------------------------------------------------------------
                           ----------------------------
                           ! Normal Mode     5        !
 --------------------------                            --------------------------
 ! Name  Definition              Value          Relative Weight (%)             !
 --------------------------------------------------------------------------------
 ! D1    D(2,1,5,6)             -0.2266                  4.7                    !
 ! D2    D(2,1,5,7)             -0.2253                  4.6                    !
 ! D3    D(2,1,5,8)             -0.2588                  5.3                    !
 ! D4    D(3,1,5,6)             -0.195                   4.0                    !
 ! D5    D(3,1,5,7)             -0.1937                  4.0                    !
 ! D6    D(3,1,5,8)             -0.2272                  4.7                    !
 ! D7    D(4,1,5,6)             -0.2269                  4.7                    !
 ! D8    D(4,1,5,7)             -0.2257                  4.6                    !
 ! D9    D(4,1,5,8)             -0.2592                  5.3                    !
 ! D10   D(1,5,8,9)              0.0589                  1.2                    !
 ! D11   D(1,5,8,10)             0.0598                  1.2                    !
 ! D12   D(1,5,8,11)             0.0847                  1.7                    !
 ! D13   D(6,5,8,9)              0.033                   0.7                    !
 ! D14   D(6,5,8,10)             0.034                   0.7                    !
 ! D15   D(6,5,8,11)             0.0588                  1.2                    !
 ! D16   D(7,5,8,9)              0.034                   0.7                    !
 ! D17   D(7,5,8,10)             0.035                   0.7                    !
 ! D18   D(7,5,8,11)             0.0598                  1.2                    !
 ! D19   D(5,8,11,12)           -0.2587                  5.3                    !
 ! D20   D(5,8,11,13)           -0.2591                  5.3                    !
 ! D21   D(5,8,11,14)           -0.2272                  4.7                    !
 ! D22   D(9,8,11,12)           -0.2265                  4.7                    !
 ! D23   D(9,8,11,13)           -0.2269                  4.7                    !
 ! D24   D(9,8,11,14)           -0.195                   4.0                    !
 ! D25   D(10,8,11,12)          -0.2252                  4.6                    !
 ! D26   D(10,8,11,13)          -0.2256                  4.6                    !
 ! D27   D(10,8,11,14)          -0.1937                  4.0                    !
 --------------------------------------------------------------------------------
                           ----------------------------
                           ! Normal Mode     6        !
 --------------------------                            --------------------------
 ! Name  Definition              Value          Relative Weight (%)             !
 --------------------------------------------------------------------------------
 ! R4    R(1,5)                 -0.0495                  0.9                    !
 ! R10   R(8,11)                 0.0495                  0.9                    !
 ! A2    A(2,1,4)                0.0468                  0.8                    !
 ! A5    A(3,1,5)               -0.1258                  2.2                    !
 ! A6    A(4,1,5)                0.0526                  0.9                    !
 ! A7    A(1,5,6)               -0.126                   2.2                    !
 ! A8    A(1,5,7)                0.1146                  2.0                    !
 ! A11   A(6,5,8)               -0.1128                  2.0                    !
 ! A12   A(7,5,8)                0.1217                  2.2                    !
 ! A13   A(5,8,9)                0.113                   2.0                    !
 ! A14   A(5,8,10)              -0.1218                  2.2                    !
 ! A17   A(9,8,11)               0.1262                  2.3                    !
 ! A18   A(10,8,11)             -0.1147                  2.0                    !
 ! A20   A(8,11,13)             -0.0528                  0.9                    !
 ! A21   A(8,11,14)              0.126                   2.2                    !
 ! A22   A(12,11,13)            -0.0468                  0.8                    !
 ! D1    D(2,1,5,6)              0.172                   3.1                    !
 ! D2    D(2,1,5,7)              0.1716                  3.1                    !
 ! D3    D(2,1,5,8)             -0.0476                  0.8                    !
 ! D4    D(3,1,5,6)              0.2366                  4.2                    !
 ! D5    D(3,1,5,7)              0.2361                  4.2                    !
 ! D7    D(4,1,5,6)              0.2913                  5.2                    !
 ! D8    D(4,1,5,7)              0.2909                  5.2                    !
 ! D9    D(4,1,5,8)              0.0717                  1.3                    !
 ! D10   D(1,5,8,9)              0.2268                  4.0                    !
 ! D11   D(1,5,8,10)             0.2138                  3.8                    !
 ! D15   D(6,5,8,11)            -0.2266                  4.0                    !
 ! D18   D(7,5,8,11)            -0.2136                  3.8                    !
 ! D19   D(5,8,11,12)            0.0478                  0.9                    !
 ! D20   D(5,8,11,13)           -0.0718                  1.3                    !
 ! D22   D(9,8,11,12)           -0.1722                  3.1                    !
 ! D23   D(9,8,11,13)           -0.2917                  5.2                    !
 ! D24   D(9,8,11,14)           -0.2369                  4.2                    !
 ! D25   D(10,8,11,12)          -0.1717                  3.1                    !
 ! D26   D(10,8,11,13)          -0.2912                  5.2                    !
 ! D27   D(10,8,11,14)          -0.2364                  4.2                    !
 --------------------------------------------------------------------------------
                           ----------------------------
                           ! Normal Mode     7        !
 --------------------------                            --------------------------
 ! Name  Definition              Value          Relative Weight (%)             !
 --------------------------------------------------------------------------------
 ! R4    R(1,5)                 -0.129                   2.9                    !
 ! R7    R(5,8)                 -0.2309                  5.1                    !
 ! R10   R(8,11)                -0.1291                  2.9                    !
 ! A1    A(2,1,3)                0.0352                  0.8                    !
 ! A3    A(2,1,5)               -0.1794                  4.0                    !
 ! A4    A(3,1,4)                0.054                   1.2                    !
 ! A5    A(3,1,5)                0.0724                  1.6                    !
 ! A7    A(1,5,6)                0.047                   1.0                    !
 ! A8    A(1,5,7)               -0.034                   0.8                    !
 ! A9    A(1,5,8)                0.0337                  0.7                    !
 ! A10   A(6,5,7)                0.0503                  1.1                    !
 ! A12   A(7,5,8)               -0.1146                  2.5                    !
 ! A14   A(5,8,10)              -0.1145                  2.5                    !
 ! A15   A(5,8,11)               0.0337                  0.7                    !
 ! A16   A(9,8,10)               0.0503                  1.1                    !
 ! A17   A(9,8,11)               0.0469                  1.0                    !
 ! A18   A(10,8,11)             -0.0339                  0.8                    !
 ! A19   A(8,11,12)             -0.1793                  4.0                    !
 ! A21   A(8,11,14)              0.0723                  1.6                    !
 ! A23   A(12,11,14)             0.0351                  0.8                    !
 ! A24   A(13,11,14)             0.054                   1.2                    !
 ! D1    D(2,1,5,6)             -0.0538                  1.2                    !
 ! D2    D(2,1,5,7)             -0.125                   2.8                    !
 ! D5    D(3,1,5,7)             -0.0992                  2.2                    !
 ! D6    D(3,1,5,8)              0.0421                  0.9                    !
 ! D7    D(4,1,5,6)             -0.1564                  3.5                    !
 ! D8    D(4,1,5,7)             -0.2276                  5.0                    !
 ! D9    D(4,1,5,8)             -0.0863                  1.9                    !
 ! D10   D(1,5,8,9)              0.0753                  1.7                    !
 ! D11   D(1,5,8,10)             0.0779                  1.7                    !
 ! D13   D(6,5,8,9)              0.164                   3.6                    !
 ! D14   D(6,5,8,10)             0.1666                  3.7                    !
 ! D15   D(6,5,8,11)             0.0755                  1.7                    !
 ! D16   D(7,5,8,9)              0.1666                  3.7                    !
 ! D17   D(7,5,8,10)             0.1692                  3.8                    !
 ! D18   D(7,5,8,11)             0.0781                  1.7                    !
 ! D20   D(5,8,11,13)           -0.0862                  1.9                    !
 ! D21   D(5,8,11,14)            0.0421                  0.9                    !
 ! D22   D(9,8,11,12)           -0.0537                  1.2                    !
 ! D23   D(9,8,11,13)           -0.1561                  3.5                    !
 ! D25   D(10,8,11,12)          -0.1249                  2.8                    !
 ! D26   D(10,8,11,13)          -0.2273                  5.0                    !
 ! D27   D(10,8,11,14)          -0.099                   2.2                    !
 --------------------------------------------------------------------------------
                           ----------------------------
                           ! Normal Mode     8        !
 --------------------------                            --------------------------
 ! Name  Definition              Value          Relative Weight (%)             !
 --------------------------------------------------------------------------------
 ! R7    R(5,8)                  0.0729                  1.2                    !
 ! A1    A(2,1,3)                0.0529                  0.9                    !
 ! A3    A(2,1,5)                0.079                   1.3                    !
 ! A5    A(3,1,5)                0.1225                  2.0                    !
 ! A6    A(4,1,5)               -0.2048                  3.4                    !
 ! A7    A(1,5,6)                0.0814                  1.3                    !
 ! A8    A(1,5,7)               -0.0974                  1.6                    !
 ! A11   A(6,5,8)                0.116                   1.9                    !
 ! A12   A(7,5,8)               -0.0685                  1.1                    !
 ! A13   A(5,8,9)                0.1159                  1.9                    !
 ! A14   A(5,8,10)              -0.0684                  1.1                    !
 ! A17   A(9,8,11)               0.0813                  1.3                    !
 ! A18   A(10,8,11)             -0.0973                  1.6                    !
 ! A19   A(8,11,12)              0.0791                  1.3                    !
 ! A20   A(8,11,13)             -0.2047                  3.4                    !
 ! A21   A(8,11,14)              0.1223                  2.0                    !
 ! A23   A(12,11,14)             0.0529                  0.9                    !
 ! D1    D(2,1,5,6)             -0.06                    1.0                    !
 ! D3    D(2,1,5,8)              0.1218                  2.0                    !
 ! D4    D(3,1,5,6)             -0.2637                  4.3                    !
 ! D5    D(3,1,5,7)             -0.2391                  3.9                    !
 ! D6    D(3,1,5,8)             -0.0819                  1.4                    !
 ! D7    D(4,1,5,6)             -0.1796                  3.0                    !
 ! D8    D(4,1,5,7)             -0.1551                  2.6                    !
 ! D10   D(1,5,8,9)              0.1406                  2.3                    !
 ! D11   D(1,5,8,10)             0.1548                  2.6                    !
 ! D13   D(6,5,8,9)              0.3003                  5.0                    !
 ! D14   D(6,5,8,10)             0.3144                  5.2                    !
 ! D15   D(6,5,8,11)             0.1408                  2.3                    !
 ! D16   D(7,5,8,9)              0.3145                  5.2                    !
 ! D17   D(7,5,8,10)             0.3286                  5.4                    !
 ! D18   D(7,5,8,11)             0.155                   2.6                    !
 ! D19   D(5,8,11,12)            0.1218                  2.0                    !
 ! D21   D(5,8,11,14)           -0.0818                  1.3                    !
 ! D22   D(9,8,11,12)           -0.0598                  1.0                    !
 ! D23   D(9,8,11,13)           -0.1793                  3.0                    !
 ! D24   D(9,8,11,14)           -0.2635                  4.3                    !
 ! D26   D(10,8,11,13)          -0.1547                  2.6                    !
 ! D27   D(10,8,11,14)          -0.2389                  3.9                    !
 --------------------------------------------------------------------------------
                           ----------------------------
                           ! Normal Mode     9        !
 --------------------------                            --------------------------
 ! Name  Definition              Value          Relative Weight (%)             !
 --------------------------------------------------------------------------------
 ! R4    R(1,5)                  0.1724                  4.3                    !
 ! R10   R(8,11)                -0.1725                  4.3                    !
 ! A1    A(2,1,3)               -0.0355                  0.9                    !
 ! A3    A(2,1,5)                0.2223                  5.5                    !
 ! A4    A(3,1,4)               -0.0911                  2.3                    !
 ! A5    A(3,1,5)               -0.1345                  3.3                    !
 ! A6    A(4,1,5)                0.0253                  0.6                    !
 ! A7    A(1,5,6)                0.052                   1.3                    !
 ! A8    A(1,5,7)                0.0947                  2.4                    !
 ! A12   A(7,5,8)               -0.095                   2.4                    !
 ! A14   A(5,8,10)               0.095                   2.4                    !
 ! A17   A(9,8,11)              -0.052                   1.3                    !
 ! A18   A(10,8,11)             -0.0947                  2.4                    !
 ! A19   A(8,11,12)             -0.2224                  5.5                    !
 ! A20   A(8,11,13)             -0.0253                  0.6                    !
 ! A21   A(8,11,14)              0.1346                  3.4                    !
 ! A23   A(12,11,14)             0.0355                  0.9                    !
 ! A24   A(13,11,14)             0.0911                  2.3                    !
 ! D1    D(2,1,5,6)             -0.0643                  1.6                    !
 ! D2    D(2,1,5,7)             -0.1373                  3.4                    !
 ! D3    D(2,1,5,8)             -0.0699                  1.7                    !
 ! D4    D(3,1,5,6)             -0.076                   1.9                    !
 ! D5    D(3,1,5,7)             -0.1489                  3.7                    !
 ! D6    D(3,1,5,8)             -0.0815                  2.0                    !
 ! D7    D(4,1,5,6)              0.1111                  2.8                    !
 ! D8    D(4,1,5,7)              0.0382                  1.0                    !
 ! D9    D(4,1,5,8)              0.1056                  2.6                    !
 ! D10   D(1,5,8,9)             -0.0413                  1.0                    !
 ! D11   D(1,5,8,10)             0.0496                  1.2                    !
 ! D14   D(6,5,8,10)             0.0909                  2.3                    !
 ! D15   D(6,5,8,11)             0.0413                  1.0                    !
 ! D16   D(7,5,8,9)             -0.0909                  2.3                    !
 ! D18   D(7,5,8,11)            -0.0496                  1.2                    !
 ! D19   D(5,8,11,12)            0.0698                  1.7                    !
 ! D20   D(5,8,11,13)           -0.1056                  2.6                    !
 ! D21   D(5,8,11,14)            0.0816                  2.0                    !
 ! D22   D(9,8,11,12)            0.0643                  1.6                    !
 ! D23   D(9,8,11,13)           -0.1111                  2.8                    !
 ! D24   D(9,8,11,14)            0.076                   1.9                    !
 ! D25   D(10,8,11,12)           0.1372                  3.4                    !
 ! D26   D(10,8,11,13)          -0.0382                  1.0                    !
 ! D27   D(10,8,11,14)           0.149                   3.7                    !
 --------------------------------------------------------------------------------
                           ----------------------------
                           ! Normal Mode    10        !
 --------------------------                            --------------------------
 ! Name  Definition              Value          Relative Weight (%)             !
 --------------------------------------------------------------------------------
 ! R4    R(1,5)                 -0.0365                  0.8                    !
 ! R10   R(8,11)                 0.036                   0.8                    !
 ! A1    A(2,1,3)                0.0833                  1.9                    !
 ! A3    A(2,1,5)                0.1692                  3.9                    !
 ! A4    A(3,1,4)               -0.0286                  0.7                    !
 ! A5    A(3,1,5)                0.0988                  2.3                    !
 ! A6    A(4,1,5)               -0.3073                  7.0                    !
 ! A9    A(1,5,8)                0.0306                  0.7                    !
 ! A11   A(6,5,8)               -0.1039                  2.4                    !
 ! A12   A(7,5,8)                0.0577                  1.3                    !
 ! A13   A(5,8,9)                0.1043                  2.4                    !
 ! A14   A(5,8,10)              -0.0576                  1.3                    !
 ! A15   A(5,8,11)              -0.0306                  0.7                    !
 ! A19   A(8,11,12)             -0.169                   3.9                    !
 ! A20   A(8,11,13)              0.3073                  7.0                    !
 ! A21   A(8,11,14)             -0.0993                  2.3                    !
 ! A23   A(12,11,14)            -0.0833                  1.9                    !
 ! A24   A(13,11,14)             0.0288                  0.7                    !
 ! D1    D(2,1,5,6)              0.2359                  5.4                    !
 ! D2    D(2,1,5,7)              0.2176                  5.0                    !
 ! D3    D(2,1,5,8)              0.126                   2.9                    !
 ! D4    D(3,1,5,6)             -0.0505                  1.2                    !
 ! D5    D(3,1,5,7)             -0.0687                  1.6                    !
 ! D6    D(3,1,5,8)             -0.1604                  3.7                    !
 ! D7    D(4,1,5,6)              0.1217                  2.8                    !
 ! D8    D(4,1,5,7)              0.1035                  2.4                    !
 ! D10   D(1,5,8,9)              0.0465                  1.1                    !
 ! D11   D(1,5,8,10)             0.0554                  1.3                    !
 ! D15   D(6,5,8,11)            -0.0469                  1.1                    !
 ! D18   D(7,5,8,11)            -0.0554                  1.3                    !
 ! D19   D(5,8,11,12)           -0.1263                  2.9                    !
 ! D21   D(5,8,11,14)            0.1603                  3.7                    !
 ! D22   D(9,8,11,12)           -0.2364                  5.4                    !
 ! D23   D(9,8,11,13)           -0.1219                  2.8                    !
 ! D24   D(9,8,11,14)            0.0502                  1.2                    !
 ! D25   D(10,8,11,12)          -0.2178                  5.0                    !
 ! D26   D(10,8,11,13)          -0.1033                  2.4                    !
 ! D27   D(10,8,11,14)           0.0688                  1.6                    !
 --------------------------------------------------------------------------------
                           ----------------------------
                           ! Normal Mode    11        !
 --------------------------                            --------------------------
 ! Name  Definition              Value          Relative Weight (%)             !
 --------------------------------------------------------------------------------
 ! R4    R(1,5)                 -0.2032                  5.0                    !
 ! R7    R(5,8)                  0.101                   2.5                    !
 ! R10   R(8,11)                -0.2034                  5.0                    !
 ! A2    A(2,1,4)                0.0908                  2.2                    !
 ! A3    A(2,1,5)                0.0626                  1.5                    !
 ! A4    A(3,1,4)                0.0514                  1.3                    !
 ! A5    A(3,1,5)               -0.1899                  4.6                    !
 ! A6    A(4,1,5)               -0.0257                  0.6                    !
 ! A7    A(1,5,6)               -0.132                   3.2                    !
 ! A8    A(1,5,7)               -0.0682                  1.7                    !
 ! A11   A(6,5,8)                0.1172                  2.9                    !
 ! A12   A(7,5,8)                0.0497                  1.2                    !
 ! A13   A(5,8,9)                0.1171                  2.9                    !
 ! A14   A(5,8,10)               0.0498                  1.2                    !
 ! A17   A(9,8,11)              -0.1321                  3.2                    !
 ! A18   A(10,8,11)             -0.0684                  1.7                    !
 ! A19   A(8,11,12)              0.0633                  1.5                    !
 ! A20   A(8,11,13)             -0.0268                  0.7                    !
 ! A21   A(8,11,14)             -0.1898                  4.6                    !
 ! A22   A(12,11,13)             0.0908                  2.2                    !
 ! A24   A(13,11,14)             0.0513                  1.3                    !
 ! D1    D(2,1,5,6)             -0.1664                  4.1                    !
 ! D2    D(2,1,5,7)             -0.0633                  1.5                    !
 ! D3    D(2,1,5,8)             -0.0927                  2.3                    !
 ! D4    D(3,1,5,6)             -0.1024                  2.5                    !
 ! D6    D(3,1,5,8)             -0.0287                  0.7                    !
 ! D8    D(4,1,5,7)              0.0787                  1.9                    !
 ! D9    D(4,1,5,8)              0.0493                  1.2                    !
 ! D10   D(1,5,8,9)             -0.1061                  2.6                    !
 ! D13   D(6,5,8,9)             -0.1868                  4.6                    !
 ! D14   D(6,5,8,10)            -0.0628                  1.5                    !
 ! D15   D(6,5,8,11)            -0.1061                  2.6                    !
 ! D16   D(7,5,8,9)             -0.0628                  1.5                    !
 ! D17   D(7,5,8,10)             0.0611                  1.5                    !
 ! D19   D(5,8,11,12)           -0.0923                  2.3                    !
 ! D20   D(5,8,11,13)            0.0495                  1.2                    !
 ! D21   D(5,8,11,14)           -0.0293                  0.7                    !
 ! D22   D(9,8,11,12)           -0.1659                  4.1                    !
 ! D24   D(9,8,11,14)           -0.1029                  2.5                    !
 ! D25   D(10,8,11,12)          -0.0627                  1.5                    !
 ! D26   D(10,8,11,13)           0.0791                  1.9                    !
 --------------------------------------------------------------------------------
                           ----------------------------
                           ! Normal Mode    12        !
 --------------------------                            --------------------------
 ! Name  Definition              Value          Relative Weight (%)             !
 --------------------------------------------------------------------------------
 ! R4    R(1,5)                  0.1339                  2.4                    !
 ! R10   R(8,11)                -0.1336                  2.4                    !
 ! A1    A(2,1,3)               -0.0478                  0.9                    !
 ! A2    A(2,1,4)               -0.096                   1.7                    !
 ! A3    A(2,1,5)               -0.1525                  2.7                    !
 ! A5    A(3,1,5)                0.2772                  5.0                    !
 ! A8    A(1,5,7)                0.1969                  3.5                    !
 ! A9    A(1,5,8)               -0.1203                  2.2                    !
 ! A11   A(6,5,8)               -0.1088                  2.0                    !
 ! A12   A(7,5,8)                0.0705                  1.3                    !
 ! A13   A(5,8,9)                0.1087                  2.0                    !
 ! A14   A(5,8,10)              -0.0707                  1.3                    !
 ! A15   A(5,8,11)               0.1202                  2.2                    !
 ! A18   A(10,8,11)             -0.1969                  3.5                    !
 ! A19   A(8,11,12)              0.1526                  2.7                    !
 ! A21   A(8,11,14)             -0.2772                  5.0                    !
 ! A22   A(12,11,13)             0.0959                  1.7                    !
 ! A23   A(12,11,14)             0.0478                  0.9                    !
 ! D1    D(2,1,5,6)              0.2444                  4.4                    !
 ! D2    D(2,1,5,7)              0.1598                  2.9                    !
 ! D4    D(3,1,5,6)              0.2177                  3.9                    !
 ! D5    D(3,1,5,7)              0.1331                  2.4                    !
 ! D8    D(4,1,5,7)             -0.0649                  1.2                    !
 ! D9    D(4,1,5,8)             -0.1962                  3.5                    !
 ! D10   D(1,5,8,9)              0.1512                  2.7                    !
 ! D11   D(1,5,8,10)             0.2093                  3.8                    !
 ! D14   D(6,5,8,10)             0.0584                  1.1                    !
 ! D15   D(6,5,8,11)            -0.151                   2.7                    !
 ! D16   D(7,5,8,9)             -0.0582                  1.0                    !
 ! D18   D(7,5,8,11)            -0.2094                  3.8                    !
 ! D20   D(5,8,11,13)            0.1963                  3.5                    !
 ! D22   D(9,8,11,12)           -0.2444                  4.4                    !
 ! D24   D(9,8,11,14)           -0.2177                  3.9                    !
 ! D25   D(10,8,11,12)          -0.16                    2.9                    !
 ! D26   D(10,8,11,13)           0.0648                  1.2                    !
 ! D27   D(10,8,11,14)          -0.1332                  2.4                    !
 --------------------------------------------------------------------------------
                           ----------------------------
                           ! Normal Mode    13        !
 --------------------------                            --------------------------
 ! Name  Definition              Value          Relative Weight (%)             !
 --------------------------------------------------------------------------------
 ! R7    R(5,8)                  0.1248                  2.4                    !
 ! A1    A(2,1,3)                0.0344                  0.7                    !
 ! A2    A(2,1,4)               -0.0517                  1.0                    !
 ! A3    A(2,1,5)               -0.2123                  4.1                    !
 ! A4    A(3,1,4)                0.0511                  1.0                    !
 ! A5    A(3,1,5)                0.2046                  3.9                    !
 ! A7    A(1,5,6)               -0.1307                  2.5                    !
 ! A12   A(7,5,8)                0.1802                  3.5                    !
 ! A14   A(5,8,10)               0.1801                  3.5                    !
 ! A17   A(9,8,11)              -0.1307                  2.5                    !
 ! A19   A(8,11,12)             -0.2122                  4.1                    !
 ! A21   A(8,11,14)              0.2045                  3.9                    !
 ! A22   A(12,11,13)            -0.0516                  1.0                    !
 ! A23   A(12,11,14)             0.0344                  0.7                    !
 ! A24   A(13,11,14)             0.051                   1.0                    !
 ! D1    D(2,1,5,6)              0.1322                  2.5                    !
 ! D2    D(2,1,5,7)              0.2606                  5.0                    !
 ! D3    D(2,1,5,8)              0.0674                  1.3                    !
 ! D4    D(3,1,5,6)              0.0907                  1.7                    !
 ! D5    D(3,1,5,7)              0.2191                  4.2                    !
 ! D7    D(4,1,5,6)             -0.096                   1.9                    !
 ! D9    D(4,1,5,8)             -0.1608                  3.1                    !
 ! D10   D(1,5,8,9)             -0.0744                  1.4                    !
 ! D12   D(1,5,8,11)             0.0859                  1.7                    !
 ! D13   D(6,5,8,9)             -0.2346                  4.5                    !
 ! D14   D(6,5,8,10)            -0.1416                  2.7                    !
 ! D15   D(6,5,8,11)            -0.0744                  1.4                    !
 ! D16   D(7,5,8,9)             -0.1417                  2.7                    !
 ! D17   D(7,5,8,10)            -0.0486                  0.9                    !
 ! D19   D(5,8,11,12)            0.0673                  1.3                    !
 ! D20   D(5,8,11,13)           -0.1607                  3.1                    !
 ! D22   D(9,8,11,12)            0.132                   2.5                    !
 ! D23   D(9,8,11,13)           -0.096                   1.9                    !
 ! D24   D(9,8,11,14)            0.0905                  1.7                    !
 ! D25   D(10,8,11,12)           0.2605                  5.0                    !
 ! D26   D(10,8,11,13)           0.0325                  0.6                    !
 ! D27   D(10,8,11,14)           0.219                   4.2                    !
 --------------------------------------------------------------------------------
                           ----------------------------
                           ! Normal Mode    14        !
 --------------------------                            --------------------------
 ! Name  Definition              Value          Relative Weight (%)             !
 --------------------------------------------------------------------------------
 ! R4    R(1,5)                 -0.0562                  0.7                    !
 ! R7    R(5,8)                 -0.1342                  1.8                    !
 ! R10   R(8,11)                -0.0562                  0.7                    !
 ! A1    A(2,1,3)                0.0703                  0.9                    !
 ! A3    A(2,1,5)                0.1396                  1.9                    !
 ! A5    A(3,1,5)                0.0915                  1.2                    !
 ! A6    A(4,1,5)               -0.271                   3.6                    !
 ! A7    A(1,5,6)               -0.1524                  2.0                    !
 ! A8    A(1,5,7)                0.1617                  2.1                    !
 ! A9    A(1,5,8)                0.0878                  1.2                    !
 ! A10   A(6,5,7)                0.0477                  0.6                    !
 ! A11   A(6,5,8)               -0.2069                  2.7                    !
 ! A12   A(7,5,8)                0.0558                  0.7                    !
 ! A13   A(5,8,9)               -0.2069                  2.7                    !
 ! A14   A(5,8,10)               0.0558                  0.7                    !
 ! A15   A(5,8,11)               0.0878                  1.2                    !
 ! A16   A(9,8,10)               0.0478                  0.6                    !
 ! A17   A(9,8,11)              -0.1524                  2.0                    !
 ! A18   A(10,8,11)              0.1616                  2.1                    !
 ! A19   A(8,11,12)              0.1396                  1.9                    !
 ! A20   A(8,11,13)             -0.271                   3.6                    !
 ! A21   A(8,11,14)              0.0915                  1.2                    !
 ! A23   A(12,11,14)             0.0703                  0.9                    !
 ! D1    D(2,1,5,6)              0.3055                  4.1                    !
 ! D2    D(2,1,5,7)              0.2406                  3.2                    !
 ! D4    D(3,1,5,6)              0.0604                  0.8                    !
 ! D6    D(3,1,5,8)             -0.232                   3.1                    !
 ! D7    D(4,1,5,6)              0.2089                  2.8                    !
 ! D8    D(4,1,5,7)              0.144                   1.9                    !
 ! D9    D(4,1,5,8)             -0.0835                  1.1                    !
 ! D10   D(1,5,8,9)             -0.073                   1.0                    !
 ! D11   D(1,5,8,10)            -0.1052                  1.4                    !
 ! D12   D(1,5,8,11)             0.185                   2.5                    !
 ! D13   D(6,5,8,9)             -0.331                   4.4                    !
 ! D14   D(6,5,8,10)            -0.3632                  4.8                    !
 ! D15   D(6,5,8,11)            -0.073                   1.0                    !
 ! D16   D(7,5,8,9)             -0.3632                  4.8                    !
 ! D17   D(7,5,8,10)            -0.3954                  5.2                    !
 ! D18   D(7,5,8,11)            -0.1053                  1.4                    !
 ! D20   D(5,8,11,13)           -0.0834                  1.1                    !
 ! D21   D(5,8,11,14)           -0.232                   3.1                    !
 ! D22   D(9,8,11,12)            0.3055                  4.0                    !
 ! D23   D(9,8,11,13)            0.2089                  2.8                    !
 ! D24   D(9,8,11,14)            0.0603                  0.8                    !
 ! D25   D(10,8,11,12)           0.2405                  3.2                    !
 ! D26   D(10,8,11,13)           0.144                   1.9                    !
 --------------------------------------------------------------------------------
                           ----------------------------
                           ! Normal Mode    15        !
 --------------------------                            --------------------------
 ! Name  Definition              Value          Relative Weight (%)             !
 --------------------------------------------------------------------------------
 ! A5    A(3,1,5)                0.0448                  1.0                    !
 ! A6    A(4,1,5)               -0.0795                  1.8                    !
 ! A7    A(1,5,6)               -0.2629                  6.0                    !
 ! A8    A(1,5,7)                0.1873                  4.3                    !
 ! A11   A(6,5,8)                0.2183                  5.0                    !
 ! A12   A(7,5,8)               -0.1718                  3.9                    !
 ! A13   A(5,8,9)               -0.2206                  5.0                    !
 ! A14   A(5,8,10)               0.1741                  4.0                    !
 ! A17   A(9,8,11)               0.2649                  6.0                    !
 ! A18   A(10,8,11)             -0.1898                  4.3                    !
 ! A20   A(8,11,13)              0.0794                  1.8                    !
 ! A21   A(8,11,14)             -0.0453                  1.0                    !
 ! D1    D(2,1,5,6)             -0.0962                  2.2                    !
 ! D2    D(2,1,5,7)             -0.069                   1.6                    !
 ! D4    D(3,1,5,6)             -0.1529                  3.5                    !
 ! D5    D(3,1,5,7)             -0.1257                  2.9                    !
 ! D6    D(3,1,5,8)             -0.0371                  0.8                    !
 ! D7    D(4,1,5,6)             -0.132                   3.0                    !
 ! D8    D(4,1,5,7)             -0.1048                  2.4                    !
 ! D10   D(1,5,8,9)              0.183                   4.2                    !
 ! D11   D(1,5,8,10)             0.1338                  3.0                    !
 ! D14   D(6,5,8,10)            -0.0481                  1.1                    !
 ! D15   D(6,5,8,11)            -0.1819                  4.1                    !
 ! D16   D(7,5,8,9)              0.0507                  1.2                    !
 ! D18   D(7,5,8,11)            -0.1323                  3.0                    !
 ! D21   D(5,8,11,14)            0.0369                  0.8                    !
 ! D22   D(9,8,11,12)            0.0976                  2.2                    !
 ! D23   D(9,8,11,13)            0.1336                  3.0                    !
 ! D24   D(9,8,11,14)            0.1542                  3.5                    !
 ! D25   D(10,8,11,12)           0.0703                  1.6                    !
 ! D26   D(10,8,11,13)           0.1063                  2.4                    !
 ! D27   D(10,8,11,14)           0.127                   2.9                    !
 --------------------------------------------------------------------------------
                           ----------------------------
                           ! Normal Mode    16        !
 --------------------------                            --------------------------
 ! Name  Definition              Value          Relative Weight (%)             !
 --------------------------------------------------------------------------------
 ! A7    A(1,5,6)                0.1833                  3.5                    !
 ! A8    A(1,5,7)               -0.2363                  4.5                    !
 ! A11   A(6,5,8)               -0.2154                  4.1                    !
 ! A12   A(7,5,8)                0.2174                  4.2                    !
 ! A13   A(5,8,9)               -0.2131                  4.1                    !
 ! A14   A(5,8,10)               0.2156                  4.1                    !
 ! A17   A(9,8,11)               0.1806                  3.4                    !
 ! A18   A(10,8,11)             -0.2343                  4.5                    !
 ! D1    D(2,1,5,6)              0.1293                  2.5                    !
 ! D2    D(2,1,5,7)              0.1219                  2.3                    !
 ! D4    D(3,1,5,6)              0.1231                  2.4                    !
 ! D5    D(3,1,5,7)              0.1158                  2.2                    !
 ! D7    D(4,1,5,6)              0.1472                  2.8                    !
 ! D8    D(4,1,5,7)              0.1398                  2.7                    !
 ! D10   D(1,5,8,9)              0.1025                  2.0                    !
 ! D11   D(1,5,8,10)             0.1433                  2.7                    !
 ! D13   D(6,5,8,9)              0.2075                  4.0                    !
 ! D14   D(6,5,8,10)             0.2482                  4.7                    !
 ! D15   D(6,5,8,11)             0.1044                  2.0                    !
 ! D16   D(7,5,8,9)              0.2477                  4.7                    !
 ! D17   D(7,5,8,10)             0.2885                  5.5                    !
 ! D18   D(7,5,8,11)             0.1447                  2.8                    !
 ! D22   D(9,8,11,12)            0.1283                  2.4                    !
 ! D23   D(9,8,11,13)            0.1458                  2.8                    !
 ! D24   D(9,8,11,14)            0.1216                  2.3                    !
 ! D25   D(10,8,11,12)           0.1212                  2.3                    !
 ! D26   D(10,8,11,13)           0.1387                  2.6                    !
 ! D27   D(10,8,11,14)           0.1144                  2.2                    !
 --------------------------------------------------------------------------------
                           ----------------------------
                           ! Normal Mode    17        !
 --------------------------                            --------------------------
 ! Name  Definition              Value          Relative Weight (%)             !
 --------------------------------------------------------------------------------
 ! A1    A(2,1,3)                0.1411                  2.1                    !
 ! A2    A(2,1,4)                0.1259                  1.9                    !
 ! A3    A(2,1,5)               -0.1771                  2.6                    !
 ! A4    A(3,1,4)                0.1398                  2.1                    !
 ! A5    A(3,1,5)               -0.1162                  1.7                    !
 ! A6    A(4,1,5)               -0.0872                  1.3                    !
 ! A7    A(1,5,6)                0.1877                  2.8                    !
 ! A8    A(1,5,7)                0.198                   2.9                    !
 ! A10   A(6,5,7)                0.0916                  1.4                    !
 ! A11   A(6,5,8)               -0.2053                  3.0                    !
 ! A12   A(7,5,8)               -0.2957                  4.4                    !
 ! A13   A(5,8,9)                0.2054                  3.0                    !
 ! A14   A(5,8,10)               0.2958                  4.4                    !
 ! A16   A(9,8,10)              -0.0916                  1.4                    !
 ! A17   A(9,8,11)              -0.1877                  2.8                    !
 ! A18   A(10,8,11)             -0.1981                  2.9                    !
 ! A19   A(8,11,12)              0.1772                  2.6                    !
 ! A20   A(8,11,13)              0.0872                  1.3                    !
 ! A21   A(8,11,14)              0.1163                  1.7                    !
 ! A22   A(12,11,13)            -0.1259                  1.9                    !
 ! A23   A(12,11,14)            -0.1412                  2.1                    !
 ! A24   A(13,11,14)            -0.1399                  2.1                    !
 ! D1    D(2,1,5,6)              0.1551                  2.3                    !
 ! D2    D(2,1,5,7)             -0.205                   3.0                    !
 ! D4    D(3,1,5,6)              0.1738                  2.6                    !
 ! D5    D(3,1,5,7)             -0.1863                  2.7                    !
 ! D7    D(4,1,5,6)              0.1321                  1.9                    !
 ! D8    D(4,1,5,7)             -0.228                   3.4                    !
 ! D10   D(1,5,8,9)             -0.1155                  1.7                    !
 ! D14   D(6,5,8,10)             0.1873                  2.8                    !
 ! D15   D(6,5,8,11)             0.1155                  1.7                    !
 ! D16   D(7,5,8,9)             -0.1872                  2.8                    !
 ! D22   D(9,8,11,12)           -0.1552                  2.3                    !
 ! D23   D(9,8,11,13)           -0.1321                  1.9                    !
 ! D24   D(9,8,11,14)           -0.1739                  2.6                    !
 ! D25   D(10,8,11,12)           0.2051                  3.0                    !
 ! D26   D(10,8,11,13)           0.2282                  3.4                    !
 ! D27   D(10,8,11,14)           0.1863                  2.7                    !
 --------------------------------------------------------------------------------
                           ----------------------------
                           ! Normal Mode    18        !
 --------------------------                            --------------------------
 ! Name  Definition              Value          Relative Weight (%)             !
 --------------------------------------------------------------------------------
 ! R7    R(5,8)                  0.1217                  1.8                    !
 ! A1    A(2,1,3)                0.1021                  1.5                    !
 ! A3    A(2,1,5)               -0.1336                  2.0                    !
 ! A4    A(3,1,4)                0.4065                  6.0                    !
 ! A5    A(3,1,5)               -0.1726                  2.6                    !
 ! A6    A(4,1,5)               -0.1558                  2.3                    !
 ! A7    A(1,5,6)                0.1655                  2.5                    !
 ! A8    A(1,5,7)                0.168                   2.5                    !
 ! A10   A(6,5,7)               -0.1637                  2.4                    !
 ! A11   A(6,5,8)               -0.0973                  1.4                    !
 ! A13   A(5,8,9)               -0.0973                  1.4                    !
 ! A16   A(9,8,10)              -0.1637                  2.4                    !
 ! A17   A(9,8,11)               0.1654                  2.5                    !
 ! A18   A(10,8,11)              0.168                   2.5                    !
 ! A19   A(8,11,12)             -0.1334                  2.0                    !
 ! A20   A(8,11,13)             -0.1558                  2.3                    !
 ! A21   A(8,11,14)             -0.1724                  2.6                    !
 ! A23   A(12,11,14)             0.1015                  1.5                    !
 ! A24   A(13,11,14)             0.4066                  6.0                    !
 ! D4    D(3,1,5,6)              0.1372                  2.0                    !
 ! D5    D(3,1,5,7)              0.1288                  1.9                    !
 ! D6    D(3,1,5,8)              0.1061                  1.6                    !
 ! D7    D(4,1,5,6)             -0.1577                  2.3                    !
 ! D8    D(4,1,5,7)             -0.1661                  2.5                    !
 ! D9    D(4,1,5,8)             -0.1888                  2.8                    !
 ! D10   D(1,5,8,9)              0.1513                  2.2                    !
 ! D11   D(1,5,8,10)            -0.1402                  2.1                    !
 ! D13   D(6,5,8,9)              0.2826                  4.2                    !
 ! D15   D(6,5,8,11)             0.1513                  2.2                    !
 ! D17   D(7,5,8,10)            -0.3003                  4.5                    !
 ! D18   D(7,5,8,11)            -0.1402                  2.1                    !
 ! D20   D(5,8,11,13)           -0.1888                  2.8                    !
 ! D21   D(5,8,11,14)            0.1063                  1.6                    !
 ! D23   D(9,8,11,13)           -0.1576                  2.3                    !
 ! D24   D(9,8,11,14)            0.1374                  2.0                    !
 ! D26   D(10,8,11,13)          -0.1661                  2.5                    !
 ! D27   D(10,8,11,14)           0.129                   1.9                    !
 --------------------------------------------------------------------------------
                           ----------------------------
                           ! Normal Mode    19        !
 --------------------------                            --------------------------
 ! Name  Definition              Value          Relative Weight (%)             !
 --------------------------------------------------------------------------------
 ! A1    A(2,1,3)                0.4381                  7.2                    !
 ! A2    A(2,1,4)               -0.3314                  5.4                    !
 ! A5    A(3,1,5)               -0.1082                  1.8                    !
 ! A6    A(4,1,5)                0.0739                  1.2                    !
 ! A10   A(6,5,7)               -0.073                   1.2                    !
 ! A16   A(9,8,10)               0.0738                  1.2                    !
 ! A20   A(8,11,13)             -0.0734                  1.2                    !
 ! A21   A(8,11,14)              0.1082                  1.8                    !
 ! A22   A(12,11,13)             0.3297                  5.4                    !
 ! A23   A(12,11,14)            -0.4382                  7.2                    !
 ! D1    D(2,1,5,6)              0.2454                  4.0                    !
 ! D2    D(2,1,5,7)              0.3333                  5.5                    !
 ! D3    D(2,1,5,8)              0.2837                  4.7                    !
 ! D4    D(3,1,5,6)             -0.2151                  3.5                    !
 ! D5    D(3,1,5,7)             -0.1273                  2.1                    !
 ! D6    D(3,1,5,8)             -0.1768                  2.9                    !
 ! D7    D(4,1,5,6)             -0.1506                  2.5                    !
 ! D8    D(4,1,5,7)             -0.0627                  1.0                    !
 ! D9    D(4,1,5,8)             -0.1122                  1.8                    !
 ! D11   D(1,5,8,10)             0.0444                  0.7                    !
 ! D14   D(6,5,8,10)             0.0522                  0.9                    !
 ! D16   D(7,5,8,9)             -0.0522                  0.9                    !
 ! D18   D(7,5,8,11)            -0.0439                  0.7                    !
 ! D19   D(5,8,11,12)           -0.2831                  4.7                    !
 ! D20   D(5,8,11,13)            0.1115                  1.8                    !
 ! D21   D(5,8,11,14)            0.177                   2.9                    !
 ! D22   D(9,8,11,12)           -0.2446                  4.0                    !
 ! D23   D(9,8,11,13)            0.1499                  2.5                    !
 ! D24   D(9,8,11,14)            0.2155                  3.5                    !
 ! D25   D(10,8,11,12)          -0.3329                  5.5                    !
 ! D26   D(10,8,11,13)           0.0617                  1.0                    !
 ! D27   D(10,8,11,14)           0.1272                  2.1                    !
 --------------------------------------------------------------------------------
                           ----------------------------
                           ! Normal Mode    20        !
 --------------------------                            --------------------------
 ! Name  Definition              Value          Relative Weight (%)             !
 --------------------------------------------------------------------------------
 ! R7    R(5,8)                  0.0497                  0.8                    !
 ! A1    A(2,1,3)               -0.0421                  0.6                    !
 ! A2    A(2,1,4)                0.463                   7.1                    !
 ! A3    A(2,1,5)               -0.1493                  2.3                    !
 ! A4    A(3,1,4)               -0.2136                  3.3                    !
 ! A6    A(4,1,5)               -0.0875                  1.3                    !
 ! A7    A(1,5,6)                0.0928                  1.4                    !
 ! A8    A(1,5,7)                0.069                   1.1                    !
 ! A10   A(6,5,7)               -0.1423                  2.2                    !
 ! A16   A(9,8,10)              -0.142                   2.2                    !
 ! A17   A(9,8,11)               0.0928                  1.4                    !
 ! A18   A(10,8,11)              0.0689                  1.1                    !
 ! A19   A(8,11,12)             -0.1491                  2.3                    !
 ! A20   A(8,11,13)             -0.0878                  1.4                    !
 ! A22   A(12,11,13)             0.4641                  7.2                    !
 ! A23   A(12,11,14)            -0.0439                  0.7                    !
 ! A24   A(13,11,14)            -0.2132                  3.3                    !
 ! D1    D(2,1,5,6)             -0.2134                  3.3                    !
 ! D2    D(2,1,5,7)             -0.1391                  2.1                    !
 ! D3    D(2,1,5,8)             -0.1963                  3.0                    !
 ! D4    D(3,1,5,6)             -0.0858                  1.3                    !
 ! D6    D(3,1,5,8)             -0.0686                  1.1                    !
 ! D7    D(4,1,5,6)              0.2155                  3.3                    !
 ! D8    D(4,1,5,7)              0.2897                  4.5                    !
 ! D9    D(4,1,5,8)              0.2326                  3.6                    !
 ! D10   D(1,5,8,9)              0.0901                  1.4                    !
 ! D11   D(1,5,8,10)            -0.1003                  1.5                    !
 ! D13   D(6,5,8,9)              0.1865                  2.9                    !
 ! D15   D(6,5,8,11)             0.0901                  1.4                    !
 ! D17   D(7,5,8,10)            -0.1945                  3.0                    !
 ! D18   D(7,5,8,11)            -0.1004                  1.5                    !
 ! D19   D(5,8,11,12)           -0.1974                  3.0                    !
 ! D20   D(5,8,11,13)            0.2329                  3.6                    !
 ! D21   D(5,8,11,14)           -0.0678                  1.0                    !
 ! D22   D(9,8,11,12)           -0.2144                  3.3                    !
 ! D23   D(9,8,11,13)            0.2159                  3.3                    !
 ! D24   D(9,8,11,14)           -0.0848                  1.3                    !
 ! D25   D(10,8,11,12)          -0.1404                  2.2                    !
 ! D26   D(10,8,11,13)           0.2898                  4.5                    !
 --------------------------------------------------------------------------------
                           ----------------------------
                           ! Normal Mode    21        !
 --------------------------                            --------------------------
 ! Name  Definition              Value          Relative Weight (%)             !
 --------------------------------------------------------------------------------
 ! A1    A(2,1,3)                0.1767                  3.1                    !
 ! A2    A(2,1,4)                0.2894                  5.0                    !
 ! A3    A(2,1,5)               -0.1219                  2.1                    !
 ! A4    A(3,1,4)               -0.4346                  7.6                    !
 ! A5    A(3,1,5)                0.062                   1.1                    !
 ! A10   A(6,5,7)               -0.0398                  0.7                    !
 ! A16   A(9,8,10)               0.04                    0.7                    !
 ! A19   A(8,11,12)              0.122                   2.1                    !
 ! A21   A(8,11,14)             -0.0619                  1.1                    !
 ! A22   A(12,11,13)            -0.2895                  5.0                    !
 ! A23   A(12,11,14)            -0.177                   3.1                    !
 ! A24   A(13,11,14)             0.4348                  7.6                    !
 ! D1    D(2,1,5,6)             -0.0636                  1.1                    !
 ! D3    D(2,1,5,8)             -0.0388                  0.7                    !
 ! D4    D(3,1,5,6)             -0.2488                  4.3                    !
 ! D5    D(3,1,5,7)             -0.2004                  3.5                    !
 ! D6    D(3,1,5,8)             -0.224                   3.9                    !
 ! D7    D(4,1,5,6)              0.2406                  4.2                    !
 ! D8    D(4,1,5,7)              0.289                   5.0                    !
 ! D9    D(4,1,5,8)              0.2654                  4.6                    !
 ! D19   D(5,8,11,12)            0.0388                  0.7                    !
 ! D20   D(5,8,11,13)           -0.2655                  4.6                    !
 ! D21   D(5,8,11,14)            0.2241                  3.9                    !
 ! D22   D(9,8,11,12)            0.0636                  1.1                    !
 ! D23   D(9,8,11,13)           -0.2407                  4.2                    !
 ! D24   D(9,8,11,14)            0.249                   4.3                    !
 ! D26   D(10,8,11,13)          -0.2892                  5.0                    !
 ! D27   D(10,8,11,14)           0.2005                  3.5                    !
 --------------------------------------------------------------------------------
                           ----------------------------
                           ! Normal Mode    22        !
 --------------------------                            --------------------------
 ! Name  Definition              Value          Relative Weight (%)             !
 --------------------------------------------------------------------------------
 ! R4    R(1,5)                 -0.0528                  0.7                    !
 ! R10   R(8,11)                 0.0527                  0.7                    !
 ! A2    A(2,1,4)               -0.1646                  2.1                    !
 ! A3    A(2,1,5)                0.0786                  1.0                    !
 ! A4    A(3,1,4)               -0.1751                  2.3                    !
 ! A5    A(3,1,5)                0.11                    1.4                    !
 ! A6    A(4,1,5)                0.1528                  2.0                    !
 ! A7    A(1,5,6)               -0.0779                  1.0                    !
 ! A8    A(1,5,7)               -0.0789                  1.0                    !
 ! A10   A(6,5,7)                0.4411                  5.7                    !
 ! A11   A(6,5,8)               -0.1354                  1.7                    !
 ! A12   A(7,5,8)               -0.1262                  1.6                    !
 ! A13   A(5,8,9)                0.1355                  1.7                    !
 ! A14   A(5,8,10)               0.1263                  1.6                    !
 ! A16   A(9,8,10)              -0.4415                  5.7                    !
 ! A17   A(9,8,11)               0.0779                  1.0                    !
 ! A18   A(10,8,11)              0.079                   1.0                    !
 ! A19   A(8,11,12)             -0.0786                  1.0                    !
 ! A20   A(8,11,13)             -0.1527                  2.0                    !
 ! A21   A(8,11,14)             -0.11                    1.4                    !
 ! A22   A(12,11,13)             0.1644                  2.1                    !
 ! A24   A(13,11,14)             0.175                   2.3                    !
 ! D1    D(2,1,5,6)              0.2731                  3.5                    !
 ! D2    D(2,1,5,7)             -0.177                   2.3                    !
 ! D4    D(3,1,5,6)              0.1768                  2.3                    !
 ! D5    D(3,1,5,7)             -0.2733                  3.5                    !
 ! D6    D(3,1,5,8)             -0.0527                  0.7                    !
 ! D7    D(4,1,5,6)              0.2241                  2.9                    !
 ! D8    D(4,1,5,7)             -0.226                   2.9                    !
 ! D10   D(1,5,8,9)              0.1928                  2.5                    !
 ! D11   D(1,5,8,10)            -0.1902                  2.4                    !
 ! D14   D(6,5,8,10)            -0.3828                  4.9                    !
 ! D15   D(6,5,8,11)            -0.1926                  2.5                    !
 ! D16   D(7,5,8,9)              0.3828                  4.9                    !
 ! D18   D(7,5,8,11)             0.19                    2.4                    !
 ! D21   D(5,8,11,14)            0.0525                  0.7                    !
 ! D22   D(9,8,11,12)           -0.2731                  3.5                    !
 ! D23   D(9,8,11,13)           -0.2243                  2.9                    !
 ! D24   D(9,8,11,14)           -0.1772                  2.3                    !
 ! D25   D(10,8,11,12)           0.1774                  2.3                    !
 ! D26   D(10,8,11,13)           0.2262                  2.9                    !
 ! D27   D(10,8,11,14)           0.2733                  3.5                    !
 --------------------------------------------------------------------------------
                           ----------------------------
                           ! Normal Mode    23        !
 --------------------------                            --------------------------
 ! Name  Definition              Value          Relative Weight (%)             !
 --------------------------------------------------------------------------------
 ! A1    A(2,1,3)                0.4393                  6.6                    !
 ! A2    A(2,1,4)               -0.1503                  2.3                    !
 ! A3    A(2,1,5)               -0.0638                  1.0                    !
 ! A4    A(3,1,4)               -0.2532                  3.8                    !
 ! A5    A(3,1,5)               -0.0654                  1.0                    !
 ! A6    A(4,1,5)                0.0947                  1.4                    !
 ! A7    A(1,5,6)                0.0509                  0.8                    !
 ! A8    A(1,5,7)                0.0699                  1.1                    !
 ! A10   A(6,5,7)               -0.1415                  2.1                    !
 ! A16   A(9,8,10)              -0.1412                  2.1                    !
 ! A17   A(9,8,11)               0.0508                  0.8                    !
 ! A18   A(10,8,11)              0.0699                  1.1                    !
 ! A19   A(8,11,12)             -0.0637                  1.0                    !
 ! A20   A(8,11,13)              0.0948                  1.4                    !
 ! A21   A(8,11,14)             -0.0653                  1.0                    !
 ! A22   A(12,11,13)            -0.1505                  2.3                    !
 ! A23   A(12,11,14)             0.439                   6.6                    !
 ! A24   A(13,11,14)            -0.253                   3.8                    !
 ! D1    D(2,1,5,6)              0.1604                  2.4                    !
 ! D2    D(2,1,5,7)              0.2599                  3.9                    !
 ! D3    D(2,1,5,8)              0.1966                  3.0                    !
 ! D4    D(3,1,5,6)             -0.3099                  4.7                    !
 ! D5    D(3,1,5,7)             -0.2104                  3.2                    !
 ! D6    D(3,1,5,8)             -0.2737                  4.1                    !
 ! D8    D(4,1,5,7)              0.0893                  1.3                    !
 ! D10   D(1,5,8,9)              0.0909                  1.4                    !
 ! D11   D(1,5,8,10)            -0.0759                  1.1                    !
 ! D13   D(6,5,8,9)              0.1589                  2.4                    !
 ! D15   D(6,5,8,11)             0.0911                  1.4                    !
 ! D17   D(7,5,8,10)            -0.1751                  2.6                    !
 ! D18   D(7,5,8,11)            -0.0761                  1.1                    !
 ! D19   D(5,8,11,12)            0.1966                  3.0                    !
 ! D21   D(5,8,11,14)           -0.2735                  4.1                    !
 ! D22   D(9,8,11,12)            0.1606                  2.4                    !
 ! D24   D(9,8,11,14)           -0.3095                  4.7                    !
 ! D25   D(10,8,11,12)           0.2597                  3.9                    !
 ! D26   D(10,8,11,13)           0.089                   1.3                    !
 ! D27   D(10,8,11,14)          -0.2104                  3.2                    !
 --------------------------------------------------------------------------------
                           ----------------------------
                           ! Normal Mode    24        !
 --------------------------                            --------------------------
 ! Name  Definition              Value          Relative Weight (%)             !
 --------------------------------------------------------------------------------
 ! R7    R(5,8)                  0.1997                  2.3                    !
 ! A1    A(2,1,3)                0.164                   1.9                    !
 ! A2    A(2,1,4)                0.0938                  1.1                    !
 ! A3    A(2,1,5)               -0.1498                  1.8                    !
 ! A7    A(1,5,6)               -0.0543                  0.6                    !
 ! A10   A(6,5,7)                0.4956                  5.8                    !
 ! A11   A(6,5,8)               -0.1615                  1.9                    !
 ! A12   A(7,5,8)               -0.1967                  2.3                    !
 ! A13   A(5,8,9)               -0.1614                  1.9                    !
 ! A14   A(5,8,10)              -0.1965                  2.3                    !
 ! A16   A(9,8,10)               0.4954                  5.8                    !
 ! A17   A(9,8,11)              -0.0543                  0.6                    !
 ! A19   A(8,11,12)             -0.1499                  1.8                    !
 ! A22   A(12,11,13)             0.0939                  1.1                    !
 ! A23   A(12,11,14)             0.1641                  1.9                    !
 ! D1    D(2,1,5,6)              0.2972                  3.5                    !
 ! D2    D(2,1,5,7)             -0.2612                  3.1                    !
 ! D4    D(3,1,5,6)              0.2202                  2.6                    !
 ! D5    D(3,1,5,7)             -0.3382                  4.0                    !
 ! D7    D(4,1,5,6)              0.2983                  3.5                    !
 ! D8    D(4,1,5,7)             -0.26                    3.0                    !
 ! D10   D(1,5,8,9)             -0.198                   2.3                    !
 ! D11   D(1,5,8,10)             0.1935                  2.3                    !
 ! D13   D(6,5,8,9)             -0.3911                  4.6                    !
 ! D15   D(6,5,8,11)            -0.1981                  2.3                    !
 ! D17   D(7,5,8,10)             0.392                   4.6                    !
 ! D18   D(7,5,8,11)             0.1935                  2.3                    !
 ! D22   D(9,8,11,12)            0.297                   3.5                    !
 ! D23   D(9,8,11,13)            0.2982                  3.5                    !
 ! D24   D(9,8,11,14)            0.22                    2.6                    !
 ! D25   D(10,8,11,12)          -0.2611                  3.1                    !
 ! D26   D(10,8,11,13)          -0.2599                  3.0                    !
 ! D27   D(10,8,11,14)          -0.338                   4.0                    !
 --------------------------------------------------------------------------------
                           ----------------------------
                           ! Normal Mode    25        !
 --------------------------                            --------------------------
 ! Name  Definition              Value          Relative Weight (%)             !
 --------------------------------------------------------------------------------
 ! R4    R(1,5)                 -0.2572                  3.2                    !
 ! R10   R(8,11)                 0.2573                  3.2                    !
 ! A1    A(2,1,3)               -0.1771                  2.2                    !
 ! A2    A(2,1,4)               -0.2129                  2.6                    !
 ! A3    A(2,1,5)                0.1868                  2.3                    !
 ! A4    A(3,1,4)               -0.2018                  2.5                    !
 ! A5    A(3,1,5)                0.1739                  2.1                    !
 ! A6    A(4,1,5)                0.1934                  2.4                    !
 ! A7    A(1,5,6)                0.2005                  2.5                    !
 ! A8    A(1,5,7)                0.2129                  2.6                    !
 ! A9    A(1,5,8)                0.0699                  0.9                    !
 ! A10   A(6,5,7)               -0.3369                  4.2                    !
 ! A12   A(7,5,8)               -0.1289                  1.6                    !
 ! A14   A(5,8,10)               0.129                   1.6                    !
 ! A15   A(5,8,11)              -0.0699                  0.9                    !
 ! A16   A(9,8,10)               0.3367                  4.2                    !
 ! A17   A(9,8,11)              -0.2006                  2.5                    !
 ! A18   A(10,8,11)             -0.2129                  2.6                    !
 ! A19   A(8,11,12)             -0.1868                  2.3                    !
 ! A20   A(8,11,13)             -0.1935                  2.4                    !
 ! A21   A(8,11,14)             -0.174                   2.1                    !
 ! A22   A(12,11,13)             0.213                   2.6                    !
 ! A23   A(12,11,14)             0.1772                  2.2                    !
 ! A24   A(13,11,14)             0.202                   2.5                    !
 ! D1    D(2,1,5,6)             -0.0881                  1.1                    !
 ! D2    D(2,1,5,7)              0.0684                  0.8                    !
 ! D4    D(3,1,5,6)             -0.1071                  1.3                    !
 ! D7    D(4,1,5,6)             -0.0952                  1.2                    !
 ! D8    D(4,1,5,7)              0.0613                  0.8                    !
 ! D10   D(1,5,8,9)             -0.2754                  3.4                    !
 ! D11   D(1,5,8,10)             0.2275                  2.8                    !
 ! D14   D(6,5,8,10)             0.503                   6.2                    !
 ! D15   D(6,5,8,11)             0.2754                  3.4                    !
 ! D16   D(7,5,8,9)             -0.5029                  6.2                    !
 ! D18   D(7,5,8,11)            -0.2276                  2.8                    !
 ! D22   D(9,8,11,12)            0.088                   1.1                    !
 ! D23   D(9,8,11,13)            0.095                   1.2                    !
 ! D24   D(9,8,11,14)            0.1069                  1.3                    !
 ! D25   D(10,8,11,12)          -0.0683                  0.8                    !
 ! D26   D(10,8,11,13)          -0.0612                  0.8                    !
 --------------------------------------------------------------------------------
                           ----------------------------
                           ! Normal Mode    26        !
 --------------------------                            --------------------------
 ! Name  Definition              Value          Relative Weight (%)             !
 --------------------------------------------------------------------------------
 ! R4    R(1,5)                 -0.2942                  3.4                    !
 ! R7    R(5,8)                  0.3412                  4.0                    !
 ! R10   R(8,11)                -0.294                   3.4                    !
 ! A1    A(2,1,3)               -0.2775                  3.2                    !
 ! A2    A(2,1,4)               -0.2031                  2.4                    !
 ! A3    A(2,1,5)                0.1252                  1.5                    !
 ! A4    A(3,1,4)               -0.1501                  1.7                    !
 ! A5    A(3,1,5)                0.2493                  2.9                    !
 ! A6    A(4,1,5)                0.2173                  2.5                    !
 ! A7    A(1,5,6)                0.2388                  2.8                    !
 ! A8    A(1,5,7)                0.2327                  2.7                    !
 ! A11   A(6,5,8)               -0.2685                  3.1                    !
 ! A12   A(7,5,8)               -0.1631                  1.9                    !
 ! A13   A(5,8,9)               -0.2684                  3.1                    !
 ! A14   A(5,8,10)              -0.163                   1.9                    !
 ! A17   A(9,8,11)               0.2387                  2.8                    !
 ! A18   A(10,8,11)              0.2325                  2.7                    !
 ! A19   A(8,11,12)              0.1251                  1.5                    !
 ! A20   A(8,11,13)              0.2171                  2.5                    !
 ! A21   A(8,11,14)              0.2492                  2.9                    !
 ! A22   A(12,11,13)            -0.203                   2.4                    !
 ! A23   A(12,11,14)            -0.2773                  3.2                    !
 ! A24   A(13,11,14)            -0.15                    1.7                    !
 ! D1    D(2,1,5,6)              0.1395                  1.6                    !
 ! D2    D(2,1,5,7)             -0.1414                  1.6                    !
 ! D4    D(3,1,5,6)              0.2376                  2.8                    !
 ! D7    D(4,1,5,6)              0.1189                  1.4                    !
 ! D8    D(4,1,5,7)             -0.162                   1.9                    !
 ! D10   D(1,5,8,9)              0.1455                  1.7                    !
 ! D11   D(1,5,8,10)            -0.1315                  1.5                    !
 ! D13   D(6,5,8,9)              0.256                   3.0                    !
 ! D15   D(6,5,8,11)             0.1457                  1.7                    !
 ! D17   D(7,5,8,10)            -0.2983                  3.5                    !
 ! D18   D(7,5,8,11)            -0.1316                  1.5                    !
 ! D22   D(9,8,11,12)            0.1395                  1.6                    !
 ! D23   D(9,8,11,13)            0.1188                  1.4                    !
 ! D24   D(9,8,11,14)            0.2376                  2.8                    !
 ! D25   D(10,8,11,12)          -0.1413                  1.6                    !
 ! D26   D(10,8,11,13)          -0.162                   1.9                    !
 --------------------------------------------------------------------------------
                           ----------------------------
                           ! Normal Mode    27        !
 --------------------------                            --------------------------
 ! Name  Definition              Value          Relative Weight (%)             !
 --------------------------------------------------------------------------------
 ! R1    R(1,2)                  0.4215                 13.2                    !
 ! R2    R(1,3)                  0.4222                 13.3                    !
 ! R3    R(1,4)                  0.4163                 13.1                    !
 ! R4    R(1,5)                 -0.0406                  1.3                    !
 ! R5    R(5,6)                 -0.0565                  1.8                    !
 ! R6    R(5,7)                 -0.0603                  1.9                    !
 ! R8    R(8,9)                  0.0565                  1.8                    !
 ! R9    R(8,10)                 0.0603                  1.9                    !
 ! R10   R(8,11)                 0.0406                  1.3                    !
 ! R11   R(11,12)               -0.4215                 13.2                    !
 ! R12   R(11,13)               -0.4163                 13.1                    !
 ! R13   R(11,14)               -0.4222                 13.3                    !
 ! A1    A(2,1,3)               -0.0227                  0.7                    !
 ! A2    A(2,1,4)               -0.023                   0.7                    !
 ! A3    A(2,1,5)                0.02                    0.6                    !
 ! A4    A(3,1,4)               -0.0232                  0.7                    !
 ! A5    A(3,1,5)                0.0217                  0.7                    !
 ! A6    A(4,1,5)                0.0228                  0.7                    !
 ! A19   A(8,11,12)             -0.02                    0.6                    !
 ! A20   A(8,11,13)             -0.0228                  0.7                    !
 ! A21   A(8,11,14)             -0.0217                  0.7                    !
 ! A22   A(12,11,13)             0.023                   0.7                    !
 ! A23   A(12,11,14)             0.0227                  0.7                    !
 ! A24   A(13,11,14)             0.0232                  0.7                    !
 --------------------------------------------------------------------------------
                           ----------------------------
                           ! Normal Mode    28        !
 --------------------------                            --------------------------
 ! Name  Definition              Value          Relative Weight (%)             !
 --------------------------------------------------------------------------------
 ! R1    R(1,2)                  0.4289                 12.7                    !
 ! R2    R(1,3)                  0.3887                 11.5                    !
 ! R3    R(1,4)                  0.4277                 12.7                    !
 ! R4    R(1,5)                 -0.0382                  1.1                    !
 ! R5    R(5,6)                 -0.0978                  2.9                    !
 ! R6    R(5,7)                 -0.0959                  2.8                    !
 ! R8    R(8,9)                 -0.0978                  2.9                    !
 ! R9    R(8,10)                -0.0959                  2.8                    !
 ! R10   R(8,11)                -0.0382                  1.1                    !
 ! R11   R(11,12)                0.4289                 12.7                    !
 ! R12   R(11,13)                0.4277                 12.7                    !
 ! R13   R(11,14)                0.3887                 11.5                    !
 ! A2    A(2,1,4)               -0.0256                  0.8                    !
 ! A4    A(3,1,4)               -0.024                   0.7                    !
 ! A5    A(3,1,5)                0.0239                  0.7                    !
 ! A6    A(4,1,5)                0.0232                  0.7                    !
 ! A20   A(8,11,13)              0.0232                  0.7                    !
 ! A21   A(8,11,14)              0.0239                  0.7                    !
 ! A22   A(12,11,13)            -0.0256                  0.8                    !
 ! A24   A(13,11,14)            -0.024                   0.7                    !
 --------------------------------------------------------------------------------
                           ----------------------------
                           ! Normal Mode    29        !
 --------------------------                            --------------------------
 ! Name  Definition              Value          Relative Weight (%)             !
 --------------------------------------------------------------------------------
 ! R1    R(1,2)                 -0.0599                  1.7                    !
 ! R2    R(1,3)                 -0.036                   1.0                    !
 ! R3    R(1,4)                 -0.0463                  1.3                    !
 ! R4    R(1,5)                  0.0409                  1.2                    !
 ! R5    R(5,6)                 -0.5329                 15.5                    !
 ! R6    R(5,7)                 -0.5222                 15.1                    !
 ! R8    R(8,9)                  0.5331                 15.5                    !
 ! R9    R(8,10)                 0.5223                 15.1                    !
 ! R10   R(8,11)                -0.041                   1.2                    !
 ! R11   R(11,12)                0.06                    1.7                    !
 ! R12   R(11,13)                0.0464                  1.3                    !
 ! R13   R(11,14)                0.036                   1.0                    !
 ! A9    A(1,5,8)               -0.0384                  1.1                    !
 ! A10   A(6,5,7)                0.0483                  1.4                    !
 ! A15   A(5,8,11)               0.0384                  1.1                    !
 ! A16   A(9,8,10)              -0.0483                  1.4                    !
 ! D1    D(2,1,5,6)              0.0256                  0.7                    !
 ! D2    D(2,1,5,7)             -0.0258                  0.7                    !
 ! D4    D(3,1,5,6)              0.0313                  0.9                    !
 ! D7    D(4,1,5,6)              0.0222                  0.6                    !
 ! D8    D(4,1,5,7)             -0.0293                  0.8                    !
 ! D10   D(1,5,8,9)              0.0376                  1.1                    !
 ! D11   D(1,5,8,10)            -0.0248                  0.7                    !
 ! D14   D(6,5,8,10)            -0.0623                  1.8                    !
 ! D15   D(6,5,8,11)            -0.0376                  1.1                    !
 ! D16   D(7,5,8,9)              0.0623                  1.8                    !
 ! D18   D(7,5,8,11)             0.0248                  0.7                    !
 ! D22   D(9,8,11,12)           -0.0256                  0.7                    !
 ! D23   D(9,8,11,13)           -0.0222                  0.6                    !
 ! D24   D(9,8,11,14)           -0.0313                  0.9                    !
 ! D25   D(10,8,11,12)           0.0258                  0.7                    !
 ! D26   D(10,8,11,13)           0.0293                  0.8                    !
 --------------------------------------------------------------------------------
                           ----------------------------
                           ! Normal Mode    30        !
 --------------------------                            --------------------------
 ! Name  Definition              Value          Relative Weight (%)             !
 --------------------------------------------------------------------------------
 ! R1    R(1,2)                  0.0942                  2.6                    !
 ! R2    R(1,3)                  0.0724                  2.0                    !
 ! R3    R(1,4)                  0.0698                  1.9                    !
 ! R4    R(1,5)                 -0.0415                  1.1                    !
 ! R5    R(5,6)                  0.5081                 13.9                    !
 ! R6    R(5,7)                  0.5371                 14.7                    !
 ! R7    R(5,8)                 -0.066                   1.8                    !
 ! R8    R(8,9)                  0.5079                 13.9                    !
 ! R9    R(8,10)                 0.5369                 14.7                    !
 ! R10   R(8,11)                -0.0415                  1.1                    !
 ! R11   R(11,12)                0.0941                  2.6                    !
 ! R12   R(11,13)                0.0698                  1.9                    !
 ! R13   R(11,14)                0.0724                  2.0                    !
 ! A10   A(6,5,7)               -0.0511                  1.4                    !
 ! A16   A(9,8,10)              -0.0511                  1.4                    !
 ! D1    D(2,1,5,6)             -0.0288                  0.8                    !
 ! D2    D(2,1,5,7)              0.0299                  0.8                    !
 ! D4    D(3,1,5,6)             -0.0335                  0.9                    !
 ! D5    D(3,1,5,7)              0.0252                  0.7                    !
 ! D7    D(4,1,5,6)             -0.0247                  0.7                    !
 ! D8    D(4,1,5,7)              0.034                   0.9                    !
 ! D10   D(1,5,8,9)              0.0267                  0.7                    !
 ! D11   D(1,5,8,10)            -0.0235                  0.6                    !
 ! D13   D(6,5,8,9)              0.0462                  1.3                    !
 ! D15   D(6,5,8,11)             0.0267                  0.7                    !
 ! D17   D(7,5,8,10)            -0.0543                  1.5                    !
 ! D18   D(7,5,8,11)            -0.0235                  0.6                    !
 ! D22   D(9,8,11,12)           -0.0288                  0.8                    !
 ! D23   D(9,8,11,13)           -0.0247                  0.7                    !
 ! D24   D(9,8,11,14)           -0.0335                  0.9                    !
 ! D25   D(10,8,11,12)           0.0299                  0.8                    !
 ! D26   D(10,8,11,13)           0.034                   0.9                    !
 ! D27   D(10,8,11,14)           0.0252                  0.7                    !
 --------------------------------------------------------------------------------
                           ----------------------------
                           ! Normal Mode    31        !
 --------------------------                            --------------------------
 ! Name  Definition              Value          Relative Weight (%)             !
 --------------------------------------------------------------------------------
 ! R1    R(1,2)                  0.3084                  7.5                    !
 ! R2    R(1,3)                 -0.443                  10.8                    !
 ! R3    R(1,4)                  0.1385                  3.4                    !
 ! R5    R(5,6)                 -0.3917                  9.5                    !
 ! R6    R(5,7)                  0.3828                  9.3                    !
 ! R8    R(8,9)                  0.3913                  9.5                    !
 ! R9    R(8,10)                -0.3824                  9.3                    !
 ! R11   R(11,12)               -0.3086                  7.5                    !
 ! R12   R(11,13)               -0.1382                  3.4                    !
 ! R13   R(11,14)                0.4428                 10.8                    !
 ! A2    A(2,1,4)               -0.0348                  0.8                    !
 ! A3    A(2,1,5)               -0.0169                  0.4                    !
 ! A4    A(3,1,4)                0.0231                  0.6                    !
 ! A7    A(1,5,6)                0.0172                  0.4                    !
 ! A12   A(7,5,8)               -0.0232                  0.6                    !
 ! A14   A(5,8,10)               0.0231                  0.6                    !
 ! A17   A(9,8,11)              -0.0172                  0.4                    !
 ! A19   A(8,11,12)              0.0169                  0.4                    !
 ! A22   A(12,11,13)             0.0347                  0.8                    !
 ! A24   A(13,11,14)            -0.0231                  0.6                    !
 ! D3    D(2,1,5,8)              0.0296                  0.7                    !
 ! D6    D(3,1,5,8)              0.0199                  0.5                    !
 ! D7    D(4,1,5,6)             -0.0411                  1.0                    !
 ! D8    D(4,1,5,7)             -0.0502                  1.2                    !
 ! D9    D(4,1,5,8)             -0.0213                  0.5                    !
 ! D10   D(1,5,8,9)             -0.0267                  0.6                    !
 ! D11   D(1,5,8,10)            -0.0168                  0.4                    !
 ! D15   D(6,5,8,11)             0.0267                  0.6                    !
 ! D18   D(7,5,8,11)             0.0168                  0.4                    !
 ! D19   D(5,8,11,12)           -0.0296                  0.7                    !
 ! D20   D(5,8,11,13)            0.0213                  0.5                    !
 ! D21   D(5,8,11,14)           -0.0199                  0.5                    !
 ! D23   D(9,8,11,13)            0.0411                  1.0                    !
 ! D26   D(10,8,11,13)           0.0502                  1.2                    !
 --------------------------------------------------------------------------------
                           ----------------------------
                           ! Normal Mode    32        !
 --------------------------                            --------------------------
 ! Name  Definition              Value          Relative Weight (%)             !
 --------------------------------------------------------------------------------
 ! R1    R(1,2)                  0.2798                  6.4                    !
 ! R2    R(1,3)                  0.1323                  3.0                    !
 ! R3    R(1,4)                 -0.398                   9.1                    !
 ! R5    R(5,6)                  0.4262                  9.8                    !
 ! R6    R(5,7)                 -0.4187                  9.6                    !
 ! R8    R(8,9)                  0.4265                  9.8                    !
 ! R9    R(8,10)                -0.419                   9.6                    !
 ! R11   R(11,12)                0.2796                  6.4                    !
 ! R12   R(11,13)               -0.3983                  9.1                    !
 ! R13   R(11,14)                0.1328                  3.0                    !
 ! A1    A(2,1,3)               -0.0311                  0.7                    !
 ! A11   A(6,5,8)               -0.0436                  1.0                    !
 ! A13   A(5,8,9)               -0.0436                  1.0                    !
 ! A23   A(12,11,14)            -0.0311                  0.7                    !
 ! D3    D(2,1,5,8)             -0.0492                  1.1                    !
 ! D4    D(3,1,5,6)              0.0496                  1.1                    !
 ! D5    D(3,1,5,7)              0.041                   0.9                    !
 ! D9    D(4,1,5,8)             -0.0432                  1.0                    !
 ! D12   D(1,5,8,11)             0.0349                  0.8                    !
 ! D13   D(6,5,8,9)             -0.0309                  0.7                    !
 ! D14   D(6,5,8,10)            -0.0428                  1.0                    !
 ! D16   D(7,5,8,9)             -0.0428                  1.0                    !
 ! D17   D(7,5,8,10)            -0.0548                  1.3                    !
 ! D19   D(5,8,11,12)           -0.0493                  1.1                    !
 ! D20   D(5,8,11,13)           -0.0432                  1.0                    !
 ! D24   D(9,8,11,14)            0.0496                  1.1                    !
 ! D27   D(10,8,11,14)           0.041                   0.9                    !
 --------------------------------------------------------------------------------
                           ----------------------------
                           ! Normal Mode    33        !
 --------------------------                            --------------------------
 ! Name  Definition              Value          Relative Weight (%)             !
 --------------------------------------------------------------------------------
 ! R1    R(1,2)                  0.3561                  7.8                    !
 ! R2    R(1,3)                 -0.4193                  9.2                    !
 ! R3    R(1,4)                  0.0578                  1.3                    !
 ! R5    R(5,6)                  0.38                    8.3                    !
 ! R6    R(5,7)                 -0.4037                  8.8                    !
 ! R8    R(8,9)                 -0.3799                  8.3                    !
 ! R9    R(8,10)                 0.4036                  8.8                    !
 ! R11   R(11,12)               -0.3564                  7.8                    !
 ! R12   R(11,13)               -0.0575                  1.3                    !
 ! R13   R(11,14)                0.4192                  9.2                    !
 ! A2    A(2,1,4)               -0.0318                  0.7                    !
 ! A5    A(3,1,5)                0.042                   0.9                    !
 ! A8    A(1,5,7)                0.0405                  0.9                    !
 ! A9    A(1,5,8)               -0.0292                  0.6                    !
 ! A15   A(5,8,11)               0.0293                  0.6                    !
 ! A18   A(10,8,11)             -0.0405                  0.9                    !
 ! A21   A(8,11,14)             -0.042                   0.9                    !
 ! A22   A(12,11,13)             0.0318                  0.7                    !
 ! D1    D(2,1,5,6)              0.0546                  1.2                    !
 ! D2    D(2,1,5,7)              0.0455                  1.0                    !
 ! D4    D(3,1,5,6)              0.0359                  0.8                    !
 ! D9    D(4,1,5,8)             -0.0583                  1.3                    !
 ! D10   D(1,5,8,9)              0.0561                  1.2                    !
 ! D11   D(1,5,8,10)             0.0453                  1.0                    !
 ! D15   D(6,5,8,11)            -0.0561                  1.2                    !
 ! D18   D(7,5,8,11)            -0.0453                  1.0                    !
 ! D20   D(5,8,11,13)            0.0583                  1.3                    !
 ! D22   D(9,8,11,12)           -0.0546                  1.2                    !
 ! D24   D(9,8,11,14)           -0.0359                  0.8                    !
 ! D25   D(10,8,11,12)          -0.0454                  1.0                    !
 --------------------------------------------------------------------------------
                           ----------------------------
                           ! Normal Mode    34        !
 --------------------------                            --------------------------
 ! Name  Definition              Value          Relative Weight (%)             !
 --------------------------------------------------------------------------------
 ! R1    R(1,2)                 -0.4284                 11.1                    !
 ! R2    R(1,3)                 -0.1883                  4.9                    !
 ! R3    R(1,4)                  0.6243                 16.2                    !
 ! R5    R(5,6)                  0.0505                  1.3                    !
 ! R6    R(5,7)                 -0.0451                  1.2                    !
 ! R8    R(8,9)                 -0.0513                  1.3                    !
 ! R9    R(8,10)                 0.0459                  1.2                    !
 ! R11   R(11,12)                0.4294                 11.2                    !
 ! R12   R(11,13)               -0.6249                 16.2                    !
 ! R13   R(11,14)                0.1879                  4.9                    !
 ! A1    A(2,1,3)                0.0484                  1.3                    !
 ! A3    A(2,1,5)                0.0265                  0.7                    !
 ! A4    A(3,1,4)               -0.0343                  0.9                    !
 ! A6    A(4,1,5)               -0.0393                  1.0                    !
 ! A7    A(1,5,6)               -0.0288                  0.7                    !
 ! A17   A(9,8,11)               0.0288                  0.7                    !
 ! A19   A(8,11,12)             -0.0266                  0.7                    !
 ! A20   A(8,11,13)              0.0394                  1.0                    !
 ! A23   A(12,11,14)            -0.0484                  1.3                    !
 ! A24   A(13,11,14)             0.0344                  0.9                    !
 ! D1    D(2,1,5,6)              0.038                   1.0                    !
 ! D2    D(2,1,5,7)              0.0511                  1.3                    !
 ! D3    D(2,1,5,8)              0.0317                  0.8                    !
 ! D4    D(3,1,5,6)             -0.0503                  1.3                    !
 ! D5    D(3,1,5,7)             -0.0373                  1.0                    !
 ! D6    D(3,1,5,8)             -0.0567                  1.5                    !
 ! D10   D(1,5,8,9)              0.0248                  0.6                    !
 ! D15   D(6,5,8,11)            -0.0248                  0.6                    !
 ! D19   D(5,8,11,12)           -0.0316                  0.8                    !
 ! D21   D(5,8,11,14)            0.0568                  1.5                    !
 ! D22   D(9,8,11,12)           -0.0381                  1.0                    !
 ! D24   D(9,8,11,14)            0.0504                  1.3                    !
 ! D25   D(10,8,11,12)          -0.0511                  1.3                    !
 ! D27   D(10,8,11,14)           0.0373                  1.0                    !
 --------------------------------------------------------------------------------
                           ----------------------------
                           ! Normal Mode    35        !
 --------------------------                            --------------------------
 ! Name  Definition              Value          Relative Weight (%)             !
 --------------------------------------------------------------------------------
 ! R1    R(1,2)                 -0.4976                 10.6                    !
 ! R2    R(1,3)                  0.1418                  3.0                    !
 ! R3    R(1,4)                  0.3783                  8.0                    !
 ! R5    R(5,6)                  0.3367                  7.1                    !
 ! R6    R(5,7)                 -0.3015                  6.4                    !
 ! R8    R(8,9)                  0.3368                  7.1                    !
 ! R9    R(8,10)                -0.3017                  6.4                    !
 ! R11   R(11,12)               -0.4965                 10.5                    !
 ! R12   R(11,13)                0.3769                  8.0                    !
 ! R13   R(11,14)                0.142                   3.0                    !
 ! A3    A(2,1,5)                0.0308                  0.7                    !
 ! A4    A(3,1,4)               -0.0406                  0.9                    !
 ! A6    A(4,1,5)               -0.0358                  0.8                    !
 ! A7    A(1,5,6)               -0.0337                  0.7                    !
 ! A9    A(1,5,8)                0.0326                  0.7                    !
 ! A11   A(6,5,8)               -0.0321                  0.7                    !
 ! A13   A(5,8,9)               -0.0321                  0.7                    !
 ! A15   A(5,8,11)               0.0325                  0.7                    !
 ! A17   A(9,8,11)              -0.0336                  0.7                    !
 ! A19   A(8,11,12)              0.0307                  0.7                    !
 ! A20   A(8,11,13)             -0.0357                  0.8                    !
 ! A24   A(13,11,14)            -0.0405                  0.9                    !
 ! D2    D(2,1,5,7)              0.0415                  0.9                    !
 ! D4    D(3,1,5,6)             -0.0347                  0.7                    !
 ! D6    D(3,1,5,8)             -0.074                   1.6                    !
 ! D7    D(4,1,5,6)              0.0365                  0.8                    !
 ! D8    D(4,1,5,7)              0.0512                  1.1                    !
 ! D12   D(1,5,8,11)             0.0536                  1.1                    !
 ! D14   D(6,5,8,10)            -0.0351                  0.7                    !
 ! D16   D(7,5,8,9)             -0.0351                  0.7                    !
 ! D17   D(7,5,8,10)            -0.043                   0.9                    !
 ! D21   D(5,8,11,14)           -0.0739                  1.6                    !
 ! D23   D(9,8,11,13)            0.0364                  0.8                    !
 ! D24   D(9,8,11,14)           -0.0346                  0.7                    !
 ! D25   D(10,8,11,12)           0.0414                  0.9                    !
 ! D26   D(10,8,11,13)           0.0512                  1.1                    !
 --------------------------------------------------------------------------------
                           ----------------------------
                           ! Normal Mode    36        !
 --------------------------                            --------------------------
 ! Name  Definition              Value          Relative Weight (%)             !
 --------------------------------------------------------------------------------
 ! R1    R(1,2)                  0.2629                  5.9                    !
 ! R2    R(1,3)                 -0.6288                 14.1                    !
 ! R3    R(1,4)                  0.3134                  7.0                    !
 ! R5    R(5,6)                  0.1623                  3.6                    !
 ! R6    R(5,7)                 -0.1553                  3.5                    !
 ! R8    R(8,9)                  0.1623                  3.6                    !
 ! R9    R(8,10)                -0.1554                  3.5                    !
 ! R11   R(11,12)                0.2629                  5.9                    !
 ! R12   R(11,13)                0.3135                  7.0                    !
 ! R13   R(11,14)               -0.6289                 14.1                    !
 ! A1    A(2,1,3)                0.0215                  0.5                    !
 ! A2    A(2,1,4)               -0.0464                  1.0                    !
 ! A3    A(2,1,5)               -0.0175                  0.4                    !
 ! A4    A(3,1,4)                0.0262                  0.6                    !
 ! A5    A(3,1,5)                0.0441                  1.0                    !
 ! A6    A(4,1,5)               -0.0267                  0.6                    !
 ! A7    A(1,5,6)               -0.0234                  0.5                    !
 ! A8    A(1,5,7)                0.0351                  0.8                    !
 ! A11   A(6,5,8)               -0.0169                  0.4                    !
 ! A13   A(5,8,9)               -0.0169                  0.4                    !
 ! A17   A(9,8,11)              -0.0234                  0.5                    !
 ! A18   A(10,8,11)              0.0351                  0.8                    !
 ! A19   A(8,11,12)             -0.0175                  0.4                    !
 ! A20   A(8,11,13)             -0.0267                  0.6                    !
 ! A21   A(8,11,14)              0.0441                  1.0                    !
 ! A22   A(12,11,13)            -0.0464                  1.0                    !
 ! A23   A(12,11,14)             0.0215                  0.5                    !
 ! A24   A(13,11,14)             0.0262                  0.6                    !
 ! D1    D(2,1,5,6)              0.0627                  1.4                    !
 ! D2    D(2,1,5,7)              0.0558                  1.2                    !
 ! D3    D(2,1,5,8)              0.0255                  0.6                    !
 ! D4    D(3,1,5,6)              0.017                   0.4                    !
 ! D6    D(3,1,5,8)             -0.0203                  0.5                    !
 ! D7    D(4,1,5,6)             -0.0277                  0.6                    !
 ! D8    D(4,1,5,7)             -0.0346                  0.8                    !
 ! D9    D(4,1,5,8)             -0.065                   1.5                    !
 ! D10   D(1,5,8,9)              0.0262                  0.6                    !
 ! D11   D(1,5,8,10)             0.0207                  0.5                    !
 ! D12   D(1,5,8,11)             0.0672                  1.5                    !
 ! D13   D(6,5,8,9)             -0.0149                  0.3                    !
 ! D14   D(6,5,8,10)            -0.0203                  0.5                    !
 ! D15   D(6,5,8,11)             0.0262                  0.6                    !
 ! D16   D(7,5,8,9)             -0.0203                  0.5                    !
 ! D17   D(7,5,8,10)            -0.0258                  0.6                    !
 ! D18   D(7,5,8,11)             0.0207                  0.5                    !
 ! D19   D(5,8,11,12)            0.0255                  0.6                    !
 ! D20   D(5,8,11,13)           -0.065                   1.5                    !
 ! D21   D(5,8,11,14)           -0.0203                  0.5                    !
 ! D22   D(9,8,11,12)            0.0628                  1.4                    !
 ! D23   D(9,8,11,13)           -0.0277                  0.6                    !
 ! D24   D(9,8,11,14)            0.017                   0.4                    !
 ! D25   D(10,8,11,12)           0.0558                  1.3                    !
 ! D26   D(10,8,11,13)          -0.0347                  0.8                    !
 --------------------------------------------------------------------------------
 Max01P=     40 Av01P=   27.39 Stan. Dev.=    8.69
 Max05P=      9 Av05P=    3.64 Stan. Dev.=    2.61
 Max10P=      6 Av10P=    0.83 Stan. Dev.=    1.75
 MaxNDP=     91 AvNDP=   70.44 Stan. Dev.=   17.29
 
                                                                Title
                                                             IR Spectrum
 
 3333333333                                                           111111111 1     11   1                                         
 1111111100                                                           554443333 3     11   099999  887               33  22     1    
 9888872177                                                           207219887 1     33   497540  418               96  86     2    
 2653192261                                                           617994955 1     93   305046  383               46  75     4    
 
 XXXXXXXXXX                                                           XXXXXXXXX X     XX    XXXXX  XXX               XX  XX     X    
 XXXXXXXXX                                                               XXX XX X              XX   XX                               
   XX X XX                                                                XX XX X              XX    X                               
   XX X  X                                                                XX  X X              XX    X                               
   X  X                                                                   X   X X              X     X                               
   X  X                                                                   X   X X                    X                               
   X  X                                                                   X   X X                    X                               
   X  X                                                                       X X                                                    
   X  X                                                                       X X                                                    
   X  X                                                                       X X                                                    
   X  X                                                                       X X                                                    
      X                                                                       X X                                                    
      X                                                                       X X                                                    
      X                                                                       X X                                                    
                                                                              X                                                      
                                                                              X                                                      
                                                                              X                                                      
                                                                              X                                                      
                                                                              X                                                      
                                                                              X                                                      
 
 -------------------------------------------------------------------
 Center     Atomic                   Forces (Hartrees/Bohr)
 Number     Number              X              Y              Z
 -------------------------------------------------------------------
      1        6          -0.000002638   -0.000032108   -0.000040417
      2        1          -0.000005927    0.000013872   -0.000015968
      3        1           0.000011574   -0.000012405    0.000012764
      4        1           0.000016506    0.000012718    0.000012547
      5        6          -0.000003283   -0.000007796    0.000069837
      6        1           0.000042450    0.000010547   -0.000013051
      7        1          -0.000008653   -0.000012549   -0.000025863
      8        6          -0.000027548    0.000001150    0.000066622
      9        1          -0.000017422    0.000001799   -0.000011778
     10        1           0.000011557    0.000009524   -0.000023469
     11        6           0.000004337    0.000008118   -0.000024815
     12        1           0.000000941   -0.000008222   -0.000017413
     13        1          -0.000011893   -0.000008043    0.000012870
     14        1          -0.000010001    0.000023396   -0.000001866
 -------------------------------------------------------------------
 Cartesian Forces:  Max     0.000069837 RMS     0.000022170
 FormGI is forming the generalized inverse of G from B-inverse, IUseBI=4.
 Leave Link  716 at Sat Aug 15 12:20:56 2026, MaxMem=   134217728 cpu:               0.1 elap:               0.0
 (Enter /home/emanuele/chem_software/gaussian//gdv/l103.exe)

 GradGradGradGradGradGradGradGradGradGradGradGradGradGradGradGradGradGrad
 Berny optimization.
 Internal  Forces:  Max     0.000108494 RMS     0.000028533
 Search for a local minimum.
 Step number   1 out of a maximum of    2
 All quantities printed in internal units (Hartrees-Bohrs-Radians)
 Second derivative matrix not updated -- analytic derivatives used.
 ITU=  0
     Eigenvalues ---    0.00312   0.00367   0.00542   0.03352   0.03361
     Eigenvalues ---    0.03470   0.03685   0.03850   0.03939   0.04064
     Eigenvalues ---    0.04423   0.06431   0.06585   0.09445   0.09566
     Eigenvalues ---    0.11339   0.12040   0.12049   0.12344   0.12583
     Eigenvalues ---    0.12645   0.12817   0.22104   0.28430   0.28735
     Eigenvalues ---    0.29714   0.34635   0.34668   0.34681   0.34714
     Eigenvalues ---    0.34714   0.34734   0.34742   0.34782   0.34887
     Eigenvalues ---    0.35360
 Angle between quadratic step and forces=  47.05 degrees.
 Linear search not attempted -- first point.
 Iteration  1 RMS(Cart)=  0.00067097 RMS(Int)=  0.00000016
 Iteration  2 RMS(Cart)=  0.00000020 RMS(Int)=  0.00000003
 ITry= 1 IFail=0 DXMaxC= 1.90D-03 DCOld= 1.00D+10 DXMaxT= 3.00D-01 DXLimC= 3.00D+00 Rises=F
 Variable       Old X    -DE/DX   Delta X   Delta X   Delta X     New X
                                 (Linear)    (Quad)   (Total)
    R1        2.06877   0.00001   0.00000   0.00004   0.00004   2.06881
    R2        2.06551  -0.00000   0.00000  -0.00005  -0.00005   2.06546
    R3        2.06756   0.00002   0.00000   0.00006   0.00006   2.06761
    R4        2.89733   0.00002   0.00000   0.00009   0.00009   2.89741
    R5        2.07612  -0.00004   0.00000  -0.00012  -0.00012   2.07600
    R6        2.07713  -0.00003   0.00000  -0.00008  -0.00008   2.07705
    R7        2.87425  -0.00006   0.00000  -0.00011  -0.00011   2.87413
    R8        2.07604  -0.00001   0.00000  -0.00004  -0.00004   2.07600
    R9        2.07712  -0.00002   0.00000  -0.00007  -0.00007   2.07705
   R10        2.89733   0.00002   0.00000   0.00009   0.00009   2.89742
   R11        2.06879   0.00001   0.00000   0.00002   0.00002   2.06881
   R12        2.06757   0.00001   0.00000   0.00004   0.00004   2.06761
   R13        2.06546   0.00001   0.00000   0.00000   0.00000   2.06546
    A1        1.87207   0.00000   0.00000  -0.00007  -0.00007   1.87201
    A2        1.88172  -0.00001   0.00000  -0.00006  -0.00006   1.88166
    A3        1.95566   0.00003   0.00000   0.00019   0.00019   1.95585
    A4        1.87445   0.00001   0.00000   0.00013   0.00013   1.87458
    A5        1.93358  -0.00003   0.00000  -0.00006  -0.00006   1.93352
    A6        1.94276  -0.00002   0.00000  -0.00014  -0.00014   1.94262
    A7        1.93597   0.00003   0.00000  -0.00004  -0.00004   1.93592
    A8        1.94115   0.00003   0.00000   0.00018   0.00018   1.94132
    A9        1.88940  -0.00011   0.00000  -0.00044  -0.00044   1.88896
   A10        1.85006  -0.00001   0.00000   0.00015   0.00015   1.85021
   A11        1.92212   0.00002   0.00000  -0.00015  -0.00015   1.92196
   A12        1.92546   0.00005   0.00000   0.00032   0.00032   1.92578
   A13        1.92210   0.00002   0.00000  -0.00014  -0.00014   1.92196
   A14        1.92543   0.00005   0.00000   0.00035   0.00035   1.92578
   A15        1.88939  -0.00011   0.00000  -0.00041  -0.00041   1.88898
   A16        1.85008  -0.00002   0.00000   0.00012   0.00012   1.85020
   A17        1.93599   0.00003   0.00000  -0.00006  -0.00006   1.93592
   A18        1.94116   0.00003   0.00000   0.00016   0.00016   1.94132
   A19        1.95563   0.00003   0.00000   0.00022   0.00022   1.95585
   A20        1.94277  -0.00002   0.00000  -0.00015  -0.00015   1.94262
   A21        1.93360  -0.00003   0.00000  -0.00008  -0.00008   1.93352
   A22        1.88169  -0.00001   0.00000  -0.00004  -0.00004   1.88166
   A23        1.87208   0.00000   0.00000  -0.00008  -0.00008   1.87200
   A24        1.87446   0.00001   0.00000   0.00012   0.00012   1.87458
    D1        1.07935   0.00001   0.00000   0.00006   0.00006   1.07941
    D2       -0.97509  -0.00001   0.00000  -0.00021  -0.00021  -0.97530
    D3       -3.09313  -0.00002   0.00000  -0.00043  -0.00043  -3.09356
    D4       -1.01066   0.00001   0.00000   0.00006   0.00006  -1.01061
    D5       -3.06510  -0.00001   0.00000  -0.00021  -0.00021  -3.06531
    D6        1.10004  -0.00003   0.00000  -0.00043  -0.00043   1.09961
    D7       -3.09514   0.00002   0.00000   0.00002   0.00002  -3.09512
    D8        1.13361  -0.00000   0.00000  -0.00025  -0.00025   1.13336
    D9       -0.98443  -0.00002   0.00000  -0.00047  -0.00047  -0.98490
   D10        1.11139  -0.00001   0.00000   0.00004   0.00004   1.11142
   D11       -3.13558   0.00002   0.00000   0.00031   0.00031  -3.13528
   D12       -1.00789   0.00002   0.00000   0.00046   0.00046  -1.00743
   D13       -3.05252  -0.00003   0.00000  -0.00038  -0.00038  -3.05291
   D14       -1.01631  -0.00001   0.00000  -0.00011  -0.00011  -1.01642
   D15        1.11138  -0.00000   0.00000   0.00004   0.00004   1.11142
   D16       -1.01631  -0.00001   0.00000  -0.00010  -0.00010  -1.01641
   D17        1.01990   0.00002   0.00000   0.00017   0.00017   1.02007
   D18       -3.13559   0.00002   0.00000   0.00032   0.00032  -3.13527
   D19       -3.09311  -0.00002   0.00000  -0.00045  -0.00045  -3.09356
   D20       -0.98446  -0.00001   0.00000  -0.00045  -0.00045  -0.98490
   D21        1.10005  -0.00003   0.00000  -0.00044  -0.00044   1.09961
   D22        1.07939   0.00001   0.00000   0.00003   0.00003   1.07941
   D23       -3.09514   0.00002   0.00000   0.00003   0.00003  -3.09512
   D24       -1.01063   0.00001   0.00000   0.00003   0.00003  -1.01060
   D25       -0.97510  -0.00001   0.00000  -0.00019  -0.00019  -0.97529
   D26        1.13355  -0.00000   0.00000  -0.00019  -0.00019   1.13337
   D27       -3.06512  -0.00001   0.00000  -0.00018  -0.00018  -3.06531
         Item               Value     Threshold  Converged?
 Maximum Force            0.000108     0.000450     YES
 RMS     Force            0.000029     0.000300     YES
 Maximum Displacement     0.001900     0.001800     NO 
 RMS     Displacement     0.000671     0.001200     YES
 Predicted change in Energy=-1.354560D-07
                           ----------------------------
                           ! Non-Optimized Parameters !
                           ! (Angstroms and Degrees)  !
 --------------------------                            --------------------------
 ! Name  Definition              Value          Derivative Info.                !
 --------------------------------------------------------------------------------
 ! R1    R(1,2)                  1.0948         -DE/DX =    0.0                 !
 ! R2    R(1,3)                  1.093          -DE/DX =    0.0                 !
 ! R3    R(1,4)                  1.0941         -DE/DX =    0.0                 !
 ! R4    R(1,5)                  1.5332         -DE/DX =    0.0                 !
 ! R5    R(5,6)                  1.0986         -DE/DX =    0.0                 !
 ! R6    R(5,7)                  1.0991         -DE/DX =    0.0                 !
 ! R7    R(5,8)                  1.5209         -DE/DX =   -0.0001              !
 ! R8    R(8,9)                  1.0986         -DE/DX =    0.0                 !
 ! R9    R(8,10)                 1.0991         -DE/DX =    0.0                 !
 ! R10   R(8,11)                 1.5332         -DE/DX =    0.0                 !
 ! R11   R(11,12)                1.0948         -DE/DX =    0.0                 !
 ! R12   R(11,13)                1.0941         -DE/DX =    0.0                 !
 ! R13   R(11,14)                1.093          -DE/DX =    0.0                 !
 ! A1    A(2,1,3)              107.2581         -DE/DX =    0.0                 !
 ! A2    A(2,1,4)              107.8111         -DE/DX =    0.0                 !
 ! A3    A(2,1,5)              112.0619         -DE/DX =    0.0                 !
 ! A4    A(3,1,4)              107.4055         -DE/DX =    0.0                 !
 ! A5    A(3,1,5)              110.7825         -DE/DX =    0.0                 !
 ! A6    A(4,1,5)              111.304          -DE/DX =    0.0                 !
 ! A7    A(1,5,6)              110.9203         -DE/DX =    0.0                 !
 ! A8    A(1,5,7)              111.2296         -DE/DX =    0.0                 !
 ! A9    A(1,5,8)              108.2296         -DE/DX =   -0.0001              !
 ! A10   A(6,5,7)              106.009          -DE/DX =    0.0                 !
 ! A11   A(6,5,8)              110.1204         -DE/DX =    0.0                 !
 ! A12   A(7,5,8)              110.3391         -DE/DX =    0.0001              !
 ! A13   A(5,8,9)              110.1202         -DE/DX =    0.0                 !
 ! A14   A(5,8,10)             110.3389         -DE/DX =    0.0001              !
 ! A15   A(5,8,11)             108.2303         -DE/DX =   -0.0001              !
 ! A16   A(9,8,10)             106.0089         -DE/DX =    0.0                 !
 ! A17   A(9,8,11)             110.9201         -DE/DX =    0.0                 !
 ! A18   A(10,8,11)            111.2294         -DE/DX =    0.0                 !
 ! A19   A(8,11,12)            112.0618         -DE/DX =    0.0                 !
 ! A20   A(8,11,13)            111.3041         -DE/DX =    0.0                 !
 ! A21   A(8,11,14)            110.7826         -DE/DX =    0.0                 !
 ! A22   A(12,11,13)           107.811          -DE/DX =    0.0                 !
 ! A23   A(12,11,14)           107.2579         -DE/DX =    0.0                 !
 ! A24   A(13,11,14)           107.4056         -DE/DX =    0.0                 !
 ! D1    D(2,1,5,6)             61.8458         -DE/DX =    0.0                 !
 ! D2    D(2,1,5,7)            -55.8804         -DE/DX =    0.0                 !
 ! D3    D(2,1,5,8)           -177.248          -DE/DX =    0.0                 !
 ! D4    D(3,1,5,6)            -57.9034         -DE/DX =    0.0                 !
 ! D5    D(3,1,5,7)           -175.6296         -DE/DX =    0.0                 !
 ! D6    D(3,1,5,8)             63.0028         -DE/DX =    0.0                 !
 ! D7    D(4,1,5,6)           -177.337          -DE/DX =    0.0                 !
 ! D8    D(4,1,5,7)             64.9368         -DE/DX =    0.0                 !
 ! D9    D(4,1,5,8)            -56.4308         -DE/DX =    0.0                 !
 ! D10   D(1,5,8,9)             63.6799         -DE/DX =    0.0                 !
 ! D11   D(1,5,8,10)          -179.638          -DE/DX =    0.0                 !
 ! D12   D(1,5,8,11)           -57.7217         -DE/DX =    0.0                 !
 ! D13   D(6,5,8,9)           -174.9187         -DE/DX =    0.0                 !
 ! D14   D(6,5,8,10)           -58.2366         -DE/DX =    0.0                 !
 ! D15   D(6,5,8,11)            63.6797         -DE/DX =    0.0                 !
 ! D16   D(7,5,8,9)            -58.2363         -DE/DX =    0.0                 !
 ! D17   D(7,5,8,10)            58.4458         -DE/DX =    0.0                 !
 ! D18   D(7,5,8,11)          -179.6379         -DE/DX =    0.0                 !
 ! D19   D(5,8,11,12)         -177.2478         -DE/DX =    0.0                 !
 ! D20   D(5,8,11,13)          -56.4308         -DE/DX =    0.0                 !
 ! D21   D(5,8,11,14)           63.0031         -DE/DX =    0.0                 !
 ! D22   D(9,8,11,12)           61.8458         -DE/DX =    0.0                 !
 ! D23   D(9,8,11,13)         -177.3371         -DE/DX =    0.0                 !
 ! D24   D(9,8,11,14)          -57.9032         -DE/DX =    0.0                 !
 ! D25   D(10,8,11,12)         -55.88           -DE/DX =    0.0                 !
 ! D26   D(10,8,11,13)          64.9371         -DE/DX =    0.0                 !
 ! D27   D(10,8,11,14)        -175.6291         -DE/DX =    0.0                 !
 --------------------------------------------------------------------------------
 GradGradGradGradGradGradGradGradGradGradGradGradGradGradGradGradGradGrad

 Leave Link  103 at Sat Aug 15 12:20:56 2026, MaxMem=   134217728 cpu:               0.0 elap:               0.0
 (Enter /home/emanuele/chem_software/gaussian//gdv/l9999.exe)
 Unable to Open any file for archive entry.
 1\1\GINC-EMANUELE-XPS-13-9343\Freq\AMBER\ZDO\C4H10\EMANUELE\15-Aug-202
 6\0\\#P Geom=AllCheck Guess=TCheck SCRF=Check GenChk AMBER/ZDO Freq\\T
 itle\\0,1\C,-0.5328361166,1.3228370433,-0.5867965411\H,-1.3378583216,2
 .0636495986,-0.6268558984\H,-0.625773102,0.6944426823,-1.4762791897\H,
 0.4185116574,1.8579187371,-0.6622144196\C,-0.5949825333,0.4736381887,0
 .6882330159\H,-1.5325884641,-0.0971387125,0.7341561341\H,-0.5802627807
 ,1.1050197971,1.5878547296\C,0.5950029017,-0.4736368583,0.6882265004\H
 ,1.5325615513,0.0971354786,0.7341495522\H,0.5802578907,-1.1050105465,1
 .5878462639\C,0.5328376275,-1.3228228613,-0.5868092565\H,1.3378638984,
 -2.0636489011,-0.6268515593\H,-0.4185090712,-1.8579275056,-0.662218312
 7\H,0.6257748624,-0.6944561404,-1.4762770189\\Version=ES64L-GDVRevJ.14
 \HF=0.0381775\RMSD=0.000e+00\RMSF=2.217e-05\ZeroPoint=0.1313475\Therma
 l=0.1370211\ETot=0.1751987\HTot=0.1761428\GTot=0.1417669\Dipole=-0.000
 0442,-0.0000273,0.0114627\DipoleDeriv=-0.646624,0.,0.,0.,-0.646624,0.,
 0.,0.,-0.646624,0.210695,0.,0.,0.,0.210695,0.,0.,0.,0.210695,0.210038,
 0.,0.,0.,0.210038,0.,0.,0.,0.210038,0.21276,0.,0.,0.,0.21276,0.,0.,0.,
 0.21276,-0.406786,0.,0.,0.,-0.406786,0.,0.,0.,-0.406786,0.211064,0.,0.
 ,0.,0.211064,0.,0.,0.,0.211064,0.208865,0.,0.,0.,0.208865,0.,0.,0.,0.2
 08865,-0.406821,0.,0.,0.,-0.406821,0.,0.,0.,-0.406821,0.211063,0.,0.,0
 .,0.211063,0.,0.,0.,0.211063,0.20887,0.,0.,0.,0.20887,0.,0.,0.,0.20887
 ,-0.646584,0.,0.,0.,-0.646584,0.,0.,0.,-0.646584,0.210691,0.,0.,0.,0.2
 10691,0.,0.,0.,0.210691,0.212749,0.,0.,0.,0.212749,0.,0.,0.,0.212749,0
 .210021,0.,0.,0.,0.210021,0.,0.,0.,0.210021\PG=C01 [X(C4H10)]\NImag=0\
 \0.60035080,-0.00220708,0.59390750,0.00217104,0.00729108,0.57858427,-0
 .21141529,0.14471180,-0.00545551,0.20708774,0.14771471,-0.18903377,0.0
 0846105,-0.15197628,0.18122221,-0.01016571,0.01279581,-0.05593638,0.00
 637188,-0.00890677,0.04442121,-0.05421798,-0.01397216,-0.01958337,0.00
 661524,0.00815414,0.01785530,0.04491778,-0.01387315,-0.14978235,-0.131
 93478,-0.00433727,-0.00535860,-0.01193531,0.01242348,0.14713064,-0.020
 61042,-0.13867418,-0.25182867,0.00237297,0.00293372,0.00656636,0.02000
 360,0.14281553,0.24427312,-0.27432891,-0.12401080,0.01563512,-0.008671
 45,-0.00936501,0.00107322,0.00422918,0.00157176,-0.00155228,0.27325556
 ,-0.12702259,-0.12496559,0.01170512,0.01526652,0.01648637,-0.00191146,
 -0.01035490,-0.00386250,0.00381067,0.12997637,0.11397179,0.02130972,0.
 01447803,-0.05681436,-0.00107044,-0.00116449,-0.00002361,-0.02011852,-
 0.00757731,0.00745523,-0.01689796,-0.01164374,0.04531200,-0.07205876,-
 0.00499769,0.00536428,0.00604854,0.00576901,-0.01486427,0.00072728,0.0
 0164344,-0.00123703,0.00584709,-0.00808558,0.01639092,0.58325320,-0.00
 327502,-0.13956559,0.09765971,-0.00331105,-0.00308370,0.00951139,0.000
 91790,0.01410153,-0.01005824,0.00188590,-0.00253571,0.00579874,0.02497
 330,0.57064508,0.00259641,0.09944004,-0.21752002,-0.00191042,-0.001772
 63,0.00561030,0.00064679,0.00947204,-0.00675931,0.00154104,-0.00208294
 ,0.00466101,-0.01002620,0.02228389,0.58757949,0.00546199,0.00176231,0.
 00143996,0.00062529,0.00028216,0.00028464,-0.00029990,-0.00006109,0.00
 034164,0.00013160,-0.00054694,-0.00005026,-0.26979463,-0.12860918,0.00
 918920,0.26551568,-0.00766234,-0.00237094,-0.00195257,-0.00059226,-0.0
 0097311,0.00001728,0.00076025,0.00014120,0.00026440,-0.00050982,0.0005
 2756,0.00051974,-0.12647267,-0.13564199,0.00588801,0.13360273,0.128205
 03,0.01628162,0.00651246,0.00513103,-0.00029774,0.00005990,-0.00022302
 ,0.00088867,0.00022437,-0.00047351,-0.00002554,0.00051793,0.00030340,0
 .01293730,0.00850619,-0.05998219,-0.00967228,-0.00706541,0.04791679,0.
 00066295,0.00083770,0.00059024,-0.00042719,-0.00064259,-0.00080341,0.0
 0111793,-0.00010550,-0.00003191,-0.00028742,0.00079317,0.00090688,-0.0
 5820824,-0.00043051,-0.00036092,0.00540917,-0.01045496,-0.01950618,0.0
 4647042,0.00063549,0.01417641,0.00947279,0.00014707,0.00022473,0.00036
 222,-0.00004559,0.00017793,-0.00007061,-0.00008777,0.00019443,0.000219
 72,-0.00302207,-0.15425870,-0.13350197,0.00199892,-0.00397671,-0.00861
 461,0.00230208,0.14695097,-0.00045685,-0.00996314,-0.00665795,-0.00027
 747,0.00032373,-0.00045252,0.00000799,-0.00007353,-0.00035334,0.000320
 15,0.00026266,-0.00040897,-0.00382610,-0.13637326,-0.25312631,-0.00149
 141,0.00296204,0.00636516,0.00377095,0.14070747,0.24834453,0.00515896,
 -0.00133320,-0.00063649,0.00020370,-0.00007138,0.00034042,-0.00066178,
 -0.00023845,0.00054748,-0.00035986,-0.00043613,-0.00016742,-0.19909790
 ,0.10347084,0.00299078,-0.00681356,0.01119867,0.00007643,0.00575605,-0
 .00239799,0.00158880,0.58324337,0.00648086,-0.00167485,-0.00079960,-0.
 00004377,0.00047098,0.00000346,-0.00085991,-0.00016926,-0.00049810,0.0
 0012930,0.00023908,-0.00098059,0.10347024,-0.15958295,-0.00249020,-0.0
 0855933,0.01406799,0.00009600,0.00723076,-0.00301234,0.00199584,0.0249
 8863,0.57063805,-0.01154318,0.00809474,0.00482866,0.00035880,0.0000021
 1,0.00000981,0.00013358,-0.00046781,0.00045073,0.00020917,-0.00100815,
 -0.00033090,-0.00299010,0.00248859,-0.07214344,0.00043782,-0.00065164,
 0.00083976,0.01507068,-0.00873284,0.00588238,0.01002376,-0.02228237,0.
 58757525,0.00058804,-0.00081167,0.00090255,-0.00009611,0.00015215,-0.0
 0010530,-0.00008405,0.00008126,-0.00030071,0.00016551,0.00040063,-0.00
 031771,-0.00681404,-0.00855992,-0.00043791,-0.00037419,-0.00003655,-0.
 00002543,-0.00043479,0.00034454,0.00032593,-0.26978726,-0.12861610,-0.
 00918979,0.26550863,-0.00081167,-0.00030784,-0.00051527,0.00015215,0.0
 0002175,0.00007214,0.00008126,0.00018709,0.00008322,0.00040063,-0.0002
 1421,0.00050215,0.01119898,0.01406837,0.00065171,-0.00003655,0.0001857
 6,-0.00003195,0.00034453,0.00014841,-0.00012843,-0.12648050,-0.1356375
 2,-0.00588860,0.13360969,0.12820090,0.00044410,-0.00109119,-0.00064436
 ,-0.00010530,0.00007214,0.00007606,-0.00030071,0.00008322,-0.00009839,
 -0.00031771,0.00050215,0.00002077,-0.00007633,-0.00009590,0.00084020,0
 .00002544,0.00003195,0.00110552,0.00093648,0.00063856,-0.00033708,-0.0
 1293825,-0.00850711,-0.05997491,0.00967277,0.00706622,0.04790794,-0.00
 007966,-0.00002694,0.00042754,0.00003312,0.00007912,-0.00005530,0.0000
 8483,0.00005646,-0.00009615,0.00012642,0.00001312,-0.00000996,0.005756
 22,0.00723117,-0.01507054,-0.00043480,0.00034454,-0.00093646,-0.000223
 58,0.00000353,0.00030668,-0.05820657,-0.00043567,0.00036392,0.00540914
 ,-0.01045464,0.01950722,0.04646883,-0.00002694,0.00051693,-0.00032189,
 0.00007912,-0.00004969,0.00009136,0.00005646,0.00003842,0.00014346,0.0
 0001312,-0.00011321,0.00018252,-0.00239785,-0.00301229,0.00873328,0.00
 034454,0.00014843,-0.00063853,0.00000354,-0.00101758,0.00038525,-0.003
 02705,-0.15425696,0.13350112,0.00199925,-0.00397713,0.00861496,0.00230
 615,0.14694942,0.00043007,-0.00031871,0.00023953,-0.00005530,0.0000913
 6,0.00001716,-0.00009615,0.00014346,-0.00012161,-0.00000996,0.00018252
 ,-0.00001147,-0.00158852,-0.00199557,0.00588220,-0.00032593,0.00012843
 ,-0.00033706,-0.00030668,-0.00038527,0.00062046,0.00382910,0.13637350,
 -0.25312745,0.00149178,-0.00296260,0.00636590,-0.00377493,-0.14070743,
 0.24834499,0.00106817,0.00203072,-0.00019927,-0.00010410,-0.00044254,0
 .00000523,-0.00045693,-0.00147252,0.00064928,-0.00062928,-0.00006799,0
 .00000161,0.00515908,0.00648085,0.01154319,0.00058801,-0.00081159,-0.0
 0044405,-0.00007964,-0.00002691,-0.00043005,-0.07205736,-0.00327842,-0
 .00259665,0.00546211,-0.00766209,-0.01628235,0.00066276,0.00063594,0.0
 0045718,0.60033793,0.00203072,-0.00387350,-0.00025036,-0.00044254,0.00
 045255,-0.00000947,-0.00147252,0.00126115,-0.00113046,-0.00006799,0.00
 125994,-0.00004485,-0.00133323,-0.00167478,-0.00809488,-0.00081158,-0.
 00030784,0.00109112,-0.00002691,0.00051691,0.00031866,-0.00500120,-0.1
 3956491,-0.09943840,0.00176256,-0.00237119,-0.00651283,0.00083804,0.01
 417658,0.00996318,-0.00219961,0.59390675,0.00019929,0.00025031,0.00240
 154,0.00000523,-0.00000947,-0.00034845,0.00064928,-0.00113046,-0.00080
 422,0.00000161,-0.00004485,-0.00063066,0.00063641,0.00079944,0.0048284
 7,-0.00090249,0.00051522,-0.00064432,-0.00042752,0.00032183,0.00023953
 ,-0.00536477,-0.09765846,-0.21752215,-0.00144019,0.00195281,0.00513146
 ,-0.00059045,-0.00947274,-0.00665786,-0.00217123,-0.00729938,0.5785947
 3,-0.00010411,-0.00044255,-0.00000523,0.00000626,0.00007554,0.,0.00000
 862,0.00020359,-0.00006270,0.00008563,0.00006740,-0.00000061,0.0002036
 9,-0.00004374,-0.00035878,-0.00009611,0.00015215,0.00010530,0.00003312
 ,0.00007912,0.00005530,0.00604841,-0.00331081,0.00191013,0.00062532,-0
 .00059227,0.00029775,-0.00042720,0.00014710,0.00027748,-0.21141490,0.1
 4471110,0.00545360,0.20708745,-0.00044255,0.00045257,0.00000948,0.0000
 7554,-0.00006128,0.,0.00020359,-0.00013239,0.00008807,0.00006740,-0.00
 018605,0.00000259,-0.00007136,0.00047095,-0.00000212,0.00015215,0.0000
 2175,-0.00007214,0.00007912,-0.00004969,-0.00009135,0.00576917,-0.0030
 8360,0.00177243,0.00028219,-0.00097312,-0.00005991,-0.00064258,0.00022
 476,-0.00032374,0.14771386,-0.18903667,-0.00845727,-0.15197525,0.18122
 550,-0.00000523,0.00000948,-0.00034846,0.,0.,0.00005523,-0.00006270,0.
 00008807,0.00012644,-0.00000061,0.00000259,0.00010141,-0.00034039,-0.0
 0000347,0.00000982,0.00010530,-0.00007214,0.00007605,0.00005530,-0.000
 09135,0.00001716,0.01486388,-0.00951181,0.00561025,-0.00028465,-0.0000
 1727,-0.00022301,0.00080341,-0.00036224,-0.00045252,0.01016364,-0.0127
 9206,-0.05593977,-0.00636919,0.00890360,0.04442415,-0.00062927,-0.0000
 6799,-0.00000161,0.00008563,0.00006739,0.00000061,0.00033235,0.0000744
 8,-0.00002375,0.00010359,-0.00007754,0.,-0.00035976,0.00012934,-0.0002
 0917,0.00016549,0.00040060,0.00031769,0.00012641,0.00001312,0.00000996
 ,0.00584684,0.00188597,-0.00154114,0.00013163,-0.00050984,0.00002556,-
 0.00028747,-0.00008776,-0.00032014,-0.27432512,-0.12401311,-0.01563309
 ,-0.00867160,-0.00936509,-0.00107305,0.27325200,-0.00006799,0.00125992
 ,0.00004485,0.00006739,-0.00018604,-0.00000259,0.00007448,-0.00057874,
 0.00029251,-0.00007754,-0.00022317,0.,-0.00043611,0.00023897,0.0010080
 5,0.00040060,-0.00021419,-0.00050211,0.00001312,-0.00011320,-0.0001825
 0,-0.00808507,-0.00253579,0.00208305,-0.00054696,0.00052758,-0.0005179
 3,0.00079320,0.00019439,-0.00026265,-0.12702533,-0.12497006,-0.0117030
 3,0.01526619,0.01648588,0.00191099,0.12997840,0.11397720,-0.00000161,0
 .00004485,-0.00063065,0.00000061,-0.00000259,0.00010140,-0.00002375,0.
 00029251,0.00024510,0.,0.,0.00012106,0.00016743,0.00098048,-0.00033087
 ,0.00031769,-0.00050211,0.00002077,0.00000996,-0.00018250,-0.00001147,
 -0.01639083,-0.00579896,0.00466131,0.00005028,-0.00051973,0.00030339,-
 0.00090687,-0.00021970,-0.00040896,-0.02130757,-0.01447606,-0.05681835
 ,0.00107002,0.00116400,-0.00002304,0.01689566,0.01164209,0.04531486,-0
 .00045693,-0.00147244,-0.00064924,0.00000862,0.00020358,0.00006270,-0.
 00231258,0.00403352,0.,0.00033234,0.00007447,0.00002375,-0.00066176,-0
 .00085988,-0.00013347,-0.00008404,0.00008125,0.00030068,0.00008482,0.0
 0005646,0.00009614,0.00072694,0.00091825,-0.00064700,-0.00029996,0.000
 76031,-0.00088866,0.00111798,-0.00004562,-0.00000798,-0.05421071,-0.01
 397372,0.01958432,0.00661542,0.00815383,-0.01785571,0.00422930,-0.0103
 5439,0.02011898,0.04491057,-0.00147244,0.00126110,0.00113041,0.0002035
 8,-0.00013239,-0.00008806,0.00403352,-0.00315412,0.,0.00007447,-0.0005
 7872,-0.00029250,-0.00023839,-0.00016920,0.00046772,0.00008125,0.00018
 707,-0.00008321,0.00005646,0.00003842,-0.00014344,0.00164366,0.0141020
 6,-0.00947225,-0.00006107,0.00014116,-0.00022435,-0.00010552,0.0001779
 2,0.00007353,-0.01387437,-0.14977493,0.13193604,-0.00433756,-0.0053585
 9,0.01193562,0.00157203,-0.00386275,0.00757773,0.01242438,0.14712295,-
 0.00064924,0.00113041,-0.00080418,0.00006270,-0.00008806,0.00012644,0.
 ,0.,0.00132206,0.00002375,-0.00029250,0.00024510,-0.00054738,0.0004980
 2,0.00045065,0.00030068,-0.00008321,-0.00009838,0.00009614,-0.00014344
 ,-0.00012159,0.00123713,0.01005838,-0.00675930,-0.00034161,-0.00026440
 ,-0.00047348,0.00003191,0.00007061,-0.00035332,0.02061103,0.13867580,-
 0.25182995,-0.00237306,-0.00293362,0.00656627,0.00155247,-0.00381074,0
 .00745546,-0.02000450,-0.14281724,0.24427421\\0.00000264,0.00003211,0.
 00004042,0.00000593,-0.00001387,0.00001597,-0.00001157,0.00001241,-0.0
 0001276,-0.00001651,-0.00001272,-0.00001255,0.00000328,0.00000780,-0.0
 0006984,-0.00004245,-0.00001055,0.00001305,0.00000865,0.00001255,0.000
 02586,0.00002755,-0.00000115,-0.00006662,0.00001742,-0.00000180,0.0000
 1178,-0.00001156,-0.00000952,0.00002347,-0.00000434,-0.00000812,0.0000
 2482,-0.00000094,0.00000822,0.00001741,0.00001189,0.00000804,-0.000012
 87,0.00001000,-0.00002340,0.00000187\\\@
 The archive entry for this job was punched.


 NATURE GIVES TO EVERY TIME AND SEASON SOME BEAUTY OF ITS OWN.

                                                    --DICKENS
 Job cpu time:       0 days  0 hours  0 minutes  0.5 seconds.
 Elapsed time:       0 days  0 hours  0 minutes  0.5 seconds.
 File lengths (MBytes):  RWF=      6 Int=      0 D2E=      0 Chk=      1 Scr=      1
 Normal termination of Gaussian DV at Sat Aug 15 12:20:56 2026.
