      -----------------------------------------------------------      
     |                   =====================                   |     
     |                           x T B                           |     
     |                   =====================                   |     
     |                         S. Grimme                         |     
     |          Mulliken Center for Theoretical Chemistry        |     
     |                    University of Bonn                     |     
      -----------------------------------------------------------      

   * xtb version 6.7.1 (edcfbbe) compiled by 'conda@5dfe00f5fb80' on 2026-06-10

   xtb is free software: you can redistribute it and/or modify it under
   the terms of the GNU Lesser General Public License as published by
   the Free Software Foundation, either version 3 of the License, or
   (at your option) any later version.
   
   xtb is distributed in the hope that it will be useful,
   but WITHOUT ANY WARRANTY; without even the implied warranty of
   MERCHANTABILITY or FITNESS FOR A PARTICULAR PURPOSE.  See the
   GNU Lesser General Public License for more details.
   
   Cite this work as:
   * C. Bannwarth, E. Caldeweyher, S. Ehlert, A. Hansen, P. Pracht,
     J. Seibert, S. Spicher, S. Grimme, WIREs Comput. Mol. Sci., 2020, 11,
     e01493. DOI: 10.1002/wcms.1493
   
   for GFN2-xTB:
   * C. Bannwarth, S. Ehlert and S. Grimme., J. Chem. Theory Comput., 2019,
     15, 1652-1671. DOI: 10.1021/acs.jctc.8b01176
   for GFN1-xTB:
   * S. Grimme, C. Bannwarth, P. Shushkov, J. Chem. Theory Comput., 2017,
     13, 1989-2009. DOI: 10.1021/acs.jctc.7b00118
   for GFN0-xTB:
   * P. Pracht, E. Caldeweyher, S. Ehlert, S. Grimme, ChemRxiv, 2019, preprint.
     DOI: 10.26434/chemrxiv.8326202.v1
   for GFN-FF:
   * S. Spicher and S. Grimme, Angew. Chem. Int. Ed., 2020, 59, 15665-15673.
     DOI: 10.1002/anie.202004239
   
   for ALPB and GBSA implicit solvation:
   * S. Ehlert, M. Stahn, S. Spicher, S. Grimme, J. Chem. Theory Comput.,
     2021, 17, 4250-4261. DOI: 10.1021/acs.jctc.1c00471
   
   for ddCOSMO and CPCM-X implicit solvation:
   * M. Stahn, S. Ehlert, S. Grimme, J. Phys. Chem. A,
     2023, XX, XXXX-XXXX. DOI: 10.1021/acs.jpca.3c04382
   
   for DFT-D4:
   * E. Caldeweyher, C. Bannwarth and S. Grimme, J. Chem. Phys., 2017,
     147, 034112. DOI: 10.1063/1.4993215
   * E. Caldeweyher, S. Ehlert, A. Hansen, H. Neugebauer, S. Spicher,
     C. Bannwarth and S. Grimme, J. Chem. Phys., 2019, 150, 154122.
     DOI: 10.1063/1.5090222
   * E. Caldeweyher, J.-M. Mewes, S. Ehlert and S. Grimme, Phys. Chem. Chem. Phys.
     2020, 22, 8499-8512. DOI: 10.1039/D0CP00502A
   
   for sTDA-xTB:
   * S. Grimme and C. Bannwarth, J. Chem. Phys., 2016, 145, 054103.
     DOI: 10.1063/1.4959605
   
   in the mass-spec context:
   * V. Asgeirsson, C. Bauer and S. Grimme, Chem. Sci., 2017, 8, 4879.
     DOI: 10.1039/c7sc00601b
   * J. Koopman and S. Grimme, ACS Omega 2019, 4, 12, 15120-15133.
     DOI: 10.1021/acsomega.9b02011
   
   for metadynamics refer to:
   * S. Grimme, J. Chem. Theory Comput., 2019, 155, 2847-2862
     DOI: 10.1021/acs.jctc.9b00143
   
   for SPH calculations refer to:
   * S. Spicher and S. Grimme, J. Chem. Theory Comput., 2021, 17, 1701-1714
     DOI: 10.1021/acs.jctc.0c01306
   
   for ONIOM refer to:
   * C. Plett, A. Katbashev, S. Ehlert, S. Grimme, M. Bursch,
     Phys. Chem. Chem. Phys., 2023, 25, 17860-17868. DOI: 10.1039/D3CP02178E
   
   for DIPRO refer to:
   * J. Kohn, N. Gildemeister, S. Grimme, D. Fazzi, A. Hansen,
     J. Chem. Phys., 2023, just accepted.
   
   for PTB refer to:
   * S. Grimme, M. Mueller, A. Hansen, J. Chem. Phys., 2023, 158, 124111.
     DOI: 10.1063/5.0137838
   
   with help from (in alphabetical order)
   P. Atkinson, C. Bannwarth, F. Bohle, G. Brandenburg, E. Caldeweyher
   M. Checinski, S. Dohm, S. Ehlert, S. Ehrlich, I. Gerasimov, C. Hölzer
   A. Katbashev, J. Kohn, J. Koopman, C. Lavigne, S. Lehtola, F. März, M. Müller,
   F. Musil, H. Neugebauer, J. Pisarek, C. Plett, P. Pracht, F. Pultar,
   J. Seibert, P. Shushkov, S. Spicher, M. Stahn, M. Steiner, T. Strunk,
   J. Stückrath, T. Rose, and J. Unsleber
   
 * started run on 2026/08/17 at 12:14:19.325     
   ID    Z sym.   atoms
    1    6 C      1, 5, 8, 11
    2    1 H      2-4, 6, 7, 9, 10, 12-14

           -------------------------------------------------
          |                Calculation Setup                |
           -------------------------------------------------

          program call               : xtb input.xyz --gfn2 --opt tight --chrg 0 --uhf 0 --iterations 250
          coordinate file            : input.xyz
          omp threads                :                     4


           -------------------------------------------------
          |                 G F N 2 - x T B                 |
           -------------------------------------------------

        Reference                      10.1021/acs.jctc.8b01176
      * Hamiltonian:
        H0-scaling (s, p, d)           1.850000    2.230000    2.230000
        zeta-weighting                 0.500000
      * Dispersion:
        s8                             2.700000
        a1                             0.520000
        a2                             5.000000
        s9                             5.000000
      * Repulsion:
        kExp                           1.500000    1.000000
        rExp                           1.000000
      * Coulomb:
        alpha                          2.000000
        third order                    shell-resolved
        anisotropic                    true
        a3                             3.000000
        a5                             4.000000
        cn-shift                       1.200000
        cn-exp                         4.000000
        max-rad                        5.000000

q/qsh data taken from xtbrestart
CAMM data taken from xtbrestart

          ...................................................
          :                      SETUP                      :
          :.................................................:
          :  # basis functions                  26          :
          :  # atomic orbitals                  26          :
          :  # shells                           18          :
          :  # electrons                        26          :
          :  max. iterations                   250          :
          :  Hamiltonian                  GFN2-xTB          :
          :  restarted?                       true          :
          :  GBSA solvation                  false          :
          :  PC potential                    false          :
          :  electronic temp.          300.0000000     K    :
          :  accuracy                    1.0000000          :
          :  -> integral cutoff          0.2500000E+02      :
          :  -> integral neglect         0.1000000E-07      :
          :  -> SCF convergence          0.1000000E-05 Eh   :
          :  -> wf. convergence          0.1000000E-03 e    :
          :  Broyden damping             0.4000000          :
          :  net charge                          0          :
          :  unpaired electrons                  0          :
          ...................................................

 iter      E             dE          RMSdq      gap      omega  full diag
   1    -13.8605072 -0.138605E+02  0.115E+00   13.29       0.0  T
   2    -13.8605471 -0.399794E-04  0.686E-01   13.27       1.0  T
   3    -13.8605627 -0.155144E-04  0.300E-02   13.25       1.0  T
   4    -13.8605632 -0.512208E-06  0.107E-02   13.25       2.5  T
   5    -13.8605633 -0.148962E-06  0.220E-03   13.25      12.2  T
   6    -13.8605633 -0.159365E-08  0.701E-04   13.25      38.1  T
   7    -13.8605633 -0.257312E-09  0.678E-05   13.25     394.0  T

   *** convergence criteria satisfied after 7 iterations ***

         #    Occupation            Energy/Eh            Energy/eV
      -------------------------------------------------------------
         1        2.0000           -0.6169633             -16.7884
       ...           ...                  ...                  ...
         7        2.0000           -0.4866337             -13.2420
         8        2.0000           -0.4729431             -12.8694
         9        2.0000           -0.4544064             -12.3650
        10        2.0000           -0.4495823             -12.2338
        11        2.0000           -0.4317949             -11.7497
        12        2.0000           -0.4238487             -11.5335
        13        2.0000           -0.4125364             -11.2257 (HOMO)
        14                          0.0745557               2.0288 (LUMO)
        15                          0.1019145               2.7732
        16                          0.1196157               3.2549
        17                          0.1302588               3.5445
        18                          0.1495626               4.0698
       ...                                ...                  ...
        26                          0.3330911               9.0639
      -------------------------------------------------------------
                  HL-Gap            0.4870921 Eh           13.2545 eV
             Fermi-level           -0.1689903 Eh           -4.5985 eV

 SCC (total)                   0 d,  0 h,  0 min,  0.012 sec
 SCC setup                      ...        0 min,  0.000 sec (  1.915%)
 Dispersion                     ...        0 min,  0.000 sec (  2.121%)
 classical contributions        ...        0 min,  0.000 sec (  0.927%)
 integral evaluation            ...        0 min,  0.002 sec ( 14.442%)
 iterations                     ...        0 min,  0.005 sec ( 41.852%)
 molecular gradient             ...        0 min,  0.005 sec ( 37.257%)
 printout                       ...        0 min,  0.000 sec (  1.335%)

         :::::::::::::::::::::::::::::::::::::::::::::::::::::
         ::                     SUMMARY                     ::
         :::::::::::::::::::::::::::::::::::::::::::::::::::::
         :: total energy             -13.654454149838 Eh    ::
         :: gradient norm              0.015037554411 Eh/a0 ::
         :: HOMO-LUMO gap             13.254451118941 eV    ::
         ::.................................................::
         :: SCC energy               -13.860557297138 Eh    ::
         :: -> isotropic ES            0.002993980981 Eh    ::
         :: -> anisotropic ES          0.005327316425 Eh    ::
         :: -> anisotropic XC          0.009203131266 Eh    ::
         :: -> dispersion             -0.006089838315 Eh    ::
         :: repulsion energy           0.206103147300 Eh    ::
         :: add. restraining           0.000000000000 Eh    ::
         :: total charge              -0.000000000000 e     ::
         :::::::::::::::::::::::::::::::::::::::::::::::::::::

      ----------------------------------------------------------- 
     |                   =====================                   |
     |                        A N C O P T                        |
     |                   =====================                   |
     |               Approximate Normal Coordinate               |
     |                Rational Function Optimizer                |
      ----------------------------------------------------------- 
      ----------------------------------------------------------- 
     |                   =====================                   |
     |                        A N C O P T                        |
     |                   =====================                   |
     |               Approximate Normal Coordinate               |
     |                Rational Function Optimizer                |
      ----------------------------------------------------------- 

          ...................................................
          :                      SETUP                      :
          :.................................................:
          :   optimization level             tight          :
          :   max. optcycles                   200          :
          :   ANC micro-cycles                  20          :
          :   degrees of freedom                36          :
          :.................................................:
          :   RF solver                   davidson          :
          :   write xtbopt.log                true          :
          :   linear?                        false          :
          :   energy convergence         0.1000000E-05 Eh   :
          :   grad. convergence          0.8000000E-03 Eh/α :
          :   maxmium RF displ.          1.0000000          :
          :   Hlow (freq-cutoff)         0.1000000E-01      :
          :   Hmax (freq-cutoff)         5.0000000          :
          :   S6 in model hess.         20.0000000          :
          ...................................................

generating ANC from exact Hessian ...
Using Lindh-Hessian (1995)
 Shifting diagonal of input Hessian by    6.2998716630426384E-003
 Lowest  eigenvalues of input Hessian
    0.000000    0.000000    0.000000    0.000000    0.000000    0.000000
    0.010000    0.013271    0.013820    0.020065    0.021756    0.046977
    0.048130    0.058121    0.058789    0.060178    0.063036    0.066555
 Highest eigenvalues
    1.108681    1.133377    1.148563    1.209814    1.222156    1.283019


........................................................................
.............................. CYCLE    1 ..............................
........................................................................

 iter      E             dE          RMSdq      gap      omega  full diag
   1    -13.8605633 -0.138606E+02  0.139E-05   13.25       0.0  T
   2    -13.8605633 -0.298428E-12  0.765E-06   13.25    3492.0  T
   3    -13.8605633 -0.266454E-13  0.320E-06   13.25    8359.3  T
     SCC iter.                  ...        0 min,  0.002 sec
     gradient                   ...        0 min,  0.005 sec
 * total energy  :   -13.6544541 Eh     change       -0.3691270E-11 Eh
   gradient norm :     0.0150374 Eh/α   predicted     0.0000000E+00 (-100.00%)
   displ. norm   :     0.2095430 α      lambda       -0.1220657E-02
   maximum displ.:     0.1587419 α      in ANC's #5, #2, #11, ...

........................................................................
.............................. CYCLE    2 ..............................
........................................................................

 iter      E             dE          RMSdq      gap      omega  full diag
   1    -13.8633578 -0.138634E+02  0.118E-01   13.12       0.0  T
   2    -13.8633592 -0.147714E-05  0.704E-02   13.12       1.0  T
   3    -13.8633594 -0.186736E-06  0.339E-03   13.12       7.9  T
   4    -13.8633595 -0.247614E-07  0.171E-03   13.12      15.6  T
   5    -13.8633595 -0.159125E-08  0.646E-04   13.12      41.4  T
   6    -13.8633595 -0.320780E-09  0.104E-04   13.12     256.6  T
     SCC iter.                  ...        0 min,  0.004 sec
     gradient                   ...        0 min,  0.005 sec
 * total energy  :   -13.6553646 Eh     change       -0.9104506E-03 Eh
   gradient norm :     0.0073651 Eh/α   predicted    -0.6371238E-03 ( -30.02%)
   displ. norm   :     0.4531358 α      lambda       -0.1573284E-02
   maximum displ.:     0.3645089 α      in ANC's #2, #5, #7, ...

........................................................................
.............................. CYCLE    3 ..............................
........................................................................

 iter      E             dE          RMSdq      gap      omega  full diag
   1    -13.8628834 -0.138629E+02  0.149E-01   13.07       0.0  T
   2    -13.8628858 -0.244019E-05  0.892E-02   13.07       1.0  T
   3    -13.8628859 -0.741037E-07  0.694E-03   13.07       3.9  T
   4    -13.8628862 -0.282741E-06  0.233E-03   13.07      11.5  T
   5    -13.8628862 -0.142233E-08  0.407E-04   13.07      65.7  T
   6    -13.8628862 -0.781490E-10  0.138E-04   13.07     193.8  T
     SCC iter.                  ...        0 min,  0.004 sec
     gradient                   ...        0 min,  0.005 sec
 * total energy  :   -13.6566666 Eh     change       -0.1302040E-02 Eh
   gradient norm :     0.0094465 Eh/α   predicted    -0.9481602E-03 ( -27.18%)
   displ. norm   :     0.5881299 α      lambda       -0.1691906E-02
   maximum displ.:     0.4951822 α      in ANC's #2, #5, #7, ...

........................................................................
.............................. CYCLE    4 ..............................
........................................................................

 iter      E             dE          RMSdq      gap      omega  full diag
   1    -13.8566896 -0.138567E+02  0.183E-01   13.10       0.0  T
   2    -13.8567017 -0.121590E-04  0.108E-01   13.09       1.0  T
   3    -13.8567021 -0.403829E-06  0.170E-02   13.09       1.6  T
   4    -13.8567027 -0.521881E-06  0.374E-03   13.09       7.1  T
   5    -13.8567027 -0.705691E-08  0.198E-03   13.09      13.5  T
   6    -13.8567027 -0.108033E-08  0.198E-04   13.09     134.9  T
   7    -13.8567027 -0.281961E-10  0.258E-05   13.09    1035.1  T
     SCC iter.                  ...        0 min,  0.004 sec
     gradient                   ...        0 min,  0.005 sec
 * total energy  :   -13.6576451 Eh     change       -0.9784706E-03 Eh
   gradient norm :     0.0236665 Eh/α   predicted    -0.1138552E-02 (  16.36%)
   displ. norm   :     0.2188415 α      lambda       -0.1408331E-02
   maximum displ.:     0.1315979 α      in ANC's #2, #1, #5, ...

........................................................................
.............................. CYCLE    5 ..............................
........................................................................

 iter      E             dE          RMSdq      gap      omega  full diag
   1    -13.8624540 -0.138625E+02  0.101E-01   13.29       0.0  T
   2    -13.8624581 -0.415272E-05  0.592E-02   13.29       1.0  T
   3    -13.8624583 -0.113487E-06  0.101E-02   13.29       2.7  T
   4    -13.8624585 -0.241400E-06  0.229E-03   13.29      11.7  T
   5    -13.8624585 -0.120838E-08  0.110E-03   13.29      24.3  T
   6    -13.8624585 -0.295449E-09  0.952E-05   13.29     280.8  T
   7    -13.8624585 -0.598455E-11  0.449E-05   13.29     594.7  T
     SCC iter.                  ...        0 min,  0.004 sec
     gradient                   ...        0 min,  0.005 sec
 * total energy  :   -13.6587727 Eh     change       -0.1127618E-02 Eh
   gradient norm :     0.0149823 Eh/α   predicted    -0.7378882E-03 ( -34.56%)
   displ. norm   :     0.5439044 α      lambda       -0.1912637E-02
   maximum displ.:     0.3923776 α      in ANC's #2, #1, #5, ...

........................................................................
.............................. CYCLE    6 ..............................
........................................................................

 iter      E             dE          RMSdq      gap      omega  full diag
   1    -13.8654744 -0.138655E+02  0.162E-01   13.53       0.0  T
   2    -13.8654764 -0.200125E-05  0.970E-02   13.53       1.0  T
   3    -13.8654765 -0.136515E-06  0.572E-03   13.53       4.7  T
   4    -13.8654767 -0.187668E-06  0.221E-03   13.53      12.1  T
   5    -13.8654767 -0.200015E-08  0.712E-04   13.53      37.5  T
   6    -13.8654767 -0.168511E-09  0.142E-04   13.53     188.5  T
     SCC iter.                  ...        0 min,  0.004 sec
     gradient                   ...        0 min,  0.005 sec
 * total energy  :   -13.6602629 Eh     change       -0.1490133E-02 Eh
   gradient norm :     0.0112293 Eh/α   predicted    -0.1239215E-02 ( -16.84%)
   displ. norm   :     0.4935469 α      lambda       -0.1424019E-02
   maximum displ.:     0.3157097 α      in ANC's #1, #2, #5, ...

........................................................................
.............................. CYCLE    7 ..............................
........................................................................

 iter      E             dE          RMSdq      gap      omega  full diag
   1    -13.8697252 -0.138697E+02  0.155E-01   13.77       0.0  T
   2    -13.8697278 -0.252646E-05  0.918E-02   13.77       1.0  T
   3    -13.8697279 -0.166263E-06  0.696E-03   13.77       3.8  T
   4    -13.8697282 -0.223849E-06  0.249E-03   13.77      10.7  T
   5    -13.8697282 -0.164345E-08  0.443E-04   13.77      60.3  T
   6    -13.8697282 -0.129223E-09  0.150E-04   13.77     178.6  T
     SCC iter.                  ...        0 min,  0.004 sec
     gradient                   ...        0 min,  0.005 sec
 * total energy  :   -13.6613197 Eh     change       -0.1056796E-02 Eh
   gradient norm :     0.0111183 Eh/α   predicted    -0.8854449E-03 ( -16.21%)
   displ. norm   :     0.6156504 α      lambda       -0.1125289E-02
   maximum displ.:     0.4144545 α      in ANC's #2, #1, #5, ...

........................................................................
.............................. CYCLE    8 ..............................
........................................................................

 iter      E             dE          RMSdq      gap      omega  full diag
   1    -13.8616972 -0.138617E+02  0.188E-01   13.82       0.0  T
   2    -13.8617106 -0.134578E-04  0.110E-01   13.82       1.0  T
   3    -13.8617113 -0.697777E-06  0.144E-02   13.82       1.9  T
   4    -13.8617114 -0.854479E-07  0.367E-03   13.82       7.3  T
   5    -13.8617114 -0.407088E-08  0.162E-03   13.82      16.5  T
   6    -13.8617114 -0.225825E-08  0.223E-04   13.82     119.9  T
   7    -13.8617114 -0.321148E-10  0.893E-05   13.82     299.3  T
     SCC iter.                  ...        0 min,  0.004 sec
     gradient                   ...        0 min,  0.005 sec
 * total energy  :   -13.6617174 Eh     change       -0.3977413E-03 Eh
   gradient norm :     0.0231924 Eh/α   predicted    -0.7758942E-03 (  95.08%)
   displ. norm   :     0.2814170 α      lambda       -0.1673447E-02
   maximum displ.:     0.2467996 α      in ANC's #1, #24, #8, ...

........................................................................
.............................. CYCLE    9 ..............................
........................................................................

 iter      E             dE          RMSdq      gap      omega  full diag
   1    -13.8758939 -0.138759E+02  0.155E-01   14.02       0.0  T
   2    -13.8759207 -0.268586E-04  0.855E-02   14.02       1.0  T
   3    -13.8759220 -0.123060E-05  0.244E-02   14.02       1.1  T
   4    -13.8759222 -0.252303E-06  0.506E-03   14.02       5.3  T
   5    -13.8759222 -0.130856E-07  0.257E-03   14.02      10.4  T
   6    -13.8759222 -0.267066E-08  0.311E-04   14.02      86.0  T
   7    -13.8759222 -0.834639E-10  0.107E-04   14.02     250.4  T
     SCC iter.                  ...        0 min,  0.003 sec
     gradient                   ...        0 min,  0.002 sec
 * total energy  :   -13.6622664 Eh     change       -0.5490169E-03 Eh
   gradient norm :     0.0181793 Eh/α   predicted    -0.9029890E-03 (  64.47%)
   displ. norm   :     0.3587209 α      lambda       -0.1933830E-02
   maximum displ.:     0.2206824 α      in ANC's #3, #1, #4, ...

........................................................................
.............................. CYCLE   10 ..............................
........................................................................

 iter      E             dE          RMSdq      gap      omega  full diag
   1    -13.8774623 -0.138775E+02  0.213E-01   14.03       0.0  T
   2    -13.8775171 -0.547191E-04  0.117E-01   14.03       1.0  T
   3    -13.8775200 -0.290656E-05  0.376E-02   14.03       1.0  T
   4    -13.8775206 -0.625502E-06  0.792E-03   14.03       3.4  T
   5    -13.8775206 -0.119671E-07  0.328E-03   14.03       8.1  T
   6    -13.8775206 -0.131168E-07  0.353E-04   14.03      75.7  T
   7    -13.8775206 -0.105938E-09  0.136E-04   14.03     197.0  T
     SCC iter.                  ...        0 min,  0.004 sec
     gradient                   ...        0 min,  0.002 sec
 * total energy  :   -13.6617681 Eh     change        0.4983264E-03 Eh
   gradient norm :     0.0320748 Eh/α   predicted    -0.1091339E-02 (-319.00%)
   displ. norm   :     0.1840016 α      lambda       -0.2395445E-02
   maximum displ.:     0.1140060 α      in ANC's #3, #4, #2, ...

........................................................................
.............................. CYCLE   11 ..............................
........................................................................

 iter      E             dE          RMSdq      gap      omega  full diag
   1    -13.8712648 -0.138713E+02  0.136E-01   14.00       0.0  T
   2    -13.8712904 -0.256172E-04  0.737E-02   14.00       1.0  T
   3    -13.8712917 -0.127611E-05  0.253E-02   14.00       1.1  T
   4    -13.8712919 -0.253190E-06  0.522E-03   14.00       5.1  T
   5    -13.8712920 -0.509560E-08  0.226E-03   14.00      11.8  T
   6    -13.8712920 -0.521289E-08  0.231E-04   14.00     115.8  T
   7    -13.8712920 -0.734399E-10  0.952E-05   14.00     280.7  T
     SCC iter.                  ...        0 min,  0.004 sec
     gradient                   ...        0 min,  0.002 sec
 * total energy  :   -13.6629844 Eh     change       -0.1216278E-02 Eh
   gradient norm :     0.0082318 Eh/α   predicted    -0.1238272E-02 (   1.81%)
   displ. norm   :     0.1187508 α      lambda       -0.1732210E-03
   maximum displ.:     0.0897237 α      in ANC's #1, #5, #2, ...

........................................................................
.............................. CYCLE   12 ..............................
........................................................................

 iter      E             dE          RMSdq      gap      omega  full diag
   1    -13.8727840 -0.138728E+02  0.402E-02   14.04       0.0  T
   2    -13.8727844 -0.425663E-06  0.237E-02   14.04       1.1  T
   3    -13.8727844 -0.334761E-07  0.241E-03   14.04      11.1  T
   4    -13.8727844 -0.297539E-08  0.780E-04   14.04      34.3  T
   5    -13.8727844 -0.310250E-09  0.213E-04   14.04     125.3  T
     SCC iter.                  ...        0 min,  0.003 sec
     gradient                   ...        0 min,  0.002 sec
 * total energy  :   -13.6631141 Eh     change       -0.1297467E-03 Eh
   gradient norm :     0.0046150 Eh/α   predicted    -0.8783022E-04 ( -32.31%)
   displ. norm   :     0.2933240 α      lambda       -0.2344465E-03
   maximum displ.:     0.2330135 α      in ANC's #1, #5, #2, ...

........................................................................
.............................. CYCLE   13 ..............................
........................................................................

 iter      E             dE          RMSdq      gap      omega  full diag
   1    -13.8732123 -0.138732E+02  0.948E-02   14.03       0.0  T
   2    -13.8732128 -0.479348E-06  0.565E-02   14.04       1.0  T
   3    -13.8732129 -0.126962E-06  0.295E-03   14.04       9.1  T
   4    -13.8732129 -0.895509E-08  0.123E-03   14.04      21.7  T
   5    -13.8732129 -0.161508E-08  0.248E-04   14.04     108.0  T
   6    -13.8732129 -0.889031E-10  0.105E-04   14.04     254.9  T
     SCC iter.                  ...        0 min,  0.003 sec
     gradient                   ...        0 min,  0.002 sec
 * total energy  :   -13.6632387 Eh     change       -0.1245395E-03 Eh
   gradient norm :     0.0042351 Eh/α   predicted    -0.1273079E-03 (   2.22%)
   displ. norm   :     0.0669107 α      lambda       -0.1021763E-03
   maximum displ.:     0.0548064 α      in ANC's #2, #22, #8, ...

........................................................................
.............................. CYCLE   14 ..............................
........................................................................

 iter      E             dE          RMSdq      gap      omega  full diag
   1    -13.8763950 -0.138764E+02  0.368E-02   14.07       0.0  T
   2    -13.8763957 -0.714580E-06  0.211E-02   14.07       1.3  T
   3    -13.8763957 -0.416825E-07  0.340E-03   14.07       7.9  T
   4    -13.8763957 -0.414112E-08  0.889E-04   14.07      30.1  T
   5    -13.8763957 -0.211903E-09  0.386E-04   14.07      69.2  T
     SCC iter.                  ...        0 min,  0.003 sec
     gradient                   ...        0 min,  0.002 sec
 * total energy  :   -13.6632710 Eh     change       -0.3234382E-04 Eh
   gradient norm :     0.0063766 Eh/α   predicted    -0.5131660E-04 (  58.66%)
   displ. norm   :     0.1055017 α      lambda       -0.9536908E-04
   maximum displ.:     0.0926889 α      in ANC's #1, #5, #7, ...

........................................................................
.............................. CYCLE   15 ..............................
........................................................................

 iter      E             dE          RMSdq      gap      omega  full diag
   1    -13.8750627 -0.138751E+02  0.368E-02   14.07       0.0  T
   2    -13.8750629 -0.229376E-06  0.217E-02   14.07       1.2  T
   3    -13.8750630 -0.198571E-07  0.172E-03   14.07      15.6  T
   4    -13.8750630 -0.642425E-08  0.636E-04   14.07      42.0  T
   5    -13.8750630 -0.329266E-09  0.249E-04   14.07     107.4  T
     SCC iter.                  ...        0 min,  0.003 sec
     gradient                   ...        0 min,  0.002 sec
 * total energy  :   -13.6633299 Eh     change       -0.5889734E-04 Eh
   gradient norm :     0.0060666 Eh/α   predicted    -0.4821371E-04 ( -18.14%)
   displ. norm   :     0.1085631 α      lambda       -0.1322535E-03
   maximum displ.:     0.0837670 α      in ANC's #1, #2, #22, ...

........................................................................
.............................. CYCLE   16 ..............................
........................................................................

 iter      E             dE          RMSdq      gap      omega  full diag
   1    -13.8740441 -0.138740E+02  0.338E-02   14.09       0.0  T
   2    -13.8740443 -0.220818E-06  0.200E-02   14.09       1.3  T
   3    -13.8740443 -0.238625E-07  0.166E-03   14.09      16.1  T
   4    -13.8740443 -0.396891E-08  0.647E-04   14.09      41.3  T
   5    -13.8740443 -0.414705E-09  0.221E-04   14.09     121.0  T
     SCC iter.                  ...        0 min,  0.003 sec
     gradient                   ...        0 min,  0.002 sec
 * total energy  :   -13.6634320 Eh     change       -0.1020659E-03 Eh
   gradient norm :     0.0047532 Eh/α   predicted    -0.6690589E-04 ( -34.45%)
   displ. norm   :     0.2802995 α      lambda       -0.2792528E-03
   maximum displ.:     0.1828871 α      in ANC's #2, #1, #22, ...

........................................................................
.............................. CYCLE   17 ..............................
........................................................................

 iter      E             dE          RMSdq      gap      omega  full diag
   1    -13.8720814 -0.138721E+02  0.794E-02   14.11       0.0  T
   2    -13.8720827 -0.122944E-05  0.472E-02   14.11       1.0  T
   3    -13.8720828 -0.111689E-06  0.381E-03   14.11       7.0  T
   4    -13.8720828 -0.136509E-07  0.131E-03   14.11      20.3  T
   5    -13.8720828 -0.177374E-08  0.497E-04   14.11      53.7  T
   6    -13.8720828 -0.392546E-09  0.137E-04   14.11     194.5  T
     SCC iter.                  ...        0 min,  0.003 sec
     gradient                   ...        0 min,  0.002 sec
 * total energy  :   -13.6636077 Eh     change       -0.1757476E-03 Eh
   gradient norm :     0.0070820 Eh/α   predicted    -0.1505984E-03 ( -14.31%)
   displ. norm   :     0.1942444 α      lambda       -0.1433164E-03
   maximum displ.:     0.1390545 α      in ANC's #2, #1, #22, ...

........................................................................
.............................. CYCLE   18 ..............................
........................................................................

 iter      E             dE          RMSdq      gap      omega  full diag
   1    -13.8719571 -0.138720E+02  0.552E-02   14.14       0.0  T
   2    -13.8719574 -0.204992E-06  0.331E-02   14.14       1.0  T
   3    -13.8719574 -0.304329E-07  0.156E-03   14.14      17.1  T
   4    -13.8719574 -0.686047E-08  0.714E-04   14.14      37.5  T
   5    -13.8719574 -0.391363E-09  0.247E-04   14.14     108.0  T
     SCC iter.                  ...        0 min,  0.003 sec
     gradient                   ...        0 min,  0.002 sec
 * total energy  :   -13.6637163 Eh     change       -0.1085801E-03 Eh
   gradient norm :     0.0073050 Eh/α   predicted    -0.7436000E-04 ( -31.52%)
   displ. norm   :     0.2556455 α      lambda       -0.2507236E-03
   maximum displ.:     0.1720850 α      in ANC's #2, #1, #22, ...

........................................................................
.............................. CYCLE   19 ..............................
........................................................................

 iter      E             dE          RMSdq      gap      omega  full diag
   1    -13.8734274 -0.138734E+02  0.734E-02   14.17       0.0  T
   2    -13.8734277 -0.253579E-06  0.440E-02   14.17       1.0  T
   3    -13.8734277 -0.466658E-07  0.201E-03   14.17      13.3  T
   4    -13.8734277 -0.151994E-07  0.947E-04   14.17      28.2  T
   5    -13.8734277 -0.302919E-09  0.239E-04   14.17     111.9  T
     SCC iter.                  ...        0 min,  0.003 sec
     gradient                   ...        0 min,  0.002 sec
 * total energy  :   -13.6638897 Eh     change       -0.1733988E-03 Eh
   gradient norm :     0.0052512 Eh/α   predicted    -0.1335541E-03 ( -22.98%)
   displ. norm   :     0.2105882 α      lambda       -0.1725131E-03
   maximum displ.:     0.1483070 α      in ANC's #1, #2, #5, ...

........................................................................
.............................. CYCLE   20 ..............................
........................................................................

 iter      E             dE          RMSdq      gap      omega  full diag
   1    -13.8740625 -0.138741E+02  0.641E-02   14.18       0.0  T
   2    -13.8740628 -0.314606E-06  0.381E-02   14.18       1.0  T
   3    -13.8740629 -0.326595E-07  0.279E-03   14.18       9.6  T
   4    -13.8740629 -0.371248E-07  0.108E-03   14.18      24.8  T
   5    -13.8740629 -0.752131E-09  0.197E-04   14.18     135.4  T
   6    -13.8740629 -0.398437E-10  0.864E-05   14.18     309.5  T
     SCC iter.                  ...        0 min,  0.003 sec
     gradient                   ...        0 min,  0.002 sec
 * total energy  :   -13.6640001 Eh     change       -0.1103752E-03 Eh
   gradient norm :     0.0037537 Eh/α   predicted    -0.9008320E-04 ( -18.38%)
   displ. norm   :     0.2603906 α      lambda       -0.1356426E-03
   maximum displ.:     0.1580861 α      in ANC's #2, #1, #5, ...
 * RMSD in coord.:     0.9983691 α      energy gain  -0.9545914E-02 Eh

generating ANC from exact Hessian ...
Using Lindh-Hessian (1995)
 Shifting diagonal of input Hessian by    5.8653555546587391E-003
 Lowest  eigenvalues of input Hessian
    0.000000    0.000000    0.000000    0.000000    0.000000    0.000000
    0.010000    0.012754    0.013786    0.020792    0.023971    0.046294
    0.050996    0.058468    0.058820    0.060597    0.062725    0.066826
 Highest eigenvalues
    1.122603    1.148517    1.158873    1.209821    1.243687    1.275316


........................................................................
.............................. CYCLE   21 ..............................
........................................................................

 iter      E             dE          RMSdq      gap      omega  full diag
   1    -13.8731508 -0.138732E+02  0.755E-02   14.17       0.0  T
   2    -13.8731517 -0.898330E-06  0.449E-02   14.17       1.0  T
   3    -13.8731518 -0.553541E-07  0.460E-03   14.17       5.8  T
   4    -13.8731519 -0.805830E-07  0.142E-03   14.17      18.8  T
   5    -13.8731519 -0.702407E-09  0.424E-04   14.17      63.1  T
   6    -13.8731519 -0.113852E-09  0.823E-05   14.17     324.8  T
     SCC iter.                  ...        0 min,  0.003 sec
     gradient                   ...        0 min,  0.002 sec
 * total energy  :   -13.6640381 Eh     change       -0.3804660E-04 Eh
   gradient norm :     0.0067411 Eh/α   predicted     0.0000000E+00 (-100.00%)
   displ. norm   :     0.0339028 α      lambda       -0.1022273E-03
   maximum displ.:     0.0219320 α      in ANC's #1, #5, #3, ...

........................................................................
.............................. CYCLE   22 ..............................
........................................................................

 iter      E             dE          RMSdq      gap      omega  full diag
   1    -13.8746189 -0.138746E+02  0.293E-02   14.19       0.0  T
   2    -13.8746197 -0.874529E-06  0.160E-02   14.19       1.7  T
   3    -13.8746198 -0.431480E-07  0.514E-03   14.19       5.2  T
   4    -13.8746198 -0.230521E-07  0.101E-03   14.19      26.4  T
   5    -13.8746198 -0.337778E-09  0.480E-04   14.19      55.7  T
   6    -13.8746198 -0.915197E-10  0.514E-05   14.19     520.0  T
     SCC iter.                  ...        0 min,  0.003 sec
     gradient                   ...        0 min,  0.002 sec
 * total energy  :   -13.6641013 Eh     change       -0.6318811E-04 Eh
   gradient norm :     0.0016838 Eh/α   predicted    -0.5117176E-04 ( -19.02%)
   displ. norm   :     0.0565932 α      lambda       -0.1901387E-04
   maximum displ.:     0.0460135 α      in ANC's #1, #3, #2, ...

........................................................................
.............................. CYCLE   23 ..............................
........................................................................

 iter      E             dE          RMSdq      gap      omega  full diag
   1    -13.8752751 -0.138753E+02  0.200E-02   14.20       0.0  T
   2    -13.8752752 -0.163399E-06  0.114E-02   14.20       2.3  T
   3    -13.8752752 -0.703706E-08  0.211E-03   14.20      12.6  T
   4    -13.8752753 -0.499988E-08  0.441E-04   14.20      60.7  T
   5    -13.8752753 -0.617817E-10  0.204E-04   14.20     131.1  T
     SCC iter.                  ...        0 min,  0.003 sec
     gradient                   ...        0 min,  0.002 sec
 * total energy  :   -13.6641183 Eh     change       -0.1697002E-04 Eh
   gradient norm :     0.0015224 Eh/α   predicted    -0.9521980E-05 ( -43.89%)
   displ. norm   :     0.0531606 α      lambda       -0.1046562E-04
   maximum displ.:     0.0425893 α      in ANC's #1, #3, #2, ...

........................................................................
.............................. CYCLE   24 ..............................
........................................................................

 iter      E             dE          RMSdq      gap      omega  full diag
   1    -13.8750988 -0.138751E+02  0.159E-02   14.21       0.0  T
   2    -13.8750988 -0.109959E-07  0.952E-03   14.21       2.8  T
   3    -13.8750988 -0.282869E-08  0.405E-04   14.21      66.0  T
   4    -13.8750988 -0.226636E-09  0.210E-04   14.21     127.3  T
     SCC iter.                  ...        0 min,  0.002 sec
     gradient                   ...        0 min,  0.002 sec
 * total energy  :   -13.6641320 Eh     change       -0.1371160E-04 Eh
   gradient norm :     0.0013929 Eh/α   predicted    -0.5239061E-05 ( -61.79%)
   displ. norm   :     0.0786824 α      lambda       -0.1361703E-04
   maximum displ.:     0.0604075 α      in ANC's #1, #3, #2, ...

........................................................................
.............................. CYCLE   25 ..............................
........................................................................

 iter      E             dE          RMSdq      gap      omega  full diag
   1    -13.8748150 -0.138748E+02  0.221E-02   14.21       0.0  T
   2    -13.8748150 -0.347884E-07  0.132E-02   14.21       2.0  T
   3    -13.8748150 -0.502106E-08  0.697E-04   14.21      38.4  T
   4    -13.8748150 -0.131405E-08  0.312E-04   14.21      85.6  T
     SCC iter.                  ...        0 min,  0.002 sec
     gradient                   ...        0 min,  0.002 sec
 * total energy  :   -13.6641477 Eh     change       -0.1573917E-04 Eh
   gradient norm :     0.0005443 Eh/α   predicted    -0.6828404E-05 ( -56.62%)
   displ. norm   :     0.0688137 α      lambda       -0.7695074E-05
   maximum displ.:     0.0554163 α      in ANC's #1, #3, #2, ...

........................................................................
.............................. CYCLE   26 ..............................
........................................................................

 iter      E             dE          RMSdq      gap      omega  full diag
   1    -13.8747458 -0.138747E+02  0.203E-02   14.22       0.0  T
   2    -13.8747458 -0.126433E-07  0.122E-02   14.22       2.2  T
   3    -13.8747458 -0.325916E-08  0.458E-04   14.22      58.4  T
   4    -13.8747458 -0.497490E-09  0.237E-04   14.22     112.7  T
     SCC iter.                  ...        0 min,  0.002 sec
     gradient                   ...        0 min,  0.002 sec
 * total energy  :   -13.6641564 Eh     change       -0.8684844E-05 Eh
   gradient norm :     0.0006256 Eh/α   predicted    -0.3855698E-05 ( -55.60%)
   displ. norm   :     0.0452839 α      lambda       -0.4174158E-05
   maximum displ.:     0.0383223 α      in ANC's #1, #3, #2, ...

........................................................................
.............................. CYCLE   27 ..............................
........................................................................

 iter      E             dE          RMSdq      gap      omega  full diag
   1    -13.8748308 -0.138748E+02  0.125E-02   14.22       0.0  T
   2    -13.8748308 -0.470296E-08  0.749E-03   14.22       3.6  T
   3    -13.8748308 -0.118090E-08  0.300E-04   14.22      89.0  T
   4    -13.8748308 -0.291751E-09  0.152E-04   14.22     176.1  T
     SCC iter.                  ...        0 min,  0.002 sec
     gradient                   ...        0 min,  0.002 sec
 * total energy  :   -13.6641615 Eh     change       -0.5050818E-05 Eh
   gradient norm :     0.0004580 Eh/α   predicted    -0.2088386E-05 ( -58.65%)
   displ. norm   :     0.0360400 α      lambda       -0.3051563E-05
   maximum displ.:     0.0314200 α      in ANC's #1, #2, #4, ...

........................................................................
.............................. CYCLE   28 ..............................
........................................................................

 iter      E             dE          RMSdq      gap      omega  full diag
   1    -13.8749624 -0.138750E+02  0.996E-03   14.23       0.0  T
   2    -13.8749624 -0.427411E-08  0.595E-03   14.23       4.5  T
   3    -13.8749624 -0.735156E-09  0.248E-04   14.23     107.9  T
   4    -13.8749624 -0.193909E-09  0.116E-04   14.23     229.7  T
     SCC iter.                  ...        0 min,  0.002 sec
     gradient                   ...        0 min,  0.002 sec
 * total energy  :   -13.6641654 Eh     change       -0.3989034E-05 Eh
   gradient norm :     0.0002458 Eh/α   predicted    -0.1525650E-05 ( -61.75%)
   displ. norm   :     0.0379370 α      lambda       -0.2842876E-05
   maximum displ.:     0.0318363 α      in ANC's #1, #2, #4, ...

........................................................................
.............................. CYCLE   29 ..............................
........................................................................

 iter      E             dE          RMSdq      gap      omega  full diag
   1    -13.8749895 -0.138750E+02  0.105E-02   14.23       0.0  T
   2    -13.8749895 -0.195375E-08  0.628E-03   14.23       4.3  T
   3    -13.8749895 -0.832182E-09  0.189E-04   14.23     141.2  T
   4    -13.8749895 -0.450555E-10  0.104E-04   14.23     256.1  T
     SCC iter.                  ...        0 min,  0.002 sec
     gradient                   ...        0 min,  0.002 sec
 * total energy  :   -13.6641692 Eh     change       -0.3734853E-05 Eh
   gradient norm :     0.0001567 Eh/α   predicted    -0.1422320E-05 ( -61.92%)
   displ. norm   :     0.0400882 α      lambda       -0.2564144E-05
   maximum displ.:     0.0324943 α      in ANC's #1, #2, #3, ...

........................................................................
.............................. CYCLE   30 ..............................
........................................................................

 iter      E             dE          RMSdq      gap      omega  full diag
   1    -13.8750011 -0.138750E+02  0.108E-02   14.23       0.0  T
   2    -13.8750011 -0.215800E-08  0.649E-03   14.23       4.1  T
   3    -13.8750011 -0.946981E-09  0.192E-04   14.23     139.4  T
   4    -13.8750011 -0.213340E-10  0.102E-04   14.23     262.2  T
     SCC iter.                  ...        0 min,  0.002 sec
     gradient                   ...        0 min,  0.002 sec
 * total energy  :   -13.6641724 Eh     change       -0.3207903E-05 Eh
   gradient norm :     0.0002024 Eh/α   predicted    -0.1282645E-05 ( -60.02%)
   displ. norm   :     0.0335424 α      lambda       -0.1694213E-05
   maximum displ.:     0.0277107 α      in ANC's #1, #2, #3, ...

........................................................................
.............................. CYCLE   31 ..............................
........................................................................

 iter      E             dE          RMSdq      gap      omega  full diag
   1    -13.8749786 -0.138750E+02  0.968E-03   14.24       0.0  T
   2    -13.8749786 -0.186336E-08  0.580E-03   14.24       4.6  T
   3    -13.8749786 -0.774664E-09  0.178E-04   14.24     150.4  T
   4    -13.8749786 -0.976819E-11  0.840E-05   14.24     318.1  T
     SCC iter.                  ...        0 min,  0.002 sec
     gradient                   ...        0 min,  0.002 sec
 * total energy  :   -13.6641744 Eh     change       -0.2059699E-05 Eh
   gradient norm :     0.0001413 Eh/α   predicted    -0.8486948E-06 ( -58.80%)
   displ. norm   :     0.0225320 α      lambda       -0.9286586E-06
   maximum displ.:     0.0191447 α      in ANC's #1, #3, #2, ...

........................................................................
.............................. CYCLE   32 ..............................
........................................................................

 iter      E             dE          RMSdq      gap      omega  full diag
   1    -13.8749919 -0.138750E+02  0.611E-03   14.24       0.0  T
   2    -13.8749919 -0.809225E-09  0.366E-03   14.24       7.3  T
   3    -13.8749919 -0.347612E-09  0.129E-04   14.24     207.1  T
   4    -13.8749919 -0.675016E-11  0.451E-05   14.24     592.0  T
     SCC iter.                  ...        0 min,  0.002 sec
     gradient                   ...        0 min,  0.002 sec
 * total energy  :   -13.6641756 Eh     change       -0.1139598E-05 Eh
   gradient norm :     0.0001066 Eh/α   predicted    -0.4640405E-06 ( -59.28%)
   displ. norm   :     0.0149747 α      lambda       -0.5207704E-06
   maximum displ.:     0.0132524 α      in ANC's #1, #3, #5, ...

........................................................................
.............................. CYCLE   33 ..............................
........................................................................

 iter      E             dE          RMSdq      gap      omega  full diag
   1    -13.8750092 -0.138750E+02  0.453E-03   14.24       0.0  T
   2    -13.8750092 -0.594300E-09  0.271E-03   14.24       9.9  T
   3    -13.8750092 -0.183631E-09  0.108E-04   14.24     246.9  T
   4    -13.8750092 -0.218083E-10  0.550E-05   14.24     485.7  T
     SCC iter.                  ...        0 min,  0.002 sec
     gradient                   ...        0 min,  0.002 sec
 * total energy  :   -13.6641762 Eh     change       -0.6512658E-06 Eh
   gradient norm :     0.0000838 Eh/α   predicted    -0.2617327E-06 ( -59.81%)
   displ. norm   :     0.0098272 α      lambda       -0.2915931E-06
   maximum displ.:     0.0091339 α      in ANC's #1, #3, #4, ...

   *** GEOMETRY OPTIMIZATION CONVERGED AFTER 33 ITERATIONS ***

------------------------------------------------------------------------
 total energy gain   :        -0.0097221 Eh       -6.1007 kcal/mol
 total RMSD          :         1.0426956 a0        0.5518 Å
 total power (kW/mol):        -0.7734951 (step)  -96.3283 (real)
------------------------------------------------------------------------

 ANCopt (total)                0 d,  0 h,  0 min,  0.265 sec
 optimizer setup                ...        0 min,  0.000 sec (  0.041%)
 model hessian                  ...        0 min,  0.016 sec (  6.001%)
 ANC generation                 ...        0 min,  0.001 sec (  0.393%)
 coordinate transformation      ...        0 min,  0.000 sec (  0.102%)
 single point calculation       ...        0 min,  0.231 sec ( 87.265%)
 optimization log               ...        0 min,  0.004 sec (  1.658%)
 hessian update                 ...        0 min,  0.004 sec (  1.588%)
 rational function              ...        0 min,  0.006 sec (  2.127%)

================
 final structure:
================
14
 xtb: 6.7.1 (edcfbbe)
C           -0.98588036508328        1.00608537384659        0.21778694998083
H           -0.13607380128037        1.46020480870282        0.72042379209509
H           -1.17022197741073        1.54901941193863       -0.70697295047883
H           -0.72150116312746       -0.01867661310722       -0.03378926372539
C           -2.22496274212552        1.03016446028967        1.10521691833467
H           -2.01119800965838        0.50842467469257        2.04104549773002
H           -3.02904277416414        0.48790485056860        0.60148184439750
C           -2.71250719381338        2.44515328090686        1.41887698595974
H           -2.85767210428788        2.99043894591246        0.48331576204365
H           -3.68376804720713        2.37735799404940        1.91525942089080
C           -1.75655590232086        3.22349887499693        2.31541479172606
H           -2.17917572974778        4.19419261131195        2.56523830111883
H           -1.57607745057019        2.68025374828123        3.24074460259633
H           -0.80298063920242        3.38779454760933        1.82074716733078

 Bond Distances (Angstroems)
 ---------------------------
C1-H2=1.0868         C1-H3=1.0881         C1-H4=1.0878         C1-C5=1.5243         H2-C1=1.0868         H3-C1=1.0881         
H4-C1=1.0878         C5-C1=1.5243         C5-H6=1.0926         C5-H7=1.0929         C5-C8=1.5291         H6-C5=1.0926         
H7-C5=1.0929         C8-C5=1.5291         C8-H9=1.0926         C8-H10=1.0929        C8-C11=1.5243        H9-C8=1.0926         
H10-C8=1.0929        C11-C8=1.5243        C11-H12=1.0878       C11-H13=1.0881       C11-H14=1.0867       H12-C11=1.0878       
H13-C11=1.0881       H14-C11=1.0867       
 C  H  Rav=1.0896 sigma=0.0026  Rmin=1.0867  Rmax=1.0929    10
 C  C  Rav=1.5259 sigma=0.0023  Rmin=1.5243  Rmax=1.5291     3

 selected bond angles (degree)
 --------------------
H3-C1-H2=108.49                H4-C1-H2=108.09                H4-C1-H3=108.34                C5-C1-H2=111.09                
C5-C1-H3=110.44                C5-C1-H4=110.31                H6-C5-C1=109.40                H7-C5-C1=108.78                
H7-C5-H6=107.57                C8-C5-C1=113.15                C8-C5-H6=109.18                C8-C5-H7=108.61                
H9-C8-C5=109.18                H10-C8-C5=108.61               H10-C8-H9=107.57               C11-C8-C5=113.15               
C11-C8-H9=109.40               C11-C8-H10=108.78              

 selected dihedral angles (degree)
 ---------------------------------
H6-C5-C1-H2=302.21            H6-C5-C1-H3=181.79            H6-C5-C1-H4= 62.05            H7-C5-C1-H2=184.97            
H7-C5-C1-H3= 64.55            H7-C5-C1-H4=304.82            C8-C5-C1-H2= 64.18            C8-C5-C1-H3=303.76            
C8-C5-C1-H4=184.02            H9-C8-C5-C1= 53.89            H9-C8-C5-H6=175.97            H9-C8-C5-H7=292.99            
H10-C8-C5-C1=170.91           H10-C8-C5-H6=292.99           H10-C8-C5-H7= 50.01           C11-C8-C5-C1=291.80           
C11-C8-C5-H6= 53.88           C11-C8-C5-H7=170.91           
           -------------------------------------------------
          |                Final Singlepoint                |
           -------------------------------------------------

          ...................................................
          :                      SETUP                      :
          :.................................................:
          :  # basis functions                  26          :
          :  # atomic orbitals                  26          :
          :  # shells                           18          :
          :  # electrons                        26          :
          :  max. iterations                   250          :
          :  Hamiltonian                  GFN2-xTB          :
          :  restarted?                      false          :
          :  GBSA solvation                  false          :
          :  PC potential                    false          :
          :  electronic temp.          300.0000000     K    :
          :  accuracy                    1.0000000          :
          :  -> integral cutoff          0.2500000E+02      :
          :  -> integral neglect         0.1000000E-07      :
          :  -> SCF convergence          0.1000000E-05 Eh   :
          :  -> wf. convergence          0.1000000E-03 e    :
          :  Broyden damping             0.4000000          :
          :  net charge                          0          :
          :  unpaired electrons                  0          :
          ...................................................

 iter      E             dE          RMSdq      gap      omega  full diag
   1    -13.8750092 -0.138750E+02  0.817E-06   14.24       0.0  T
   2    -13.8750092  0.710543E-14  0.469E-06   14.24    5695.0  T
   3    -13.8750092 -0.266454E-13  0.108E-06   14.24   24783.4  T

   *** convergence criteria satisfied after 3 iterations ***

         #    Occupation            Energy/Eh            Energy/eV
      -------------------------------------------------------------
         1        2.0000           -0.6178052             -16.8113
       ...           ...                  ...                  ...
         7        2.0000           -0.4850564             -13.1991
         8        2.0000           -0.4661707             -12.6851
         9        2.0000           -0.4620359             -12.5726
        10        2.0000           -0.4481967             -12.1961
        11        2.0000           -0.4258279             -11.5874
        12        2.0000           -0.4236610             -11.5284
        13        2.0000           -0.4220051             -11.4833 (HOMO)
        14                          0.1014577               2.7608 (LUMO)
        15                          0.1114966               3.0340
        16                          0.1370892               3.7304
        17                          0.1487881               4.0487
        18                          0.1498145               4.0767
       ...                                ...                  ...
        26                          0.3008742               8.1872
      -------------------------------------------------------------
                  HL-Gap            0.5234628 Eh           14.2441 eV
             Fermi-level           -0.1602737 Eh           -4.3613 eV

 SCC (total)                   0 d,  0 h,  0 min,  0.007 sec
 SCC setup                      ...        0 min,  0.000 sec (  1.929%)
 Dispersion                     ...        0 min,  0.000 sec (  1.512%)
 classical contributions        ...        0 min,  0.000 sec (  0.645%)
 integral evaluation            ...        0 min,  0.001 sec (  9.883%)
 iterations                     ...        0 min,  0.002 sec ( 24.176%)
 molecular gradient             ...        0 min,  0.004 sec ( 57.082%)
 printout                       ...        0 min,  0.000 sec (  4.433%)

         :::::::::::::::::::::::::::::::::::::::::::::::::::::
         ::                     SUMMARY                     ::
         :::::::::::::::::::::::::::::::::::::::::::::::::::::
         :: total energy             -13.664176237139 Eh    ::
         :: gradient norm              0.000083811815 Eh/a0 ::
         :: HOMO-LUMO gap             14.244147837941 eV    ::
         ::.................................................::
         :: SCC energy               -13.875002115785 Eh    ::
         :: -> isotropic ES            0.002971624388 Eh    ::
         :: -> anisotropic ES          0.004972462293 Eh    ::
         :: -> anisotropic XC          0.008992359507 Eh    ::
         :: -> dispersion             -0.006299823259 Eh    ::
         :: repulsion energy           0.210825878646 Eh    ::
         :: add. restraining           0.000000000000 Eh    ::
         :: total charge               0.000000000000 e     ::
         :::::::::::::::::::::::::::::::::::::::::::::::::::::

           -------------------------------------------------
          |                Property Printout                |
           -------------------------------------------------

    * Orbital Energies and Occupations

         #    Occupation            Energy/Eh            Energy/eV
      -------------------------------------------------------------
         1        2.0000           -0.6178052             -16.8113
         2        2.0000           -0.5960936             -16.2205
         3        2.0000           -0.5730929             -15.5947
         4        2.0000           -0.5475899             -14.9007
         5        2.0000           -0.5065268             -13.7833
         6        2.0000           -0.5057939             -13.7634
         7        2.0000           -0.4850564             -13.1991
         8        2.0000           -0.4661707             -12.6851
         9        2.0000           -0.4620359             -12.5726
        10        2.0000           -0.4481967             -12.1961
        11        2.0000           -0.4258279             -11.5874
        12        2.0000           -0.4236610             -11.5284
        13        2.0000           -0.4220051             -11.4833 (HOMO)
        14                          0.1014577               2.7608 (LUMO)
        15                          0.1114966               3.0340
        16                          0.1370892               3.7304
        17                          0.1487881               4.0487
        18                          0.1498145               4.0767
        19                          0.1576293               4.2893
        20                          0.2026277               5.5138
        21                          0.2068600               5.6289
        22                          0.2345246               6.3817
        23                          0.2487794               6.7696
        24                          0.2784491               7.5770
       ...                                ...                  ...
        26                          0.3008742               8.1872
      -------------------------------------------------------------
                  HL-Gap            0.5234628 Eh           14.2441 eV
             Fermi-level           -0.1602737 Eh           -4.3613 eV

     #   Z          covCN         q      C6AA      α(0)
     1   6 C        3.751    -0.101    22.492     6.763
     2   1 H        0.925     0.035     2.512     2.479
     3   1 H        0.925     0.033     2.551     2.498
     4   1 H        0.925     0.030     2.585     2.514
     5   6 C        3.800    -0.053    21.519     6.605
     6   1 H        0.924     0.030     2.591     2.517
     7   1 H        0.924     0.026     2.643     2.543
     8   6 C        3.800    -0.053    21.519     6.605
     9   1 H        0.924     0.030     2.591     2.517
    10   1 H        0.924     0.026     2.643     2.543
    11   6 C        3.751    -0.101    22.492     6.763
    12   1 H        0.925     0.030     2.585     2.514
    13   1 H        0.925     0.032     2.551     2.498
    14   1 H        0.925     0.035     2.512     2.479

 Mol. C6AA /au·bohr⁶  :       1208.187985
 Mol. C8AA /au·bohr⁸  :      24487.114822
 Mol. α(0) /au        :         51.836621


Wiberg/Mayer (AO) data.
largest (>0.10) Wiberg bond orders for each atom

 ---------------------------------------------------------------------------
     #   Z sym  total        # sym  WBO       # sym  WBO       # sym  WBO
 ---------------------------------------------------------------------------
     1   6 C    3.997 --     5 C    1.020     3 H    0.988     4 H    0.988
                             2 H    0.986
     2   1 H    0.999 --     1 C    0.986
     3   1 H    0.999 --     1 C    0.988
     4   1 H    0.999 --     1 C    0.988
     5   6 C    3.998 --     1 C    1.020     8 C    1.008     7 H    0.979
                             6 H    0.978
     6   1 H    0.999 --     5 C    0.978
     7   1 H    0.999 --     5 C    0.979
     8   6 C    3.998 --    11 C    1.020     5 C    1.008    10 H    0.979
                             9 H    0.978
     9   1 H    0.999 --     8 C    0.978
    10   1 H    0.999 --     8 C    0.979
    11   6 C    3.997 --     8 C    1.020    13 H    0.988    12 H    0.988
                            14 H    0.986
    12   1 H    0.999 --    11 C    0.988
    13   1 H    0.999 --    11 C    0.988
    14   1 H    0.999 --    11 C    0.986
 ---------------------------------------------------------------------------

Topologies differ in total number of bonds
Writing topology from bond orders to xtbtopo.mol

molecular dipole:
                 x           y           z       tot (Debye)
 q only:        0.014       0.005       0.000
   full:        0.011       0.004       0.000       0.031
molecular quadrupole (traceless):
                xx          xy          yy          xz          yz          zz
 q only:       -0.045       0.092       0.064       0.046       0.035      -0.019
  q+dip:       -0.231       0.043      -0.060       0.212      -0.487       0.291
   full:       -0.146       0.048       0.008       0.119      -0.216       0.138

           -------------------------------------------------
          |                Geometry Summary                 |
           -------------------------------------------------

      molecular mass/u    :       58.1223511
   center of mass at/Å    :       -1.9020792       1.9323761       1.2643978
Note: The following floating-point exceptions are signalling: IEEE_UNDERFLOW_FLAG IEEE_DENORMAL
normal termination of xtb
  moments of inertia/u·Å² :        0.3751485E+02   0.1058433E+03   0.1229575E+03
rotational constants/cm⁻¹ :        0.4493589E+00   0.1592698E+00   0.1371013E+00

 * 13 selected distances

     #   Z          #   Z                                           value/Å
     1   6 C        2   1 H                                       1.0867565
     1   6 C        3   1 H                                       1.0880902
     1   6 C        4   1 H                                       1.0878071
     1   6 C        5   6 C                                       1.5242826
     5   6 C        6   1 H                                       1.0925581
     5   6 C        7   1 H                                       1.0928584
     5   6 C        8   6 C                                       1.5291423 (max)
     8   6 C        9   1 H                                       1.0925586
     8   6 C       10   1 H                                       1.0928584
     8   6 C       11   6 C                                       1.5242851
    11   6 C       12   1 H                                       1.0877802
    11   6 C       13   1 H                                       1.0880824
    11   6 C       14   1 H                                       1.0867360 (min)

 * 2 distinct bonds (by element types)

   Z      Z             #   av. dist./Å        max./Å        min./Å
   1 H    6 C          10     1.0896086     1.0928584     1.0867360
   6 C    6 C           3     1.5259033     1.5291423     1.5242826


optimized geometry written to: xtbopt.xyz


           -------------------------------------------------
          | TOTAL ENERGY              -13.664176237139 Eh   |
          | GRADIENT NORM               0.000083811815 Eh/α |
          | HOMO-LUMO GAP              14.244147837941 eV   |
           -------------------------------------------------

------------------------------------------------------------------------
 * finished run on 2026/08/17 at 12:14:19.625     
------------------------------------------------------------------------
 total:
 * wall-time:     0 d,  0 h,  0 min,  0.300 sec
 *  cpu-time:     0 d,  0 h,  0 min,  1.179 sec
 * ratio c/w:     3.930 speedup
 SCF:
 * wall-time:     0 d,  0 h,  0 min,  0.012 sec
 *  cpu-time:     0 d,  0 h,  0 min,  0.048 sec
 * ratio c/w:     3.903 speedup
 ANC optimizer:
 * wall-time:     0 d,  0 h,  0 min,  0.273 sec
 *  cpu-time:     0 d,  0 h,  0 min,  1.076 sec
 * ratio c/w:     3.940 speedup

