14
 energy: -13.664176237139 gnorm: 0.000083811815 xtb: 6.7.1 (edcfbbe)
C           -0.98588036508328        1.00608537384659        0.21778694998083
H           -0.13607380128037        1.46020480870282        0.72042379209509
H           -1.17022197741073        1.54901941193863       -0.70697295047883
H           -0.72150116312746       -0.01867661310722       -0.03378926372539
C           -2.22496274212552        1.03016446028967        1.10521691833467
H           -2.01119800965838        0.50842467469257        2.04104549773002
H           -3.02904277416414        0.48790485056860        0.60148184439750
C           -2.71250719381338        2.44515328090686        1.41887698595974
H           -2.85767210428788        2.99043894591246        0.48331576204365
H           -3.68376804720713        2.37735799404940        1.91525942089080
C           -1.75655590232086        3.22349887499693        2.31541479172606
H           -2.17917572974778        4.19419261131195        2.56523830111883
H           -1.57607745057019        2.68025374828123        3.24074460259633
H           -0.80298063920242        3.38779454760933        1.82074716733078
