      -----------------------------------------------------------      
     |                   =====================                   |     
     |                           x T B                           |     
     |                   =====================                   |     
     |                         S. Grimme                         |     
     |          Mulliken Center for Theoretical Chemistry        |     
     |                    University of Bonn                     |     
      -----------------------------------------------------------      

   * xtb version 6.7.1 (edcfbbe) compiled by 'conda@5dfe00f5fb80' on 2026-06-10

   xtb is free software: you can redistribute it and/or modify it under
   the terms of the GNU Lesser General Public License as published by
   the Free Software Foundation, either version 3 of the License, or
   (at your option) any later version.
   
   xtb is distributed in the hope that it will be useful,
   but WITHOUT ANY WARRANTY; without even the implied warranty of
   MERCHANTABILITY or FITNESS FOR A PARTICULAR PURPOSE.  See the
   GNU Lesser General Public License for more details.
   
   Cite this work as:
   * C. Bannwarth, E. Caldeweyher, S. Ehlert, A. Hansen, P. Pracht,
     J. Seibert, S. Spicher, S. Grimme, WIREs Comput. Mol. Sci., 2020, 11,
     e01493. DOI: 10.1002/wcms.1493
   
   for GFN2-xTB:
   * C. Bannwarth, S. Ehlert and S. Grimme., J. Chem. Theory Comput., 2019,
     15, 1652-1671. DOI: 10.1021/acs.jctc.8b01176
   for GFN1-xTB:
   * S. Grimme, C. Bannwarth, P. Shushkov, J. Chem. Theory Comput., 2017,
     13, 1989-2009. DOI: 10.1021/acs.jctc.7b00118
   for GFN0-xTB:
   * P. Pracht, E. Caldeweyher, S. Ehlert, S. Grimme, ChemRxiv, 2019, preprint.
     DOI: 10.26434/chemrxiv.8326202.v1
   for GFN-FF:
   * S. Spicher and S. Grimme, Angew. Chem. Int. Ed., 2020, 59, 15665-15673.
     DOI: 10.1002/anie.202004239
   
   for ALPB and GBSA implicit solvation:
   * S. Ehlert, M. Stahn, S. Spicher, S. Grimme, J. Chem. Theory Comput.,
     2021, 17, 4250-4261. DOI: 10.1021/acs.jctc.1c00471
   
   for ddCOSMO and CPCM-X implicit solvation:
   * M. Stahn, S. Ehlert, S. Grimme, J. Phys. Chem. A,
     2023, XX, XXXX-XXXX. DOI: 10.1021/acs.jpca.3c04382
   
   for DFT-D4:
   * E. Caldeweyher, C. Bannwarth and S. Grimme, J. Chem. Phys., 2017,
     147, 034112. DOI: 10.1063/1.4993215
   * E. Caldeweyher, S. Ehlert, A. Hansen, H. Neugebauer, S. Spicher,
     C. Bannwarth and S. Grimme, J. Chem. Phys., 2019, 150, 154122.
     DOI: 10.1063/1.5090222
   * E. Caldeweyher, J.-M. Mewes, S. Ehlert and S. Grimme, Phys. Chem. Chem. Phys.
     2020, 22, 8499-8512. DOI: 10.1039/D0CP00502A
   
   for sTDA-xTB:
   * S. Grimme and C. Bannwarth, J. Chem. Phys., 2016, 145, 054103.
     DOI: 10.1063/1.4959605
   
   in the mass-spec context:
   * V. Asgeirsson, C. Bauer and S. Grimme, Chem. Sci., 2017, 8, 4879.
     DOI: 10.1039/c7sc00601b
   * J. Koopman and S. Grimme, ACS Omega 2019, 4, 12, 15120-15133.
     DOI: 10.1021/acsomega.9b02011
   
   for metadynamics refer to:
   * S. Grimme, J. Chem. Theory Comput., 2019, 155, 2847-2862
     DOI: 10.1021/acs.jctc.9b00143
   
   for SPH calculations refer to:
   * S. Spicher and S. Grimme, J. Chem. Theory Comput., 2021, 17, 1701-1714
     DOI: 10.1021/acs.jctc.0c01306
   
   for ONIOM refer to:
   * C. Plett, A. Katbashev, S. Ehlert, S. Grimme, M. Bursch,
     Phys. Chem. Chem. Phys., 2023, 25, 17860-17868. DOI: 10.1039/D3CP02178E
   
   for DIPRO refer to:
   * J. Kohn, N. Gildemeister, S. Grimme, D. Fazzi, A. Hansen,
     J. Chem. Phys., 2023, just accepted.
   
   for PTB refer to:
   * S. Grimme, M. Mueller, A. Hansen, J. Chem. Phys., 2023, 158, 124111.
     DOI: 10.1063/5.0137838
   
   with help from (in alphabetical order)
   P. Atkinson, C. Bannwarth, F. Bohle, G. Brandenburg, E. Caldeweyher
   M. Checinski, S. Dohm, S. Ehlert, S. Ehrlich, I. Gerasimov, C. Hölzer
   A. Katbashev, J. Kohn, J. Koopman, C. Lavigne, S. Lehtola, F. März, M. Müller,
   F. Musil, H. Neugebauer, J. Pisarek, C. Plett, P. Pracht, F. Pultar,
   J. Seibert, P. Shushkov, S. Spicher, M. Stahn, M. Steiner, T. Strunk,
   J. Stückrath, T. Rose, and J. Unsleber
   
 * started run on 2026/08/11 at 11:11:55.789     
   ID    Z sym.   atoms
    1    6 C      1, 5, 8, 11
    2    1 H      2-4, 6, 7, 9, 10, 12-14

           -------------------------------------------------
          |                Calculation Setup                |
           -------------------------------------------------

          program call               : xtb input.xyz --gfn2 --opt tight --chrg 0 --uhf 0 --iterations 250
          coordinate file            : input.xyz
          omp threads                :                     4


           -------------------------------------------------
          |                 G F N 2 - x T B                 |
           -------------------------------------------------

        Reference                      10.1021/acs.jctc.8b01176
      * Hamiltonian:
        H0-scaling (s, p, d)           1.850000    2.230000    2.230000
        zeta-weighting                 0.500000
      * Dispersion:
        s8                             2.700000
        a1                             0.520000
        a2                             5.000000
        s9                             5.000000
      * Repulsion:
        kExp                           1.500000    1.000000
        rExp                           1.000000
      * Coulomb:
        alpha                          2.000000
        third order                    shell-resolved
        anisotropic                    true
        a3                             3.000000
        a5                             4.000000
        cn-shift                       1.200000
        cn-exp                         4.000000
        max-rad                        5.000000


          ...................................................
          :                      SETUP                      :
          :.................................................:
          :  # basis functions                  26          :
          :  # atomic orbitals                  26          :
          :  # shells                           18          :
          :  # electrons                        26          :
          :  max. iterations                   250          :
          :  Hamiltonian                  GFN2-xTB          :
          :  restarted?                      false          :
          :  GBSA solvation                  false          :
          :  PC potential                    false          :
          :  electronic temp.          300.0000000     K    :
          :  accuracy                    1.0000000          :
          :  -> integral cutoff          0.2500000E+02      :
          :  -> integral neglect         0.1000000E-07      :
          :  -> SCF convergence          0.1000000E-05 Eh   :
          :  -> wf. convergence          0.1000000E-03 e    :
          :  Broyden damping             0.4000000          :
          :  net charge                          0          :
          :  unpaired electrons                  0          :
          ...................................................

 iter      E             dE          RMSdq      gap      omega  full diag
   1    -13.8251545 -0.138252E+02  0.251E+00   13.64       0.0  T
   2    -13.8640148 -0.388604E-01  0.128E+00   13.26       1.0  T
   3    -13.8644492 -0.434407E-03  0.686E-01   13.24       1.0  T
   4    -13.8645639 -0.114636E-03  0.917E-02   13.25       1.0  T
   5    -13.8645701 -0.620689E-05  0.506E-02   13.25       1.0  T
   6    -13.8645704 -0.362483E-06  0.176E-03   13.25      15.2  T
   7    -13.8645704 -0.440993E-08  0.727E-04   13.25      36.8  T
   8    -13.8645704 -0.517417E-09  0.146E-04   13.25     183.2  T

   *** convergence criteria satisfied after 8 iterations ***

         #    Occupation            Energy/Eh            Energy/eV
      -------------------------------------------------------------
         1        2.0000           -0.6168283             -16.7848
       ...           ...                  ...                  ...
         7        2.0000           -0.4901600             -13.3379
         8        2.0000           -0.4785628             -13.0224
         9        2.0000           -0.4523602             -12.3093
        10        2.0000           -0.4454135             -12.1203
        11        2.0000           -0.4336134             -11.7992
        12        2.0000           -0.4266362             -11.6094
        13        2.0000           -0.4141440             -11.2694 (HOMO)
        14                          0.0728627               1.9827 (LUMO)
        15                          0.1130765               3.0770
        16                          0.1175884               3.1997
        17                          0.1495374               4.0691
        18                          0.1551663               4.2223
       ...                                ...                  ...
        26                          0.3254571               8.8561
      -------------------------------------------------------------
                  HL-Gap            0.4870067 Eh           13.2521 eV
             Fermi-level           -0.1706407 Eh           -4.6434 eV

 SCC (total)                   0 d,  0 h,  0 min,  0.095 sec
 SCC setup                      ...        0 min,  0.000 sec (  0.260%)
 Dispersion                     ...        0 min,  0.005 sec (  5.563%)
 classical contributions        ...        0 min,  0.003 sec (  2.698%)
 integral evaluation            ...        0 min,  0.007 sec (  6.981%)
 iterations                     ...        0 min,  0.078 sec ( 82.188%)
 molecular gradient             ...        0 min,  0.002 sec (  2.095%)
 printout                       ...        0 min,  0.000 sec (  0.185%)

         :::::::::::::::::::::::::::::::::::::::::::::::::::::
         ::                     SUMMARY                     ::
         :::::::::::::::::::::::::::::::::::::::::::::::::::::
         :: total energy             -13.658512045272 Eh    ::
         :: gradient norm              0.014555468206 Eh/a0 ::
         :: HOMO-LUMO gap             13.252126332690 eV    ::
         ::.................................................::
         :: SCC energy               -13.864566200064 Eh    ::
         :: -> isotropic ES            0.002962645701 Eh    ::
         :: -> anisotropic ES          0.005175972011 Eh    ::
         :: -> anisotropic XC          0.009145431763 Eh    ::
         :: -> dispersion             -0.006019251376 Eh    ::
         :: repulsion energy           0.206054154792 Eh    ::
         :: add. restraining           0.000000000000 Eh    ::
         :: total charge              -0.000000000000 e     ::
         :::::::::::::::::::::::::::::::::::::::::::::::::::::

      ----------------------------------------------------------- 
     |                   =====================                   |
     |                        A N C O P T                        |
     |                   =====================                   |
     |               Approximate Normal Coordinate               |
     |                Rational Function Optimizer                |
      ----------------------------------------------------------- 
      ----------------------------------------------------------- 
     |                   =====================                   |
     |                        A N C O P T                        |
     |                   =====================                   |
     |               Approximate Normal Coordinate               |
     |                Rational Function Optimizer                |
      ----------------------------------------------------------- 

          ...................................................
          :                      SETUP                      :
          :.................................................:
          :   optimization level             tight          :
          :   max. optcycles                   200          :
          :   ANC micro-cycles                  20          :
          :   degrees of freedom                36          :
          :.................................................:
          :   RF solver                   davidson          :
          :   write xtbopt.log                true          :
          :   linear?                        false          :
          :   energy convergence         0.1000000E-05 Eh   :
          :   grad. convergence          0.8000000E-03 Eh/α :
          :   maxmium RF displ.          1.0000000          :
          :   Hlow (freq-cutoff)         0.1000000E-01      :
          :   Hmax (freq-cutoff)         5.0000000          :
          :   S6 in model hess.         20.0000000          :
          ...................................................

generating ANC from exact Hessian ...
Using Lindh-Hessian (1995)
 Shifting diagonal of input Hessian by    5.9010667483788302E-003
 Lowest  eigenvalues of input Hessian
    0.000000    0.000000    0.000000    0.000000    0.000000    0.000000
    0.010000    0.013201    0.013551    0.018182    0.022026    0.045149
    0.046928    0.057116    0.059061    0.060000    0.061502    0.069432
 Highest eigenvalues
    1.107743    1.130516    1.167159    1.199685    1.212063    1.288062


........................................................................
.............................. CYCLE    1 ..............................
........................................................................

 iter      E             dE          RMSdq      gap      omega  full diag
   1    -13.8645704 -0.138646E+02  0.665E-05   13.25       0.0  T
   2    -13.8645704 -0.323830E-11  0.370E-05   13.25     722.8  T
   3    -13.8645704 -0.362377E-12  0.877E-06   13.25    3046.7  T
     SCC iter.                  ...        0 min,  0.002 sec
     gradient                   ...        0 min,  0.002 sec
 * total energy  :   -13.6585120 Eh     change       -0.3601741E-10 Eh
   gradient norm :     0.0145551 Eh/α   predicted     0.0000000E+00 (-100.00%)
   displ. norm   :     0.2012070 α      lambda       -0.1047759E-02
   maximum displ.:     0.1340811 α      in ANC's #4, #1, #5, ...

........................................................................
.............................. CYCLE    2 ..............................
........................................................................

 iter      E             dE          RMSdq      gap      omega  full diag
   1    -13.8677464 -0.138677E+02  0.836E-02   13.38       0.0  T
   2    -13.8677477 -0.133536E-05  0.491E-02   13.38       1.0  T
   3    -13.8677478 -0.887610E-07  0.370E-03   13.38       7.2  T
   4    -13.8677478 -0.200849E-07  0.102E-03   13.38      26.3  T
   5    -13.8677478 -0.853916E-09  0.492E-04   13.38      54.3  T
   6    -13.8677478 -0.126709E-09  0.920E-05   13.38     290.5  T
     SCC iter.                  ...        0 min,  0.003 sec
     gradient                   ...        0 min,  0.002 sec
 * total energy  :   -13.6593667 Eh     change       -0.8546466E-03 Eh
   gradient norm :     0.0062748 Eh/α   predicted    -0.5450889E-03 ( -36.22%)
   displ. norm   :     0.4917547 α      lambda       -0.1636671E-02
   maximum displ.:     0.3670128 α      in ANC's #4, #1, #2, ...

........................................................................
.............................. CYCLE    3 ..............................
........................................................................

 iter      E             dE          RMSdq      gap      omega  full diag
   1    -13.8689470 -0.138689E+02  0.157E-01   13.45       0.0  T
   2    -13.8689482 -0.117790E-05  0.936E-02   13.45       1.0  T
   3    -13.8689485 -0.262185E-06  0.423E-03   13.45       6.3  T
   4    -13.8689485 -0.574759E-07  0.207E-03   13.45      12.9  T
   5    -13.8689485 -0.273933E-08  0.600E-04   13.45      44.5  T
   6    -13.8689485 -0.351207E-09  0.175E-04   13.45     152.7  T
     SCC iter.                  ...        0 min,  0.003 sec
     gradient                   ...        0 min,  0.002 sec
 * total energy  :   -13.6606270 Eh     change       -0.1260324E-02 Eh
   gradient norm :     0.0084332 Eh/α   predicted    -0.1016212E-02 ( -19.37%)
   displ. norm   :     0.5197553 α      lambda       -0.1241405E-02
   maximum displ.:     0.4034237 α      in ANC's #4, #1, #2, ...

........................................................................
.............................. CYCLE    4 ..............................
........................................................................

 iter      E             dE          RMSdq      gap      omega  full diag
   1    -13.8660310 -0.138660E+02  0.160E-01   13.48       0.0  T
   2    -13.8660335 -0.252384E-05  0.951E-02   13.48       1.0  T
   3    -13.8660338 -0.316058E-06  0.520E-03   13.48       5.1  T
   4    -13.8660339 -0.472035E-07  0.240E-03   13.48      11.1  T
   5    -13.8660339 -0.210181E-08  0.102E-03   13.48      26.1  T
   6    -13.8660339 -0.903357E-09  0.146E-04   13.48     183.2  T
   7    -13.8660339 -0.171401E-10  0.525E-05   13.48     508.8  T
     SCC iter.                  ...        0 min,  0.003 sec
     gradient                   ...        0 min,  0.002 sec
 * total energy  :   -13.6615439 Eh     change       -0.9168916E-03 Eh
   gradient norm :     0.0146255 Eh/α   predicted    -0.7883870E-03 ( -14.02%)
   displ. norm   :     0.4201782 α      lambda       -0.1131164E-02
   maximum displ.:     0.3244283 α      in ANC's #4, #1, #24, ...

........................................................................
.............................. CYCLE    5 ..............................
........................................................................

 iter      E             dE          RMSdq      gap      omega  full diag
   1    -13.8661112 -0.138661E+02  0.136E-01   13.51       0.0  T
   2    -13.8661138 -0.254142E-05  0.805E-02   13.51       1.0  T
   3    -13.8661140 -0.201041E-06  0.563E-03   13.51       4.7  T
   4    -13.8661140 -0.601807E-07  0.198E-03   13.51      13.5  T
   5    -13.8661140 -0.103298E-08  0.697E-04   13.51      38.3  T
   6    -13.8661140 -0.398005E-09  0.134E-04   13.51     199.8  T
     SCC iter.                  ...        0 min,  0.003 sec
     gradient                   ...        0 min,  0.002 sec
 * total energy  :   -13.6623816 Eh     change       -0.8376466E-03 Eh
   gradient norm :     0.0145015 Eh/α   predicted    -0.6654390E-03 ( -20.56%)
   displ. norm   :     0.2866178 α      lambda       -0.1193659E-02
   maximum displ.:     0.2103205 α      in ANC's #4, #1, #24, ...

........................................................................
.............................. CYCLE    6 ..............................
........................................................................

 iter      E             dE          RMSdq      gap      omega  full diag
   1    -13.8732658 -0.138733E+02  0.124E-01   13.61       0.0  T
   2    -13.8732689 -0.310899E-05  0.729E-02   13.61       1.0  T
   3    -13.8732692 -0.326446E-06  0.812E-03   13.61       3.3  T
   4    -13.8732694 -0.215371E-06  0.312E-03   13.61       8.6  T
   5    -13.8732694 -0.426854E-08  0.121E-03   13.61      22.1  T
   6    -13.8732694 -0.609539E-09  0.199E-04   13.61     134.4  T
   7    -13.8732694 -0.322640E-10  0.609E-05   13.61     439.0  T
     SCC iter.                  ...        0 min,  0.003 sec
     gradient                   ...        0 min,  0.002 sec
 * total energy  :   -13.6630578 Eh     change       -0.6762775E-03 Eh
   gradient norm :     0.0094450 Eh/α   predicted    -0.6458574E-03 (  -4.50%)
   displ. norm   :     0.4099115 α      lambda       -0.6310100E-03
   maximum displ.:     0.3264154 α      in ANC's #4, #1, #3, ...

........................................................................
.............................. CYCLE    7 ..............................
........................................................................

 iter      E             dE          RMSdq      gap      omega  full diag
   1    -13.8680069 -0.138680E+02  0.129E-01   13.67       0.0  T
   2    -13.8680142 -0.737089E-05  0.757E-02   13.66       1.0  T
   3    -13.8680145 -0.286315E-06  0.110E-02   13.66       2.4  T
   4    -13.8680146 -0.661971E-07  0.240E-03   13.66      11.1  T
   5    -13.8680146 -0.297076E-08  0.119E-03   13.66      22.4  T
   6    -13.8680146 -0.744080E-09  0.169E-04   13.66     158.0  T
   7    -13.8680146 -0.469829E-10  0.750E-05   13.66     356.4  T
     SCC iter.                  ...        0 min,  0.003 sec
     gradient                   ...        0 min,  0.012 sec
 * total energy  :   -13.6633376 Eh     change       -0.2797815E-03 Eh
   gradient norm :     0.0170833 Eh/α   predicted    -0.3685239E-03 (  31.72%)
   displ. norm   :     0.0607217 α      lambda       -0.4928688E-03
   maximum displ.:     0.0358010 α      in ANC's #4, #24, #9, ...

........................................................................
.............................. CYCLE    8 ..............................
........................................................................

 iter      E             dE          RMSdq      gap      omega  full diag
   1    -13.8721703 -0.138722E+02  0.532E-02   13.72       0.0  T
   2    -13.8721738 -0.350531E-05  0.289E-02   13.72       1.0  T
   3    -13.8721740 -0.165177E-06  0.939E-03   13.72       2.8  T
   4    -13.8721740 -0.438945E-07  0.191E-03   13.72      14.0  T
   5    -13.8721740 -0.715943E-09  0.925E-04   13.72      28.9  T
   6    -13.8721740 -0.286429E-09  0.780E-05   13.72     342.8  T
     SCC iter.                  ...        0 min,  0.031 sec
     gradient                   ...        0 min,  0.002 sec
 * total energy  :   -13.6636572 Eh     change       -0.3195664E-03 Eh
   gradient norm :     0.0089393 Eh/α   predicted    -0.2473418E-03 ( -22.60%)
   displ. norm   :     0.2081687 α      lambda       -0.3994245E-03
   maximum displ.:     0.1368007 α      in ANC's #4, #3, #1, ...

........................................................................
.............................. CYCLE    9 ..............................
........................................................................

 iter      E             dE          RMSdq      gap      omega  full diag
   1    -13.8754873 -0.138755E+02  0.684E-02   13.78       0.0  T
   2    -13.8754893 -0.206455E-05  0.399E-02   13.79       1.0  T
   3    -13.8754894 -0.112282E-06  0.621E-03   13.79       4.3  T
   4    -13.8754895 -0.171361E-07  0.142E-03   13.79      18.8  T
   5    -13.8754895 -0.283427E-09  0.539E-04   13.79      49.6  T
   6    -13.8754895 -0.568150E-10  0.515E-05   13.79     519.0  T
     SCC iter.                  ...        0 min,  0.003 sec
     gradient                   ...        0 min,  0.002 sec
 * total energy  :   -13.6639142 Eh     change       -0.2569748E-03 Eh
   gradient norm :     0.0099240 Eh/α   predicted    -0.2083655E-03 ( -18.92%)
   displ. norm   :     0.3640644 α      lambda       -0.4892230E-03
   maximum displ.:     0.2951418 α      in ANC's #4, #1, #3, ...

........................................................................
.............................. CYCLE   10 ..............................
........................................................................

 iter      E             dE          RMSdq      gap      omega  full diag
   1    -13.8727737 -0.138728E+02  0.113E-01   13.74       0.0  T
   2    -13.8727755 -0.180341E-05  0.675E-02   13.74       1.0  T
   3    -13.8727756 -0.130515E-06  0.603E-03   13.74       4.4  T
   4    -13.8727758 -0.144219E-06  0.211E-03   13.74      12.7  T
   5    -13.8727758 -0.167615E-08  0.813E-04   13.74      32.9  T
   6    -13.8727758 -0.323395E-09  0.127E-04   13.74     210.9  T
     SCC iter.                  ...        0 min,  0.003 sec
     gradient                   ...        0 min,  0.002 sec
 * total energy  :   -13.6641427 Eh     change       -0.2285735E-03 Eh
   gradient norm :     0.0075282 Eh/α   predicted    -0.2770314E-03 (  21.20%)
   displ. norm   :     0.0922171 α      lambda       -0.2857941E-03
   maximum displ.:     0.0657322 α      in ANC's #3, #2, #1, ...

........................................................................
.............................. CYCLE   11 ..............................
........................................................................

 iter      E             dE          RMSdq      gap      omega  full diag
   1    -13.8765175 -0.138765E+02  0.436E-02   13.76       0.0  T
   2    -13.8765198 -0.227226E-05  0.244E-02   13.76       1.1  T
   3    -13.8765198 -0.603906E-07  0.714E-03   13.76       3.7  T
   4    -13.8765199 -0.161373E-07  0.113E-03   13.76      23.6  T
   5    -13.8765199 -0.836680E-09  0.619E-04   13.76      43.2  T
   6    -13.8765199 -0.959410E-10  0.573E-05   13.76     466.3  T
     SCC iter.                  ...        0 min,  0.003 sec
     gradient                   ...        0 min,  0.002 sec
 * total energy  :   -13.6643278 Eh     change       -0.1850943E-03 Eh
   gradient norm :     0.0054730 Eh/α   predicted    -0.1441127E-03 ( -22.14%)
   displ. norm   :     0.2357298 α      lambda       -0.2944294E-03
   maximum displ.:     0.1820675 α      in ANC's #3, #4, #24, ...

........................................................................
.............................. CYCLE   12 ..............................
........................................................................

 iter      E             dE          RMSdq      gap      omega  full diag
   1    -13.8766899 -0.138767E+02  0.782E-02   13.75       0.0  T
   2    -13.8766912 -0.132767E-05  0.462E-02   13.75       1.0  T
   3    -13.8766913 -0.698633E-07  0.587E-03   13.75       4.5  T
   4    -13.8766914 -0.999628E-07  0.164E-03   13.75      16.3  T
   5    -13.8766914 -0.136458E-08  0.634E-04   13.75      42.2  T
   6    -13.8766914 -0.398002E-09  0.118E-04   13.75     226.0  T
     SCC iter.                  ...        0 min,  0.003 sec
     gradient                   ...        0 min,  0.002 sec
 * total energy  :   -13.6644904 Eh     change       -0.1625885E-03 Eh
   gradient norm :     0.0101130 Eh/α   predicted    -0.1553971E-03 (  -4.42%)
   displ. norm   :     0.1799191 α      lambda       -0.3115081E-03
   maximum displ.:     0.1383326 α      in ANC's #3, #1, #25, ...

........................................................................
.............................. CYCLE   13 ..............................
........................................................................

 iter      E             dE          RMSdq      gap      omega  full diag
   1    -13.8781277 -0.138781E+02  0.615E-02   13.72       0.0  T
   2    -13.8781287 -0.990304E-06  0.361E-02   13.72       1.0  T
   3    -13.8781288 -0.695611E-07  0.445E-03   13.72       6.0  T
   4    -13.8781288 -0.332284E-07  0.128E-03   13.72      20.9  T
   5    -13.8781288 -0.767132E-09  0.544E-04   13.72      49.2  T
   6    -13.8781288 -0.282604E-09  0.956E-05   13.72     279.6  T
     SCC iter.                  ...        0 min,  0.003 sec
     gradient                   ...        0 min,  0.002 sec
 * total energy  :   -13.6647041 Eh     change       -0.2137109E-03 Eh
   gradient norm :     0.0090534 Eh/α   predicted    -0.1607967E-03 ( -24.76%)
   displ. norm   :     0.2750619 α      lambda       -0.3292225E-03
   maximum displ.:     0.2281201 α      in ANC's #3, #25, #23, ...

........................................................................
.............................. CYCLE   14 ..............................
........................................................................

 iter      E             dE          RMSdq      gap      omega  full diag
   1    -13.8751106 -0.138751E+02  0.833E-02   13.74       0.0  T
   2    -13.8751124 -0.181165E-05  0.493E-02   13.74       1.0  T
   3    -13.8751125 -0.106532E-06  0.524E-03   13.74       5.1  T
   4    -13.8751125 -0.388940E-07  0.152E-03   13.74      17.6  T
   5    -13.8751125 -0.208948E-08  0.793E-04   13.74      33.7  T
   6    -13.8751125 -0.287816E-09  0.961E-05   13.74     278.2  T
     SCC iter.                  ...        0 min,  0.003 sec
     gradient                   ...        0 min,  0.002 sec
 * total energy  :   -13.6648812 Eh     change       -0.1770380E-03 Eh
   gradient norm :     0.0074850 Eh/α   predicted    -0.1770673E-03 (   0.02%)
   displ. norm   :     0.1166970 α      lambda       -0.1631546E-03
   maximum displ.:     0.0964393 α      in ANC's #4, #3, #24, ...

........................................................................
.............................. CYCLE   15 ..............................
........................................................................

 iter      E             dE          RMSdq      gap      omega  full diag
   1    -13.8753568 -0.138754E+02  0.515E-02   13.77       0.0  T
   2    -13.8753578 -0.909022E-06  0.299E-02   13.77       1.0  T
   3    -13.8753578 -0.633815E-07  0.455E-03   13.76       5.9  T
   4    -13.8753578 -0.284336E-07  0.123E-03   13.77      21.6  T
   5    -13.8753578 -0.689925E-09  0.424E-04   13.77      63.0  T
   6    -13.8753578 -0.294232E-09  0.984E-05   13.77     271.5  T
     SCC iter.                  ...        0 min,  0.003 sec
     gradient                   ...        0 min,  0.002 sec
 * total energy  :   -13.6649568 Eh     change       -0.7559224E-04 Eh
   gradient norm :     0.0061169 Eh/α   predicted    -0.8268895E-04 (   9.39%)
   displ. norm   :     0.0689144 α      lambda       -0.1125898E-03
   maximum displ.:     0.0438835 α      in ANC's #3, #1, #6, ...

........................................................................
.............................. CYCLE   16 ..............................
........................................................................

 iter      E             dE          RMSdq      gap      omega  full diag
   1    -13.8749869 -0.138750E+02  0.320E-02   13.78       0.0  T
   2    -13.8749874 -0.550424E-06  0.185E-02   13.78       1.4  T
   3    -13.8749874 -0.321296E-07  0.339E-03   13.78       7.9  T
   4    -13.8749874 -0.877278E-08  0.811E-04   13.78      32.9  T
   5    -13.8749874 -0.111690E-09  0.263E-04   13.78     101.5  T
     SCC iter.                  ...        0 min,  0.002 sec
     gradient                   ...        0 min,  0.002 sec
 * total energy  :   -13.6650256 Eh     change       -0.6885860E-04 Eh
   gradient norm :     0.0034244 Eh/α   predicted    -0.5656070E-04 ( -17.86%)
   displ. norm   :     0.0764184 α      lambda       -0.6687159E-04
   maximum displ.:     0.0505416 α      in ANC's #4, #1, #3, ...

........................................................................
.............................. CYCLE   17 ..............................
........................................................................

 iter      E             dE          RMSdq      gap      omega  full diag
   1    -13.8755578 -0.138756E+02  0.305E-02   13.81       0.0  T
   2    -13.8755580 -0.205271E-06  0.179E-02   13.81       1.5  T
   3    -13.8755580 -0.171633E-07  0.231E-03   13.81      11.6  T
   4    -13.8755581 -0.169279E-07  0.762E-04   13.81      35.1  T
   5    -13.8755581 -0.442016E-09  0.184E-04   13.81     145.4  T
     SCC iter.                  ...        0 min,  0.002 sec
     gradient                   ...        0 min,  0.002 sec
 * total energy  :   -13.6650544 Eh     change       -0.2882214E-04 Eh
   gradient norm :     0.0042901 Eh/α   predicted    -0.3363016E-04 (  16.68%)
   displ. norm   :     0.1091421 α      lambda       -0.4733526E-04
   maximum displ.:     0.0877137 α      in ANC's #3, #4, #1, ...

........................................................................
.............................. CYCLE   18 ..............................
........................................................................

 iter      E             dE          RMSdq      gap      omega  full diag
   1    -13.8745879 -0.138746E+02  0.335E-02   13.80       0.0  T
   2    -13.8745882 -0.231052E-06  0.199E-02   13.80       1.3  T
   3    -13.8745882 -0.128279E-07  0.216E-03   13.80      12.4  T
   4    -13.8745882 -0.131632E-07  0.629E-04   13.80      42.5  T
   5    -13.8745882 -0.278753E-09  0.307E-04   13.80      87.1  T
     SCC iter.                  ...        0 min,  0.002 sec
     gradient                   ...        0 min,  0.002 sec
 * total energy  :   -13.6650759 Eh     change       -0.2145481E-04 Eh
   gradient norm :     0.0035604 Eh/α   predicted    -0.2394694E-04 (  11.62%)
   displ. norm   :     0.0269794 α      lambda       -0.2311857E-04
   maximum displ.:     0.0155630 α      in ANC's #1, #3, #4, ...

........................................................................
.............................. CYCLE   19 ..............................
........................................................................

 iter      E             dE          RMSdq      gap      omega  full diag
   1    -13.8756798 -0.138757E+02  0.137E-02   13.80       0.0  T
   2    -13.8756800 -0.189304E-06  0.775E-03   13.80       3.4  T
   3    -13.8756800 -0.608613E-08  0.197E-03   13.80      13.6  T
   4    -13.8756800 -0.103217E-08  0.352E-04   13.80      75.9  T
   5    -13.8756800 -0.686367E-10  0.178E-04   13.80     150.5  T
     SCC iter.                  ...        0 min,  0.002 sec
     gradient                   ...        0 min,  0.002 sec
 * total energy  :   -13.6650893 Eh     change       -0.1344954E-04 Eh
   gradient norm :     0.0017520 Eh/α   predicted    -0.1156844E-04 ( -13.99%)
   displ. norm   :     0.0667271 α      lambda       -0.1454796E-04
   maximum displ.:     0.0420153 α      in ANC's #1, #4, #3, ...

........................................................................
.............................. CYCLE   20 ..............................
........................................................................

 iter      E             dE          RMSdq      gap      omega  full diag
   1    -13.8762574 -0.138763E+02  0.225E-02   13.79       0.0  T
   2    -13.8762575 -0.952830E-07  0.133E-02   13.79       2.0  T
   3    -13.8762575 -0.516251E-08  0.122E-03   13.79      21.9  T
   4    -13.8762575 -0.392147E-08  0.372E-04   13.79      71.9  T
   5    -13.8762575 -0.126763E-09  0.187E-04   13.79     143.3  T
     SCC iter.                  ...        0 min,  0.002 sec
     gradient                   ...        0 min,  0.002 sec
 * total energy  :   -13.6651006 Eh     change       -0.1129825E-04 Eh
   gradient norm :     0.0017365 Eh/α   predicted    -0.7287213E-05 ( -35.50%)
   displ. norm   :     0.0778768 α      lambda       -0.1204933E-04
   maximum displ.:     0.0667691 α      in ANC's #1, #2, #3, ...
 * RMSD in coord.:     0.8006124 α      energy gain  -0.6588590E-02 Eh

generating ANC from exact Hessian ...
Using Lindh-Hessian (1995)
 Shifting diagonal of input Hessian by    5.7799691390949129E-003
 Lowest  eigenvalues of input Hessian
    0.000000    0.000000    0.000000    0.000000    0.000000    0.000000
    0.010000    0.013354    0.013764    0.018294    0.022449    0.045939
    0.047921    0.057652    0.060193    0.060555    0.062412    0.070969
 Highest eigenvalues
    1.133605    1.152344    1.196261    1.198943    1.225348    1.286722


........................................................................
.............................. CYCLE   21 ..............................
........................................................................

 iter      E             dE          RMSdq      gap      omega  full diag
   1    -13.8760902 -0.138761E+02  0.261E-02   13.80       0.0  T
   2    -13.8760902 -0.572240E-07  0.155E-02   13.80       1.7  T
   3    -13.8760902 -0.561560E-08  0.963E-04   13.80      27.8  T
   4    -13.8760902 -0.343891E-08  0.377E-04   13.80      70.8  T
     SCC iter.                  ...        0 min,  0.002 sec
     gradient                   ...        0 min,  0.002 sec
 * total energy  :   -13.6651125 Eh     change       -0.1191249E-04 Eh
   gradient norm :     0.0018029 Eh/α   predicted     0.0000000E+00 (-100.00%)
   displ. norm   :     0.0244457 α      lambda       -0.8434974E-05
   maximum displ.:     0.0207129 α      in ANC's #1, #2, #4, ...

........................................................................
.............................. CYCLE   22 ..............................
........................................................................

 iter      E             dE          RMSdq      gap      omega  full diag
   1    -13.8760438 -0.138760E+02  0.127E-02   13.79       0.0  T
   2    -13.8760438 -0.414907E-07  0.740E-03   13.79       3.6  T
   3    -13.8760438 -0.256020E-08  0.967E-04   13.79      27.6  T
   4    -13.8760438 -0.263148E-08  0.272E-04   13.79      98.1  T
     SCC iter.                  ...        0 min,  0.002 sec
     gradient                   ...        0 min,  0.002 sec
 * total energy  :   -13.6651194 Eh     change       -0.6895977E-05 Eh
   gradient norm :     0.0003928 Eh/α   predicted    -0.4217017E-05 ( -38.85%)
   displ. norm   :     0.0214326 α      lambda       -0.2370477E-05
   maximum displ.:     0.0193716 α      in ANC's #1, #4, #2, ...

........................................................................
.............................. CYCLE   23 ..............................
........................................................................

 iter      E             dE          RMSdq      gap      omega  full diag
   1    -13.8760018 -0.138760E+02  0.854E-03   13.81       0.0  T
   2    -13.8760018 -0.271564E-08  0.507E-03   13.81       5.3  T
   3    -13.8760018 -0.412308E-09  0.158E-04   13.81     169.4  T
   4    -13.8760018 -0.837783E-10  0.754E-05   13.81     354.6  T
     SCC iter.                  ...        0 min,  0.002 sec
     gradient                   ...        0 min,  0.002 sec
 * total energy  :   -13.6651220 Eh     change       -0.2521070E-05 Eh
   gradient norm :     0.0004675 Eh/α   predicted    -0.1187255E-05 ( -52.91%)
   displ. norm   :     0.0189401 α      lambda       -0.1529016E-05
   maximum displ.:     0.0173754 α      in ANC's #1, #4, #3, ...

........................................................................
.............................. CYCLE   24 ..............................
........................................................................

 iter      E             dE          RMSdq      gap      omega  full diag
   1    -13.8760173 -0.138760E+02  0.621E-03   13.80       0.0  T
   2    -13.8760173 -0.163291E-08  0.367E-03   13.80       7.3  T
   3    -13.8760173 -0.396840E-09  0.183E-04   13.80     146.1  T
   4    -13.8760173 -0.109514E-09  0.898E-05   13.80     297.5  T
     SCC iter.                  ...        0 min,  0.002 sec
     gradient                   ...        0 min,  0.002 sec
 * total energy  :   -13.6651238 Eh     change       -0.1875459E-05 Eh
   gradient norm :     0.0003321 Eh/α   predicted    -0.7633761E-06 ( -59.30%)
   displ. norm   :     0.0174165 α      lambda       -0.1100044E-05
   maximum displ.:     0.0161217 α      in ANC's #1, #4, #3, ...

........................................................................
.............................. CYCLE   25 ..............................
........................................................................

 iter      E             dE          RMSdq      gap      omega  full diag
   1    -13.8760318 -0.138760E+02  0.528E-03   13.80       0.0  T
   2    -13.8760318 -0.102428E-08  0.313E-03   13.80       8.5  T
   3    -13.8760318 -0.288036E-09  0.118E-04   13.80     226.1  T
   4    -13.8760318 -0.131593E-10  0.595E-05   13.80     449.5  T
     SCC iter.                  ...        0 min,  0.002 sec
     gradient                   ...        0 min,  0.002 sec
 * total energy  :   -13.6651252 Eh     change       -0.1333609E-05 Eh
   gradient norm :     0.0001378 Eh/α   predicted    -0.5493355E-06 ( -58.81%)
   displ. norm   :     0.0131938 α      lambda       -0.5919503E-06
   maximum displ.:     0.0125649 α      in ANC's #1, #4, #2, ...

........................................................................
.............................. CYCLE   26 ..............................
........................................................................

 iter      E             dE          RMSdq      gap      omega  full diag
   1    -13.8760426 -0.138760E+02  0.433E-03   13.80       0.0  T
   2    -13.8760426 -0.466690E-09  0.257E-03   13.80      10.4  T
   3    -13.8760426 -0.154829E-09  0.837E-05   13.80     319.3  T
   4    -13.8760426 -0.652811E-11  0.419E-05   13.80     637.6  T
     SCC iter.                  ...        0 min,  0.002 sec
     gradient                   ...        0 min,  0.002 sec
 * total energy  :   -13.6651259 Eh     change       -0.7513932E-06 Eh
   gradient norm :     0.0001049 Eh/α   predicted    -0.2960836E-06 ( -60.60%)
   displ. norm   :     0.0093316 α      lambda       -0.3386058E-06
   maximum displ.:     0.0090347 α      in ANC's #1, #3, #4, ...

   *** GEOMETRY OPTIMIZATION CONVERGED AFTER 26 ITERATIONS ***

------------------------------------------------------------------------
 total energy gain   :        -0.0066139 Eh       -4.1503 kcal/mol
 total RMSD          :         0.8170107 a0        0.4323 Å
 total power (kW/mol):        -0.6678746 (step)  -79.3931 (real)
------------------------------------------------------------------------

 ANCopt (total)                0 d,  0 h,  0 min,  0.219 sec
 optimizer setup                ...        0 min,  0.000 sec (  0.058%)
 model hessian                  ...        0 min,  0.011 sec (  5.056%)
 ANC generation                 ...        0 min,  0.001 sec (  0.478%)
 coordinate transformation      ...        0 min,  0.000 sec (  0.102%)
 single point calculation       ...        0 min,  0.193 sec ( 88.037%)
 optimization log               ...        0 min,  0.005 sec (  2.107%)
 hessian update                 ...        0 min,  0.003 sec (  1.292%)
 rational function              ...        0 min,  0.004 sec (  2.027%)

================
 final structure:
================
14
 xtb: 6.7.1 (edcfbbe)
C           -2.81078082405760        0.24321789380762        0.26663333971117
H           -3.89299309613908        0.35540278197323        0.27495107723177
H           -2.57482578615185       -0.81415355742250        0.36254413335986
H           -2.43917877127610        0.59213493249120       -0.69453020159113
C           -2.18272585919043        1.03991267774693        1.40352982920211
H           -1.09987302399615        0.89441794718975        1.39411104227007
H           -2.55788073350582        0.66562659294943        2.35898649868493
C           -2.48988875693172        2.53138424766928        1.29287416388414
H           -2.10347196282036        2.90829197794573        0.34297631008294
H           -3.57283867146926        2.67600587154895        1.28960394404818
C           -1.87719129146762        3.32545143515983        2.43994641939400
H           -2.10548282459581        4.38404740203742        2.33916522379500
H           -2.26810557834344        2.97949159486546        3.39461823073409
H           -0.79569819005473        3.20702757203759        2.45128357919270

 Bond Distances (Angstroems)
 ---------------------------
C1-H2=1.0880         C1-H3=1.0876         C1-H4=1.0880         C1-C5=1.5237         H2-C1=1.0880         H3-C1=1.0876         
H4-C1=1.0880         C5-C1=1.5237         C5-H6=1.0926         C5-H7=1.0926         C5-C8=1.5268         H6-C5=1.0926         
H7-C5=1.0926         C8-C5=1.5268         C8-H9=1.0926         C8-H10=1.0926        C8-C11=1.5237        H9-C8=1.0926         
H10-C8=1.0926        C11-C8=1.5237        C11-H12=1.0876       C11-H13=1.0881       C11-H14=1.0880       H12-C11=1.0876       
H13-C11=1.0881       H14-C11=1.0880       
 C  H  Rav=1.0898 sigma=0.0023  Rmin=1.0876  Rmax=1.0926    10
 C  C  Rav=1.5247 sigma=0.0014  Rmin=1.5237  Rmax=1.5268     3

 selected bond angles (degree)
 --------------------
H3-C1-H2=108.38                H4-C1-H2=108.27                H4-C1-H3=108.40                C5-C1-H2=110.51                
C5-C1-H3=110.68                C5-C1-H4=110.53                H6-C5-C1=109.42                H7-C5-C1=109.38                
H7-C5-H6=107.59                C8-C5-C1=111.95                C8-C5-H6=109.20                C8-C5-H7=109.20                
H9-C8-C5=109.20                H10-C8-C5=109.20               H10-C8-H9=107.60               C11-C8-C5=111.94               
C11-C8-H9=109.42               C11-C8-H10=109.38              

 selected dihedral angles (degree)
 ---------------------------------
H6-C5-C1-H2=178.57            H6-C5-C1-H3= 58.50            H6-C5-C1-H4=298.39            H7-C5-C1-H2= 60.94            
H7-C5-C1-H3=300.87            H7-C5-C1-H4=180.77            C8-C5-C1-H2=299.76            C8-C5-C1-H3=179.69            
C8-C5-C1-H4= 59.59            H9-C8-C5-C1=300.57            H9-C8-C5-H6= 61.89            H9-C8-C5-H7=179.29            
H10-C8-C5-C1= 57.97           H10-C8-C5-H6=179.29           H10-C8-C5-H7=296.69           C11-C8-C5-C1=179.25           
C11-C8-C5-H6=300.57           C11-C8-C5-H7= 57.97           
           -------------------------------------------------
          |                Final Singlepoint                |
           -------------------------------------------------

          ...................................................
          :                      SETUP                      :
          :.................................................:
          :  # basis functions                  26          :
          :  # atomic orbitals                  26          :
          :  # shells                           18          :
          :  # electrons                        26          :
          :  max. iterations                   250          :
          :  Hamiltonian                  GFN2-xTB          :
          :  restarted?                      false          :
          :  GBSA solvation                  false          :
          :  PC potential                    false          :
          :  electronic temp.          300.0000000     K    :
          :  accuracy                    1.0000000          :
          :  -> integral cutoff          0.2500000E+02      :
          :  -> integral neglect         0.1000000E-07      :
          :  -> SCF convergence          0.1000000E-05 Eh   :
          :  -> wf. convergence          0.1000000E-03 e    :
          :  Broyden damping             0.4000000          :
          :  net charge                          0          :
          :  unpaired electrons                  0          :
          ...................................................

 iter      E             dE          RMSdq      gap      omega  full diag
   1    -13.8760426 -0.138760E+02  0.931E-06   13.80       0.0  T
   2    -13.8760426 -0.111910E-12  0.525E-06   13.80    5087.0  T
   3    -13.8760426  0.532907E-14  0.211E-06   13.80   12674.5  T

   *** convergence criteria satisfied after 3 iterations ***

         #    Occupation            Energy/Eh            Energy/eV
      -------------------------------------------------------------
         1        2.0000           -0.6179689             -16.8158
       ...           ...                  ...                  ...
         7        2.0000           -0.4878892             -13.2761
         8        2.0000           -0.4789804             -13.0337
         9        2.0000           -0.4546551             -12.3718
        10        2.0000           -0.4395297             -11.9602
        11        2.0000           -0.4367174             -11.8837
        12        2.0000           -0.4258149             -11.5870
        13        2.0000           -0.4195544             -11.4167 (HOMO)
        14                          0.0875955               2.3836 (LUMO)
        15                          0.1267598               3.4493
        16                          0.1278096               3.4779
        17                          0.1525717               4.1517
        18                          0.1629468               4.4340
       ...                                ...                  ...
        26                          0.3114228               8.4742
      -------------------------------------------------------------
                  HL-Gap            0.5071498 Eh           13.8002 eV
             Fermi-level           -0.1659794 Eh           -4.5165 eV

 SCC (total)                   0 d,  0 h,  0 min,  0.005 sec
 SCC setup                      ...        0 min,  0.000 sec (  4.730%)
 Dispersion                     ...        0 min,  0.000 sec (  2.206%)
 classical contributions        ...        0 min,  0.000 sec (  0.989%)
 integral evaluation            ...        0 min,  0.001 sec ( 13.964%)
 iterations                     ...        0 min,  0.001 sec ( 31.652%)
 molecular gradient             ...        0 min,  0.002 sec ( 40.539%)
 printout                       ...        0 min,  0.000 sec (  5.526%)

         :::::::::::::::::::::::::::::::::::::::::::::::::::::
         ::                     SUMMARY                     ::
         :::::::::::::::::::::::::::::::::::::::::::::::::::::
         :: total energy             -13.665125925406 Eh    ::
         :: gradient norm              0.000104816898 Eh/a0 ::
         :: HOMO-LUMO gap             13.800249771319 eV    ::
         ::.................................................::
         :: SCC energy               -13.876038709646 Eh    ::
         :: -> isotropic ES            0.002998718866 Eh    ::
         :: -> anisotropic ES          0.004909014624 Eh    ::
         :: -> anisotropic XC          0.009059183776 Eh    ::
         :: -> dispersion             -0.006048960358 Eh    ::
         :: repulsion energy           0.210912784240 Eh    ::
         :: add. restraining           0.000000000000 Eh    ::
         :: total charge               0.000000000000 e     ::
         :::::::::::::::::::::::::::::::::::::::::::::::::::::

           -------------------------------------------------
          |                Property Printout                |
           -------------------------------------------------

    * Orbital Energies and Occupations

         #    Occupation            Energy/Eh            Energy/eV
      -------------------------------------------------------------
         1        2.0000           -0.6179689             -16.8158
         2        2.0000           -0.5989723             -16.2989
         3        2.0000           -0.5679234             -15.4540
         4        2.0000           -0.5523975             -15.0315
         5        2.0000           -0.5138403             -13.9823
         6        2.0000           -0.4918455             -13.3838
         7        2.0000           -0.4878892             -13.2761
         8        2.0000           -0.4789804             -13.0337
         9        2.0000           -0.4546551             -12.3718
        10        2.0000           -0.4395297             -11.9602
        11        2.0000           -0.4367174             -11.8837
        12        2.0000           -0.4258149             -11.5870
        13        2.0000           -0.4195544             -11.4167 (HOMO)
        14                          0.0875955               2.3836 (LUMO)
        15                          0.1267598               3.4493
        16                          0.1278096               3.4779
        17                          0.1525717               4.1517
        18                          0.1629468               4.4340
        19                          0.1837243               4.9994
        20                          0.1937282               5.2716
        21                          0.1971526               5.3648
        22                          0.2245190               6.1095
        23                          0.2548827               6.9357
        24                          0.2646212               7.2007
       ...                                ...                  ...
        26                          0.3114228               8.4742
      -------------------------------------------------------------
                  HL-Gap            0.5071498 Eh           13.8002 eV
             Fermi-level           -0.1659794 Eh           -4.5165 eV

     #   Z          covCN         q      C6AA      α(0)
     1   6 C        3.752    -0.102    22.510     6.766
     2   1 H        0.925     0.033     2.550     2.497
     3   1 H        0.925     0.032     2.554     2.499
     4   1 H        0.925     0.033     2.550     2.497
     5   6 C        3.801    -0.053    21.534     6.607
     6   1 H        0.924     0.029     2.601     2.522
     7   1 H        0.924     0.029     2.599     2.521
     8   6 C        3.801    -0.053    21.534     6.607
     9   1 H        0.924     0.029     2.601     2.522
    10   1 H        0.924     0.029     2.599     2.521
    11   6 C        3.752    -0.102    22.510     6.766
    12   1 H        0.925     0.032     2.554     2.499
    13   1 H        0.925     0.033     2.550     2.497
    14   1 H        0.925     0.033     2.550     2.497

 Mol. C6AA /au·bohr⁶  :       1207.497392
 Mol. C8AA /au·bohr⁸  :      24480.529406
 Mol. α(0) /au        :         51.819389


Wiberg/Mayer (AO) data.
largest (>0.10) Wiberg bond orders for each atom

 ---------------------------------------------------------------------------
     #   Z sym  total        # sym  WBO       # sym  WBO       # sym  WBO
 ---------------------------------------------------------------------------
     1   6 C    3.997 --     5 C    1.019     2 H    0.988     4 H    0.988
                             3 H    0.988
     2   1 H    0.999 --     1 C    0.988
     3   1 H    0.999 --     1 C    0.988
     4   1 H    0.999 --     1 C    0.988
     5   6 C    3.998 --     1 C    1.019     8 C    1.009     6 H    0.979
                             7 H    0.979
     6   1 H    0.999 --     5 C    0.979
     7   1 H    0.999 --     5 C    0.979
     8   6 C    3.998 --    11 C    1.019     5 C    1.009     9 H    0.979
                            10 H    0.979
     9   1 H    0.999 --     8 C    0.979
    10   1 H    0.999 --     8 C    0.979
    11   6 C    3.997 --     8 C    1.019    14 H    0.988    13 H    0.988
                            12 H    0.988
    12   1 H    0.999 --    11 C    0.988
    13   1 H    0.999 --    11 C    0.988
    14   1 H    0.999 --    11 C    0.988
 ---------------------------------------------------------------------------

Topologies differ in total number of bonds
Writing topology from bond orders to xtbtopo.mol

molecular dipole:
                 x           y           z       tot (Debye)
 q only:       -0.000      -0.000       0.000
   full:       -0.000      -0.000       0.000       0.001
molecular quadrupole (traceless):
                xx          xy          yy          xz          yz          zz
 q only:       -0.099       0.031       0.065       0.116       0.110       0.034
  q+dip:        0.592      -0.203      -0.465      -0.605      -0.649      -0.128
   full:        0.259      -0.087      -0.200      -0.269      -0.279      -0.059

           -------------------------------------------------
          |                Geometry Summary                 |
           -------------------------------------------------

      molecular mass/u    :       58.1223511
   center of mass at/Å    :       -2.3403009       1.7849636       1.3508545
Note: The following floating-point exceptions are signalling: IEEE_UNDERFLOW_FLAG IEEE_DENORMAL
normal termination of xtb
  moments of inertia/u·Å² :        0.2162834E+02   0.1369998E+03   0.1460893E+03
rotational constants/cm⁻¹ :        0.7794232E+00   0.1230486E+00   0.1153927E+00

 * 13 selected distances

     #   Z          #   Z                                           value/Å
     1   6 C        2   1 H                                       1.0880433
     1   6 C        3   1 H                                       1.0876159
     1   6 C        4   1 H                                       1.0879645
     1   6 C        5   6 C                                       1.5237157
     5   6 C        6   1 H                                       1.0926243
     5   6 C        7   1 H                                       1.0925790
     5   6 C        8   6 C                                       1.5267880 (max)
     8   6 C        9   1 H                                       1.0925583
     8   6 C       10   1 H                                       1.0925689
     8   6 C       11   6 C                                       1.5237178
    11   6 C       12   1 H                                       1.0876118 (min)
    11   6 C       13   1 H                                       1.0880720
    11   6 C       14   1 H                                       1.0880167

 * 2 distinct bonds (by element types)

   Z      Z             #   av. dist./Å        max./Å        min./Å
   1 H    6 C          10     1.0897655     1.0926243     1.0876118
   6 C    6 C           3     1.5247405     1.5267880     1.5237157


optimized geometry written to: xtbopt.xyz


           -------------------------------------------------
          | TOTAL ENERGY              -13.665125925406 Eh   |
          | GRADIENT NORM               0.000104816898 Eh/α |
          | HOMO-LUMO GAP              13.800249771319 eV   |
           -------------------------------------------------

------------------------------------------------------------------------
 * finished run on 2026/08/11 at 11:11:56.143     
------------------------------------------------------------------------
 total:
 * wall-time:     0 d,  0 h,  0 min,  0.354 sec
 *  cpu-time:     0 d,  0 h,  0 min,  1.301 sec
 * ratio c/w:     3.679 speedup
 SCF:
 * wall-time:     0 d,  0 h,  0 min,  0.095 sec
 *  cpu-time:     0 d,  0 h,  0 min,  0.372 sec
 * ratio c/w:     3.906 speedup
 ANC optimizer:
 * wall-time:     0 d,  0 h,  0 min,  0.224 sec
 *  cpu-time:     0 d,  0 h,  0 min,  0.805 sec
 * ratio c/w:     3.588 speedup

