14
 energy: -13.665125925406 gnorm: 0.000104816898 xtb: 6.7.1 (edcfbbe)
C           -2.81078082405760        0.24321789380762        0.26663333971117
H           -3.89299309613908        0.35540278197323        0.27495107723177
H           -2.57482578615185       -0.81415355742250        0.36254413335986
H           -2.43917877127610        0.59213493249120       -0.69453020159113
C           -2.18272585919043        1.03991267774693        1.40352982920211
H           -1.09987302399615        0.89441794718975        1.39411104227007
H           -2.55788073350582        0.66562659294943        2.35898649868493
C           -2.48988875693172        2.53138424766928        1.29287416388414
H           -2.10347196282036        2.90829197794573        0.34297631008294
H           -3.57283867146926        2.67600587154895        1.28960394404818
C           -1.87719129146762        3.32545143515983        2.43994641939400
H           -2.10548282459581        4.38404740203742        2.33916522379500
H           -2.26810557834344        2.97949159486546        3.39461823073409
H           -0.79569819005473        3.20702757203759        2.45128357919270
