      -----------------------------------------------------------      
     |                   =====================                   |     
     |                           x T B                           |     
     |                   =====================                   |     
     |                         S. Grimme                         |     
     |          Mulliken Center for Theoretical Chemistry        |     
     |                    University of Bonn                     |     
      -----------------------------------------------------------      

   * xtb version 6.7.1 (edcfbbe) compiled by 'conda@5dfe00f5fb80' on 2026-06-10

   xtb is free software: you can redistribute it and/or modify it under
   the terms of the GNU Lesser General Public License as published by
   the Free Software Foundation, either version 3 of the License, or
   (at your option) any later version.
   
   xtb is distributed in the hope that it will be useful,
   but WITHOUT ANY WARRANTY; without even the implied warranty of
   MERCHANTABILITY or FITNESS FOR A PARTICULAR PURPOSE.  See the
   GNU Lesser General Public License for more details.
   
   Cite this work as:
   * C. Bannwarth, E. Caldeweyher, S. Ehlert, A. Hansen, P. Pracht,
     J. Seibert, S. Spicher, S. Grimme, WIREs Comput. Mol. Sci., 2020, 11,
     e01493. DOI: 10.1002/wcms.1493
   
   for GFN2-xTB:
   * C. Bannwarth, S. Ehlert and S. Grimme., J. Chem. Theory Comput., 2019,
     15, 1652-1671. DOI: 10.1021/acs.jctc.8b01176
   for GFN1-xTB:
   * S. Grimme, C. Bannwarth, P. Shushkov, J. Chem. Theory Comput., 2017,
     13, 1989-2009. DOI: 10.1021/acs.jctc.7b00118
   for GFN0-xTB:
   * P. Pracht, E. Caldeweyher, S. Ehlert, S. Grimme, ChemRxiv, 2019, preprint.
     DOI: 10.26434/chemrxiv.8326202.v1
   for GFN-FF:
   * S. Spicher and S. Grimme, Angew. Chem. Int. Ed., 2020, 59, 15665-15673.
     DOI: 10.1002/anie.202004239
   
   for ALPB and GBSA implicit solvation:
   * S. Ehlert, M. Stahn, S. Spicher, S. Grimme, J. Chem. Theory Comput.,
     2021, 17, 4250-4261. DOI: 10.1021/acs.jctc.1c00471
   
   for ddCOSMO and CPCM-X implicit solvation:
   * M. Stahn, S. Ehlert, S. Grimme, J. Phys. Chem. A,
     2023, XX, XXXX-XXXX. DOI: 10.1021/acs.jpca.3c04382
   
   for DFT-D4:
   * E. Caldeweyher, C. Bannwarth and S. Grimme, J. Chem. Phys., 2017,
     147, 034112. DOI: 10.1063/1.4993215
   * E. Caldeweyher, S. Ehlert, A. Hansen, H. Neugebauer, S. Spicher,
     C. Bannwarth and S. Grimme, J. Chem. Phys., 2019, 150, 154122.
     DOI: 10.1063/1.5090222
   * E. Caldeweyher, J.-M. Mewes, S. Ehlert and S. Grimme, Phys. Chem. Chem. Phys.
     2020, 22, 8499-8512. DOI: 10.1039/D0CP00502A
   
   for sTDA-xTB:
   * S. Grimme and C. Bannwarth, J. Chem. Phys., 2016, 145, 054103.
     DOI: 10.1063/1.4959605
   
   in the mass-spec context:
   * V. Asgeirsson, C. Bauer and S. Grimme, Chem. Sci., 2017, 8, 4879.
     DOI: 10.1039/c7sc00601b
   * J. Koopman and S. Grimme, ACS Omega 2019, 4, 12, 15120-15133.
     DOI: 10.1021/acsomega.9b02011
   
   for metadynamics refer to:
   * S. Grimme, J. Chem. Theory Comput., 2019, 155, 2847-2862
     DOI: 10.1021/acs.jctc.9b00143
   
   for SPH calculations refer to:
   * S. Spicher and S. Grimme, J. Chem. Theory Comput., 2021, 17, 1701-1714
     DOI: 10.1021/acs.jctc.0c01306
   
   for ONIOM refer to:
   * C. Plett, A. Katbashev, S. Ehlert, S. Grimme, M. Bursch,
     Phys. Chem. Chem. Phys., 2023, 25, 17860-17868. DOI: 10.1039/D3CP02178E
   
   for DIPRO refer to:
   * J. Kohn, N. Gildemeister, S. Grimme, D. Fazzi, A. Hansen,
     J. Chem. Phys., 2023, just accepted.
   
   for PTB refer to:
   * S. Grimme, M. Mueller, A. Hansen, J. Chem. Phys., 2023, 158, 124111.
     DOI: 10.1063/5.0137838
   
   with help from (in alphabetical order)
   P. Atkinson, C. Bannwarth, F. Bohle, G. Brandenburg, E. Caldeweyher
   M. Checinski, S. Dohm, S. Ehlert, S. Ehrlich, I. Gerasimov, C. Hölzer
   A. Katbashev, J. Kohn, J. Koopman, C. Lavigne, S. Lehtola, F. März, M. Müller,
   F. Musil, H. Neugebauer, J. Pisarek, C. Plett, P. Pracht, F. Pultar,
   J. Seibert, P. Shushkov, S. Spicher, M. Stahn, M. Steiner, T. Strunk,
   J. Stückrath, T. Rose, and J. Unsleber
   
 * started run on 2026/08/11 at 11:11:57.045     
   ID    Z sym.   atoms
    1    6 C      1, 5, 8, 11
    2    1 H      2-4, 6, 7, 9, 10, 12-14

           -------------------------------------------------
          |                Calculation Setup                |
           -------------------------------------------------

          program call               : xtb input.xyz --gfn2 --opt tight --chrg 0 --uhf 0 --iterations 250
          coordinate file            : input.xyz
          omp threads                :                     4


           -------------------------------------------------
          |                 G F N 2 - x T B                 |
           -------------------------------------------------

        Reference                      10.1021/acs.jctc.8b01176
      * Hamiltonian:
        H0-scaling (s, p, d)           1.850000    2.230000    2.230000
        zeta-weighting                 0.500000
      * Dispersion:
        s8                             2.700000
        a1                             0.520000
        a2                             5.000000
        s9                             5.000000
      * Repulsion:
        kExp                           1.500000    1.000000
        rExp                           1.000000
      * Coulomb:
        alpha                          2.000000
        third order                    shell-resolved
        anisotropic                    true
        a3                             3.000000
        a5                             4.000000
        cn-shift                       1.200000
        cn-exp                         4.000000
        max-rad                        5.000000


          ...................................................
          :                      SETUP                      :
          :.................................................:
          :  # basis functions                  26          :
          :  # atomic orbitals                  26          :
          :  # shells                           18          :
          :  # electrons                        26          :
          :  max. iterations                   250          :
          :  Hamiltonian                  GFN2-xTB          :
          :  restarted?                      false          :
          :  GBSA solvation                  false          :
          :  PC potential                    false          :
          :  electronic temp.          300.0000000     K    :
          :  accuracy                    1.0000000          :
          :  -> integral cutoff          0.2500000E+02      :
          :  -> integral neglect         0.1000000E-07      :
          :  -> SCF convergence          0.1000000E-05 Eh   :
          :  -> wf. convergence          0.1000000E-03 e    :
          :  Broyden damping             0.4000000          :
          :  net charge                          0          :
          :  unpaired electrons                  0          :
          ...................................................

 iter      E             dE          RMSdq      gap      omega  full diag
   1    -13.8278666 -0.138279E+02  0.252E+00   14.07       0.0  T
   2    -13.8675071 -0.396405E-01  0.128E+00   13.74       1.0  T
   3    -13.8679072 -0.400130E-03  0.691E-01   13.73       1.0  T
   4    -13.8680218 -0.114568E-03  0.907E-02   13.73       1.0  T
   5    -13.8680268 -0.504750E-05  0.488E-02   13.73       1.0  T
   6    -13.8680274 -0.542935E-06  0.303E-03   13.73       8.8  T
   7    -13.8680274 -0.125264E-07  0.674E-04   13.73      39.6  T
   8    -13.8680274 -0.767047E-09  0.168E-04   13.73     159.4  T

   *** convergence criteria satisfied after 8 iterations ***

         #    Occupation            Energy/Eh            Energy/eV
      -------------------------------------------------------------
         1        2.0000           -0.6169200             -16.7872
       ...           ...                  ...                  ...
         7        2.0000           -0.4867665             -13.2456
         8        2.0000           -0.4674513             -12.7200
         9        2.0000           -0.4592427             -12.4966
        10        2.0000           -0.4511366             -12.2761
        11        2.0000           -0.4269807             -11.6187
        12        2.0000           -0.4257251             -11.5846
        13        2.0000           -0.4176506             -11.3649 (HOMO)
        14                          0.0868332               2.3629 (LUMO)
        15                          0.1104919               3.0066
        16                          0.1301002               3.5402
        17                          0.1451306               3.9492
        18                          0.1456533               3.9634
       ...                                ...                  ...
        26                          0.3141484               8.5484
      -------------------------------------------------------------
                  HL-Gap            0.5044837 Eh           13.7277 eV
             Fermi-level           -0.1654087 Eh           -4.5010 eV

 SCC (total)                   0 d,  0 h,  0 min,  0.102 sec
 SCC setup                      ...        0 min,  0.003 sec (  2.737%)
 Dispersion                     ...        0 min,  0.006 sec (  5.879%)
 classical contributions        ...        0 min,  0.003 sec (  2.853%)
 integral evaluation            ...        0 min,  0.006 sec (  5.924%)
 iterations                     ...        0 min,  0.060 sec ( 58.832%)
 molecular gradient             ...        0 min,  0.024 sec ( 23.547%)
 printout                       ...        0 min,  0.000 sec (  0.203%)

         :::::::::::::::::::::::::::::::::::::::::::::::::::::
         ::                     SUMMARY                     ::
         :::::::::::::::::::::::::::::::::::::::::::::::::::::
         :: total energy             -13.661986621941 Eh    ::
         :: gradient norm              0.012684533519 Eh/a0 ::
         :: HOMO-LUMO gap             13.727701003365 eV    ::
         ::.................................................::
         :: SCC energy               -13.868020414784 Eh    ::
         :: -> isotropic ES            0.002887481192 Eh    ::
         :: -> anisotropic ES          0.005117682260 Eh    ::
         :: -> anisotropic XC          0.009038089299 Eh    ::
         :: -> dispersion             -0.006177186023 Eh    ::
         :: repulsion energy           0.206033792842 Eh    ::
         :: add. restraining           0.000000000000 Eh    ::
         :: total charge               0.000000000000 e     ::
         :::::::::::::::::::::::::::::::::::::::::::::::::::::

      ----------------------------------------------------------- 
     |                   =====================                   |
     |                        A N C O P T                        |
     |                   =====================                   |
     |               Approximate Normal Coordinate               |
     |                Rational Function Optimizer                |
      ----------------------------------------------------------- 
      ----------------------------------------------------------- 
     |                   =====================                   |
     |                        A N C O P T                        |
     |                   =====================                   |
     |               Approximate Normal Coordinate               |
     |                Rational Function Optimizer                |
      ----------------------------------------------------------- 

          ...................................................
          :                      SETUP                      :
          :.................................................:
          :   optimization level             tight          :
          :   max. optcycles                   200          :
          :   ANC micro-cycles                  20          :
          :   degrees of freedom                36          :
          :.................................................:
          :   RF solver                   davidson          :
          :   write xtbopt.log                true          :
          :   linear?                        false          :
          :   energy convergence         0.1000000E-05 Eh   :
          :   grad. convergence          0.8000000E-03 Eh/α :
          :   maxmium RF displ.          1.0000000          :
          :   Hlow (freq-cutoff)         0.1000000E-01      :
          :   Hmax (freq-cutoff)         5.0000000          :
          :   S6 in model hess.         20.0000000          :
          ...................................................

generating ANC from exact Hessian ...
Using Lindh-Hessian (1995)
 Shifting diagonal of input Hessian by    6.1432070833340718E-003
 Lowest  eigenvalues of input Hessian
    0.000000    0.000000    0.000000    0.000000    0.000000    0.000000
    0.010000    0.012911    0.013881    0.021243    0.021833    0.046271
    0.049196    0.058145    0.058390    0.060118    0.064406    0.064565
 Highest eigenvalues
    1.110927    1.134719    1.140460    1.205840    1.232212    1.279988


........................................................................
.............................. CYCLE    1 ..............................
........................................................................

 iter      E             dE          RMSdq      gap      omega  full diag
   1    -13.8680274 -0.138680E+02  0.191E-05   13.73       0.0  T
   2    -13.8680274 -0.145839E-11  0.793E-06   13.73    3369.4  T
   3    -13.8680274 -0.390799E-13  0.350E-06   13.73    7636.2  T
     SCC iter.                  ...        0 min,  0.002 sec
     gradient                   ...        0 min,  0.002 sec
 * total energy  :   -13.6619866 Eh     change       -0.7077006E-11 Eh
   gradient norm :     0.0126841 Eh/α   predicted     0.0000000E+00 (-100.00%)
   displ. norm   :     0.1544235 α      lambda       -0.8900471E-03
   maximum displ.:     0.1081327 α      in ANC's #1, #8, #2, ...

........................................................................
.............................. CYCLE    2 ..............................
........................................................................

 iter      E             dE          RMSdq      gap      omega  full diag
   1    -13.8714751 -0.138715E+02  0.121E-01   13.89       0.0  T
   2    -13.8714761 -0.954974E-06  0.707E-02   13.89       1.0  T
   3    -13.8714763 -0.206555E-06  0.232E-03   13.89      11.5  T
   4    -13.8714763 -0.769961E-08  0.107E-03   13.89      25.0  T
   5    -13.8714763 -0.409916E-09  0.438E-04   13.89      61.1  T
   6    -13.8714763 -0.109337E-09  0.810E-05   13.89     329.9  T
     SCC iter.                  ...        0 min,  0.003 sec
     gradient                   ...        0 min,  0.002 sec
 * total energy  :   -13.6625390 Eh     change       -0.5523590E-03 Eh
   gradient norm :     0.0051084 Eh/α   predicted    -0.4556361E-03 ( -17.51%)
   displ. norm   :     0.1544982 α      lambda       -0.2581693E-03
   maximum displ.:     0.1401339 α      in ANC's #1, #2, #4, ...

........................................................................
.............................. CYCLE    3 ..............................
........................................................................

 iter      E             dE          RMSdq      gap      omega  full diag
   1    -13.8732329 -0.138732E+02  0.520E-02   13.94       0.0  T
   2    -13.8732334 -0.493398E-06  0.303E-02   13.94       1.0  T
   3    -13.8732334 -0.369392E-07  0.209E-03   13.94      12.8  T
   4    -13.8732334 -0.228976E-08  0.672E-04   13.94      39.8  T
   5    -13.8732334 -0.193502E-09  0.231E-04   13.94     115.6  T
     SCC iter.                  ...        0 min,  0.003 sec
     gradient                   ...        0 min,  0.002 sec
 * total energy  :   -13.6627531 Eh     change       -0.2141174E-03 Eh
   gradient norm :     0.0022344 Eh/α   predicted    -0.1321665E-03 ( -38.27%)
   displ. norm   :     0.1970485 α      lambda       -0.2610220E-03
   maximum displ.:     0.1746385 α      in ANC's #1, #4, #2, ...

........................................................................
.............................. CYCLE    4 ..............................
........................................................................

 iter      E             dE          RMSdq      gap      omega  full diag
   1    -13.8740432 -0.138740E+02  0.617E-02   13.96       0.0  T
   2    -13.8740434 -0.233305E-06  0.366E-02   13.96       1.0  T
   3    -13.8740434 -0.432171E-07  0.155E-03   13.96      17.2  T
   4    -13.8740434 -0.919233E-09  0.735E-04   13.96      36.4  T
   5    -13.8740434 -0.203132E-09  0.878E-05   13.96     304.6  T
     SCC iter.                  ...        0 min,  0.003 sec
     gradient                   ...        0 min,  0.002 sec
 * total energy  :   -13.6629880 Eh     change       -0.2349128E-03 Eh
   gradient norm :     0.0042629 Eh/α   predicted    -0.1355810E-03 ( -42.28%)
   displ. norm   :     0.2334686 α      lambda       -0.2852862E-03
   maximum displ.:     0.2040050 α      in ANC's #1, #4, #2, ...

........................................................................
.............................. CYCLE    5 ..............................
........................................................................

 iter      E             dE          RMSdq      gap      omega  full diag
   1    -13.8738655 -0.138739E+02  0.723E-02   13.99       0.0  T
   2    -13.8738657 -0.205001E-06  0.430E-02   13.99       1.0  T
   3    -13.8738657 -0.592324E-07  0.199E-03   13.99      13.4  T
   4    -13.8738657 -0.668543E-08  0.975E-04   13.99      27.4  T
   5    -13.8738657 -0.758892E-09  0.130E-04   13.99     205.8  T
     SCC iter.                  ...        0 min,  0.003 sec
     gradient                   ...        0 min,  0.002 sec
 * total energy  :   -13.6632409 Eh     change       -0.2528872E-03 Eh
   gradient norm :     0.0049538 Eh/α   predicted    -0.1504186E-03 ( -40.52%)
   displ. norm   :     0.2235186 α      lambda       -0.2419146E-03
   maximum displ.:     0.1989653 α      in ANC's #1, #4, #7, ...

........................................................................
.............................. CYCLE    6 ..............................
........................................................................

 iter      E             dE          RMSdq      gap      omega  full diag
   1    -13.8734727 -0.138735E+02  0.684E-02   14.02       0.0  T
   2    -13.8734730 -0.368471E-06  0.407E-02   14.02       1.0  T
   3    -13.8734731 -0.529433E-07  0.226E-03   14.03      11.8  T
   4    -13.8734731 -0.133919E-07  0.103E-03   14.03      26.0  T
   5    -13.8734731 -0.894568E-09  0.270E-04   14.03      98.8  T
   6    -13.8734731 -0.482725E-10  0.628E-05   14.03     425.7  T
     SCC iter.                  ...        0 min,  0.007 sec
     gradient                   ...        0 min,  0.002 sec
 * total energy  :   -13.6634444 Eh     change       -0.2034831E-03 Eh
   gradient norm :     0.0035531 Eh/α   predicted    -0.1270006E-03 ( -37.59%)
   displ. norm   :     0.1703815 α      lambda       -0.1522033E-03
   maximum displ.:     0.1580921 α      in ANC's #1, #4, #7, ...

........................................................................
.............................. CYCLE    7 ..............................
........................................................................

 iter      E             dE          RMSdq      gap      omega  full diag
   1    -13.8735486 -0.138735E+02  0.499E-02   14.07       0.0  T
   2    -13.8735488 -0.213925E-06  0.298E-02   14.07       1.0  T
   3    -13.8735488 -0.303725E-07  0.173E-03   14.07      15.5  T
   4    -13.8735488 -0.757295E-08  0.790E-04   14.07      33.8  T
   5    -13.8735488 -0.557714E-09  0.203E-04   14.07     131.8  T
     SCC iter.                  ...        0 min,  0.003 sec
     gradient                   ...        0 min,  0.005 sec
 * total energy  :   -13.6635707 Eh     change       -0.1263127E-03 Eh
   gradient norm :     0.0019377 Eh/α   predicted    -0.7830930E-04 ( -38.00%)
   displ. norm   :     0.1922357 α      lambda       -0.9650431E-04
   maximum displ.:     0.1810687 α      in ANC's #1, #2, #4, ...

........................................................................
.............................. CYCLE    8 ..............................
........................................................................

 iter      E             dE          RMSdq      gap      omega  full diag
   1    -13.8739132 -0.138739E+02  0.537E-02   14.12       0.0  T
   2    -13.8739134 -0.188386E-06  0.321E-02   14.12       1.0  T
   3    -13.8739135 -0.346525E-07  0.165E-03   14.12      16.2  T
   4    -13.8739135 -0.493671E-08  0.788E-04   14.12      33.9  T
   5    -13.8739135 -0.533575E-09  0.189E-04   14.12     141.6  T
     SCC iter.                  ...        0 min,  0.003 sec
     gradient                   ...        0 min,  0.002 sec
 * total energy  :   -13.6636869 Eh     change       -0.1161885E-03 Eh
   gradient norm :     0.0022802 Eh/α   predicted    -0.4904509E-04 ( -57.79%)
   displ. norm   :     0.1105989 α      lambda       -0.7307880E-04
   maximum displ.:     0.0952638 α      in ANC's #1, #2, #24, ...

........................................................................
.............................. CYCLE    9 ..............................
........................................................................

 iter      E             dE          RMSdq      gap      omega  full diag
   1    -13.8740363 -0.138740E+02  0.295E-02   14.14       0.0  T
   2    -13.8740363 -0.253504E-07  0.177E-02   14.14       1.5  T
   3    -13.8740363 -0.794780E-08  0.638E-04   14.14      41.9  T
   4    -13.8740363 -0.230095E-09  0.292E-04   14.14      91.6  T
     SCC iter.                  ...        0 min,  0.002 sec
     gradient                   ...        0 min,  0.003 sec
 * total energy  :   -13.6637550 Eh     change       -0.6812536E-04 Eh
   gradient norm :     0.0025503 Eh/α   predicted    -0.3698783E-04 ( -45.71%)
   displ. norm   :     0.2289965 α      lambda       -0.1482283E-03
   maximum displ.:     0.1772498 α      in ANC's #1, #2, #4, ...

........................................................................
.............................. CYCLE   10 ..............................
........................................................................

 iter      E             dE          RMSdq      gap      omega  full diag
   1    -13.8737918 -0.138738E+02  0.615E-02   14.16       0.0  T
   2    -13.8737920 -0.149869E-06  0.369E-02   14.16       1.0  T
   3    -13.8737920 -0.333022E-07  0.131E-03   14.16      20.3  T
   4    -13.8737920 -0.225822E-08  0.681E-04   14.16      39.2  T
   5    -13.8737920 -0.169534E-09  0.191E-04   14.16     139.6  T
     SCC iter.                  ...        0 min,  0.003 sec
     gradient                   ...        0 min,  0.002 sec
 * total energy  :   -13.6638825 Eh     change       -0.1274546E-03 Eh
   gradient norm :     0.0034508 Eh/α   predicted    -0.7799833E-04 ( -38.80%)
   displ. norm   :     0.3732624 α      lambda       -0.1914980E-03
   maximum displ.:     0.2851067 α      in ANC's #1, #2, #4, ...

........................................................................
.............................. CYCLE   11 ..............................
........................................................................

 iter      E             dE          RMSdq      gap      omega  full diag
   1    -13.8715301 -0.138715E+02  0.995E-02   14.18       0.0  T
   2    -13.8715312 -0.107799E-05  0.595E-02   14.18       1.0  T
   3    -13.8715313 -0.115791E-06  0.311E-03   14.18       8.6  T
   4    -13.8715313 -0.937931E-08  0.135E-03   14.18      19.8  T
   5    -13.8715313 -0.497824E-09  0.479E-04   14.18      55.8  T
   6    -13.8715313 -0.245425E-09  0.839E-05   14.18     318.6  T
     SCC iter.                  ...        0 min,  0.003 sec
     gradient                   ...        0 min,  0.002 sec
 * total energy  :   -13.6639907 Eh     change       -0.1082340E-03 Eh
   gradient norm :     0.0074424 Eh/α   predicted    -0.1090927E-03 (   0.79%)
   displ. norm   :     0.0753455 α      lambda       -0.8565708E-04
   maximum displ.:     0.0573533 α      in ANC's #1, #2, #24, ...

........................................................................
.............................. CYCLE   12 ..............................
........................................................................

 iter      E             dE          RMSdq      gap      omega  full diag
   1    -13.8731459 -0.138731E+02  0.249E-02   14.19       0.0  T
   2    -13.8731462 -0.350951E-06  0.143E-02   14.19       1.9  T
   3    -13.8731463 -0.152548E-07  0.283E-03   14.19       9.4  T
   4    -13.8731463 -0.735699E-08  0.616E-04   14.19      43.4  T
   5    -13.8731463 -0.206450E-09  0.316E-04   14.19      84.5  T
     SCC iter.                  ...        0 min,  0.003 sec
     gradient                   ...        0 min,  0.002 sec
 * total energy  :   -13.6640569 Eh     change       -0.6624226E-04 Eh
   gradient norm :     0.0044161 Eh/α   predicted    -0.4307292E-04 ( -34.98%)
   displ. norm   :     0.2619859 α      lambda       -0.1087577E-03
   maximum displ.:     0.1998308 α      in ANC's #1, #2, #4, ...

........................................................................
.............................. CYCLE   13 ..............................
........................................................................

 iter      E             dE          RMSdq      gap      omega  full diag
   1    -13.8735263 -0.138735E+02  0.740E-02   14.22       0.0  T
   2    -13.8735264 -0.106371E-06  0.443E-02   14.22       1.0  T
   3    -13.8735265 -0.462184E-07  0.136E-03   14.22      19.7  T
   4    -13.8735265 -0.586862E-09  0.627E-04   14.22      42.6  T
   5    -13.8735265 -0.120691E-09  0.999E-05   14.22     267.4  T
     SCC iter.                  ...        0 min,  0.003 sec
     gradient                   ...        0 min,  0.002 sec
 * total energy  :   -13.6641304 Eh     change       -0.7342329E-04 Eh
   gradient norm :     0.0034226 Eh/α   predicted    -0.5811177E-04 ( -20.85%)
   displ. norm   :     0.1207533 α      lambda       -0.5557722E-04
   maximum displ.:     0.0901202 α      in ANC's #1, #2, #24, ...

........................................................................
.............................. CYCLE   14 ..............................
........................................................................

 iter      E             dE          RMSdq      gap      omega  full diag
   1    -13.8753341 -0.138753E+02  0.383E-02   14.23       0.0  T
   2    -13.8753346 -0.475350E-06  0.224E-02   14.23       1.2  T
   3    -13.8753346 -0.220037E-07  0.271E-03   14.23       9.9  T
   4    -13.8753346 -0.386193E-08  0.634E-04   14.23      42.1  T
   5    -13.8753346 -0.199421E-09  0.306E-04   14.23      87.4  T
     SCC iter.                  ...        0 min,  0.003 sec
     gradient                   ...        0 min,  0.002 sec
 * total energy  :   -13.6641619 Eh     change       -0.3150976E-04 Eh
   gradient norm :     0.0007735 Eh/α   predicted    -0.2819223E-04 ( -10.53%)
   displ. norm   :     0.3832655 α      lambda       -0.3631454E-04
   maximum displ.:     0.2875602 α      in ANC's #1, #2, #4, ...

........................................................................
.............................. CYCLE   15 ..............................
........................................................................

 iter      E             dE          RMSdq      gap      omega  full diag
   1    -13.8714435 -0.138714E+02  0.106E-01   14.24       0.0  T
   2    -13.8714454 -0.196753E-05  0.632E-02   14.24       1.0  T
   3    -13.8714456 -0.156071E-06  0.503E-03   14.24       5.3  T
   4    -13.8714456 -0.472499E-07  0.184E-03   14.24      14.5  T
   5    -13.8714456 -0.125499E-08  0.833E-04   14.24      32.1  T
   6    -13.8714456 -0.330211E-09  0.908E-05   14.24     294.5  T
     SCC iter.                  ...        0 min,  0.003 sec
     gradient                   ...        0 min,  0.002 sec
 * total energy  :   -13.6641084 Eh     change        0.5348960E-04 Eh
   gradient norm :     0.0063235 Eh/α   predicted    -0.1934134E-04 (-136.16%)
   displ. norm   :     0.1721592 α      lambda       -0.1263346E-03
   maximum displ.:     0.1295944 α      in ANC's #1, #2, #4, ...

........................................................................
.............................. CYCLE   16 ..............................
........................................................................

 iter      E             dE          RMSdq      gap      omega  full diag
   1    -13.8742306 -0.138742E+02  0.519E-02   14.24       0.0  T
   2    -13.8742315 -0.904387E-06  0.305E-02   14.24       1.0  T
   3    -13.8742315 -0.501005E-07  0.400E-03   14.24       6.7  T
   4    -13.8742316 -0.196589E-07  0.110E-03   14.24      24.3  T
   5    -13.8742316 -0.591823E-09  0.535E-04   14.24      49.9  T
   6    -13.8742316 -0.111756E-09  0.554E-05   14.24     482.6  T
     SCC iter.                  ...        0 min,  0.004 sec
     gradient                   ...        0 min,  0.002 sec
 * total energy  :   -13.6641742 Eh     change       -0.6579141E-04 Eh
   gradient norm :     0.0013407 Eh/α   predicted    -0.6504042E-04 (  -1.14%)
   displ. norm   :     0.0098469 α      lambda       -0.4551169E-05
   maximum displ.:     0.0069949 α      in ANC's #1, #2, #24, ...

........................................................................
.............................. CYCLE   17 ..............................
........................................................................

 iter      E             dE          RMSdq      gap      omega  full diag
   1    -13.8751370 -0.138751E+02  0.854E-03   14.25       0.0  T
   2    -13.8751371 -0.683489E-07  0.475E-03   14.25       5.6  T
   3    -13.8751371 -0.390185E-08  0.120E-03   14.25      22.3  T
   4    -13.8751371 -0.819448E-09  0.299E-04   14.25      89.2  T
   5    -13.8751371 -0.239631E-10  0.152E-04   14.25     176.0  T
     SCC iter.                  ...        0 min,  0.003 sec
     gradient                   ...        0 min,  0.002 sec
 * total energy  :   -13.6641770 Eh     change       -0.2838864E-05 Eh
   gradient norm :     0.0003744 Eh/α   predicted    -0.2277280E-05 ( -19.78%)
   displ. norm   :     0.0109147 α      lambda       -0.4090928E-06
   maximum displ.:     0.0089071 α      in ANC's #1, #2, #7, ...

........................................................................
.............................. CYCLE   18 ..............................
........................................................................

 iter      E             dE          RMSdq      gap      omega  full diag
   1    -13.8749707 -0.138750E+02  0.327E-03   14.25       0.0  T
   2    -13.8749707 -0.540667E-08  0.191E-03   14.25      14.0  T
   3    -13.8749707 -0.136893E-09  0.324E-04   14.25      82.5  T
   4    -13.8749707 -0.148136E-09  0.639E-05   14.25     418.3  T
     SCC iter.                  ...        0 min,  0.002 sec
     gradient                   ...        0 min,  0.002 sec
 * total energy  :   -13.6641773 Eh     change       -0.2706139E-06 Eh
   gradient norm :     0.0002655 Eh/α   predicted    -0.2063398E-06 ( -23.75%)
   displ. norm   :     0.0086131 α      lambda       -0.1569189E-06
   maximum displ.:     0.0065995 α      in ANC's #1, #2, #24, ...

   *** GEOMETRY OPTIMIZATION CONVERGED AFTER 18 ITERATIONS ***

------------------------------------------------------------------------
 total energy gain   :        -0.0021907 Eh       -1.3747 kcal/mol
 total RMSD          :         0.6306141 a0        0.3337 Å
 total power (kW/mol):        -0.3195322 (step)  -42.9611 (real)
------------------------------------------------------------------------

 ANCopt (total)                0 d,  0 h,  0 min,  0.134 sec
 optimizer setup                ...        0 min,  0.000 sec (  0.108%)
 model hessian                  ...        0 min,  0.009 sec (  6.748%)
 ANC generation                 ...        0 min,  0.001 sec (  0.428%)
 coordinate transformation      ...        0 min,  0.000 sec (  0.120%)
 single point calculation       ...        0 min,  0.114 sec ( 85.138%)
 optimization log               ...        0 min,  0.003 sec (  2.050%)
 hessian update                 ...        0 min,  0.003 sec (  1.878%)
 rational function              ...        0 min,  0.003 sec (  2.498%)

================
 final structure:
================
14
 xtb: 6.7.1 (edcfbbe)
C           -2.92870421820965        0.20066754634463        1.92156139455374
H           -2.67428554322702       -0.84491234556847        1.76221901381731
H           -3.96914175344396        0.34691408674268        1.63876091017788
H           -2.82632674108846        0.41506862523480        2.98190205100823
C           -2.01984153177977        1.09879154743365        1.09024497288035
H           -2.08403071792692        0.79197517206383        0.04317791625981
H           -0.98415559167986        0.96326242595771        1.41092937613528
C           -2.38607989176304        2.58023213377180        1.18754267533971
H           -1.79545378907356        3.13417652253206        0.45343616008183
H           -3.43959899994087        2.70738974076642        0.92719591313367
C           -2.13133083509289        3.17129217568257        2.56938784552031
H           -1.09325240390532        3.02393820693377        2.86017014846134
H           -2.33795803667116        4.23930705939599        2.56703012449271
H           -2.76805562619732        2.70604966270855        3.31698542813791

 Bond Distances (Angstroems)
 ---------------------------
C1-H2=1.0878         C1-H3=1.0881         C1-H4=1.0866         C1-C5=1.5244         H2-C1=1.0878         H3-C1=1.0881         
H4-C1=1.0866         C5-C1=1.5244         C5-H6=1.0930         C5-H7=1.0926         C5-C8=1.5291         H6-C5=1.0930         
H7-C5=1.0926         C8-C5=1.5291         C8-H9=1.0930         C8-H10=1.0926        C8-C11=1.5244        H9-C8=1.0930         
H10-C8=1.0926        C11-C8=1.5244        C11-H12=1.0881       C11-H13=1.0878       C11-H14=1.0866       H12-C11=1.0881       
H13-C11=1.0878       H14-C11=1.0866       
 C  H  Rav=1.0896 sigma=0.0026  Rmin=1.0866  Rmax=1.0930    10
 C  C  Rav=1.5260 sigma=0.0022  Rmin=1.5244  Rmax=1.5291     3

 selected bond angles (degree)
 --------------------
H3-C1-H2=108.35                H4-C1-H2=108.09                H4-C1-H3=108.49                C5-C1-H2=110.30                
C5-C1-H3=110.44                C5-C1-H4=111.08                H6-C5-C1=108.79                H7-C5-C1=109.39                
H7-C5-H6=107.58                C8-C5-C1=113.16                C8-C5-H6=108.59                C8-C5-H7=109.18                
H9-C8-C5=108.59                H10-C8-C5=109.18               H10-C8-H9=107.58               C11-C8-C5=113.16               
C11-C8-H9=108.79               C11-C8-H10=109.39              

 selected dihedral angles (degree)
 ---------------------------------
H6-C5-C1-H2= 55.09            H6-C5-C1-H3=295.35            H6-C5-C1-H4=174.93            H7-C5-C1-H2=297.84            
H7-C5-C1-H3=178.10            H7-C5-C1-H4= 57.67            C8-C5-C1-H2=175.88            C8-C5-C1-H3= 56.14            
C8-C5-C1-H4=295.71            H9-C8-C5-C1=188.58            H9-C8-C5-H6=309.47            H9-C8-C5-H7= 66.50            
H10-C8-C5-C1=305.61           H10-C8-C5-H6= 66.50           H10-C8-C5-H7=183.52           C11-C8-C5-C1= 67.69           
C11-C8-C5-H6=188.58           C11-C8-C5-H7=305.61           
           -------------------------------------------------
          |                Final Singlepoint                |
           -------------------------------------------------

          ...................................................
          :                      SETUP                      :
          :.................................................:
          :  # basis functions                  26          :
          :  # atomic orbitals                  26          :
          :  # shells                           18          :
          :  # electrons                        26          :
          :  max. iterations                   250          :
          :  Hamiltonian                  GFN2-xTB          :
          :  restarted?                      false          :
          :  GBSA solvation                  false          :
          :  PC potential                    false          :
          :  electronic temp.          300.0000000     K    :
          :  accuracy                    1.0000000          :
          :  -> integral cutoff          0.2500000E+02      :
          :  -> integral neglect         0.1000000E-07      :
          :  -> SCF convergence          0.1000000E-05 Eh   :
          :  -> wf. convergence          0.1000000E-03 e    :
          :  Broyden damping             0.4000000          :
          :  net charge                          0          :
          :  unpaired electrons                  0          :
          ...................................................

 iter      E             dE          RMSdq      gap      omega  full diag
   1    -13.8749707 -0.138750E+02  0.332E-05   14.25       0.0  T
   2    -13.8749707 -0.289546E-12  0.188E-05   14.25    1420.8  T
   3    -13.8749707 -0.586198E-13  0.209E-06   14.25   12782.4  T

   *** convergence criteria satisfied after 3 iterations ***

         #    Occupation            Energy/Eh            Energy/eV
      -------------------------------------------------------------
         1        2.0000           -0.6177948             -16.8111
       ...           ...                  ...                  ...
         7        2.0000           -0.4849934             -13.1973
         8        2.0000           -0.4662752             -12.6880
         9        2.0000           -0.4619605             -12.5706
        10        2.0000           -0.4481476             -12.1947
        11        2.0000           -0.4258244             -11.5873
        12        2.0000           -0.4235646             -11.5258
        13        2.0000           -0.4221071             -11.4861 (HOMO)
        14                          0.1015351               2.7629 (LUMO)
        15                          0.1112948               3.0285
        16                          0.1370503               3.7293
        17                          0.1487484               4.0476
        18                          0.1498329               4.0772
       ...                                ...                  ...
        26                          0.3003251               8.1723
      -------------------------------------------------------------
                  HL-Gap            0.5236421 Eh           14.2490 eV
             Fermi-level           -0.1602860 Eh           -4.3616 eV

 SCC (total)                   0 d,  0 h,  0 min,  0.005 sec
 SCC setup                      ...        0 min,  0.000 sec (  2.807%)
 Dispersion                     ...        0 min,  0.000 sec (  2.505%)
 classical contributions        ...        0 min,  0.000 sec (  1.248%)
 integral evaluation            ...        0 min,  0.001 sec ( 13.970%)
 iterations                     ...        0 min,  0.002 sec ( 35.222%)
 molecular gradient             ...        0 min,  0.002 sec ( 40.526%)
 printout                       ...        0 min,  0.000 sec (  3.354%)

         :::::::::::::::::::::::::::::::::::::::::::::::::::::
         ::                     SUMMARY                     ::
         :::::::::::::::::::::::::::::::::::::::::::::::::::::
         :: total energy             -13.664177283248 Eh    ::
         :: gradient norm              0.000265380243 Eh/a0 ::
         :: HOMO-LUMO gap             14.249027934681 eV    ::
         ::.................................................::
         :: SCC energy               -13.874963630914 Eh    ::
         :: -> isotropic ES            0.002972047806 Eh    ::
         :: -> anisotropic ES          0.004971386027 Eh    ::
         :: -> anisotropic XC          0.008995264324 Eh    ::
         :: -> dispersion             -0.006301619907 Eh    ::
         :: repulsion energy           0.210786347666 Eh    ::
         :: add. restraining           0.000000000000 Eh    ::
         :: total charge              -0.000000000000 e     ::
         :::::::::::::::::::::::::::::::::::::::::::::::::::::

           -------------------------------------------------
          |                Property Printout                |
           -------------------------------------------------

    * Orbital Energies and Occupations

         #    Occupation            Energy/Eh            Energy/eV
      -------------------------------------------------------------
         1        2.0000           -0.6177948             -16.8111
         2        2.0000           -0.5960622             -16.2197
         3        2.0000           -0.5731238             -15.5955
         4        2.0000           -0.5475237             -14.8989
         5        2.0000           -0.5064828             -13.7821
         6        2.0000           -0.5058720             -13.7655
         7        2.0000           -0.4849934             -13.1973
         8        2.0000           -0.4662752             -12.6880
         9        2.0000           -0.4619605             -12.5706
        10        2.0000           -0.4481476             -12.1947
        11        2.0000           -0.4258244             -11.5873
        12        2.0000           -0.4235646             -11.5258
        13        2.0000           -0.4221071             -11.4861 (HOMO)
        14                          0.1015351               2.7629 (LUMO)
        15                          0.1112948               3.0285
        16                          0.1370503               3.7293
        17                          0.1487484               4.0476
        18                          0.1498329               4.0772
        19                          0.1576837               4.2908
        20                          0.2026890               5.5154
        21                          0.2067081               5.6248
        22                          0.2346305               6.3846
        23                          0.2486122               6.7651
        24                          0.2784458               7.5769
       ...                                ...                  ...
        26                          0.3003251               8.1723
      -------------------------------------------------------------
                  HL-Gap            0.5236421 Eh           14.2490 eV
             Fermi-level           -0.1602860 Eh           -4.3616 eV

     #   Z          covCN         q      C6AA      α(0)
     1   6 C        3.751    -0.101    22.493     6.763
     2   1 H        0.925     0.030     2.585     2.514
     3   1 H        0.925     0.033     2.551     2.497
     4   1 H        0.925     0.035     2.511     2.478
     5   6 C        3.800    -0.053    21.518     6.605
     6   1 H        0.924     0.026     2.644     2.543
     7   1 H        0.924     0.030     2.592     2.518
     8   6 C        3.800    -0.053    21.518     6.605
     9   1 H        0.924     0.026     2.644     2.543
    10   1 H        0.924     0.030     2.592     2.518
    11   6 C        3.751    -0.101    22.493     6.763
    12   1 H        0.925     0.033     2.551     2.497
    13   1 H        0.925     0.030     2.585     2.514
    14   1 H        0.925     0.035     2.511     2.478

 Mol. C6AA /au·bohr⁶  :       1208.189713
 Mol. C8AA /au·bohr⁸  :      24487.153129
 Mol. α(0) /au        :         51.836672


Wiberg/Mayer (AO) data.
largest (>0.10) Wiberg bond orders for each atom

 ---------------------------------------------------------------------------
     #   Z sym  total        # sym  WBO       # sym  WBO       # sym  WBO
 ---------------------------------------------------------------------------
     1   6 C    3.997 --     5 C    1.020     3 H    0.988     2 H    0.988
                             4 H    0.986
     2   1 H    0.999 --     1 C    0.988
     3   1 H    0.999 --     1 C    0.988
     4   1 H    0.999 --     1 C    0.986
     5   6 C    3.998 --     1 C    1.020     8 C    1.008     6 H    0.979
                             7 H    0.978
     6   1 H    0.999 --     5 C    0.979
     7   1 H    0.999 --     5 C    0.978
     8   6 C    3.998 --    11 C    1.020     5 C    1.008     9 H    0.979
                            10 H    0.978
     9   1 H    0.999 --     8 C    0.979
    10   1 H    0.999 --     8 C    0.978
    11   6 C    3.997 --     8 C    1.020    12 H    0.988    13 H    0.988
                            14 H    0.986
    12   1 H    0.999 --    11 C    0.988
    13   1 H    0.999 --    11 C    0.988
    14   1 H    0.999 --    11 C    0.986
 ---------------------------------------------------------------------------

Topologies differ in total number of bonds
Writing topology from bond orders to xtbtopo.mol

molecular dipole:
                 x           y           z       tot (Debye)
 q only:       -0.004      -0.002       0.015
   full:       -0.003      -0.002       0.012       0.031
molecular quadrupole (traceless):
                xx          xy          yy          xz          yz          zz
 q only:       -0.055       0.002      -0.107      -0.163       0.051       0.162
  q+dip:        0.551      -0.187      -0.519       0.083      -0.047      -0.032
   full:        0.245      -0.090      -0.279      -0.021       0.003       0.034

           -------------------------------------------------
          |                Geometry Summary                 |
           -------------------------------------------------

      molecular mass/u    :       58.1223511
   center of mass at/Å    :       -2.3718196       1.7602438       1.7102191
Note: The following floating-point exceptions are signalling: IEEE_UNDERFLOW_FLAG IEEE_DENORMAL
normal termination of xtb
  moments of inertia/u·Å² :        0.3760085E+02   0.1056027E+03   0.1228889E+03
rotational constants/cm⁻¹ :        0.4483311E+00   0.1596326E+00   0.1371779E+00

 * 13 selected distances

     #   Z          #   Z                                           value/Å
     1   6 C        2   1 H                                       1.0878219
     1   6 C        3   1 H                                       1.0880600
     1   6 C        4   1 H                                       1.0866331
     1   6 C        5   6 C                                       1.5243837
     5   6 C        6   1 H                                       1.0929804
     5   6 C        7   1 H                                       1.0926354
     5   6 C        8   6 C                                       1.5291383 (max)
     8   6 C        9   1 H                                       1.0929804
     8   6 C       10   1 H                                       1.0926354
     8   6 C       11   6 C                                       1.5243837
    11   6 C       12   1 H                                       1.0880600
    11   6 C       13   1 H                                       1.0878218
    11   6 C       14   1 H                                       1.0866331 (min)

 * 2 distinct bonds (by element types)

   Z      Z             #   av. dist./Å        max./Å        min./Å
   1 H    6 C          10     1.0896262     1.0929804     1.0866331
   6 C    6 C           3     1.5259685     1.5291383     1.5243837


optimized geometry written to: xtbopt.xyz


           -------------------------------------------------
          | TOTAL ENERGY              -13.664177283248 Eh   |
          | GRADIENT NORM               0.000265380243 Eh/α |
          | HOMO-LUMO GAP              14.249027934681 eV   |
           -------------------------------------------------

------------------------------------------------------------------------
 * finished run on 2026/08/11 at 11:11:57.315     
------------------------------------------------------------------------
 total:
 * wall-time:     0 d,  0 h,  0 min,  0.270 sec
 *  cpu-time:     0 d,  0 h,  0 min,  1.036 sec
 * ratio c/w:     3.840 speedup
 SCF:
 * wall-time:     0 d,  0 h,  0 min,  0.102 sec
 *  cpu-time:     0 d,  0 h,  0 min,  0.397 sec
 * ratio c/w:     3.891 speedup
 ANC optimizer:
 * wall-time:     0 d,  0 h,  0 min,  0.143 sec
 *  cpu-time:     0 d,  0 h,  0 min,  0.545 sec
 * ratio c/w:     3.804 speedup

