14
 energy: -13.664177283248 gnorm: 0.000265380243 xtb: 6.7.1 (edcfbbe)
C           -2.92870421820965        0.20066754634463        1.92156139455374
H           -2.67428554322702       -0.84491234556847        1.76221901381731
H           -3.96914175344396        0.34691408674268        1.63876091017788
H           -2.82632674108846        0.41506862523480        2.98190205100823
C           -2.01984153177977        1.09879154743365        1.09024497288035
H           -2.08403071792692        0.79197517206383        0.04317791625981
H           -0.98415559167986        0.96326242595771        1.41092937613528
C           -2.38607989176304        2.58023213377180        1.18754267533971
H           -1.79545378907356        3.13417652253206        0.45343616008183
H           -3.43959899994087        2.70738974076642        0.92719591313367
C           -2.13133083509289        3.17129217568257        2.56938784552031
H           -1.09325240390532        3.02393820693377        2.86017014846134
H           -2.33795803667116        4.23930705939599        2.56703012449271
H           -2.76805562619732        2.70604966270855        3.31698542813791
