      -----------------------------------------------------------      
     |                   =====================                   |     
     |                           x T B                           |     
     |                   =====================                   |     
     |                         S. Grimme                         |     
     |          Mulliken Center for Theoretical Chemistry        |     
     |                    University of Bonn                     |     
      -----------------------------------------------------------      

   * xtb version 6.7.1 (edcfbbe) compiled by 'conda@5dfe00f5fb80' on 2026-06-10

   xtb is free software: you can redistribute it and/or modify it under
   the terms of the GNU Lesser General Public License as published by
   the Free Software Foundation, either version 3 of the License, or
   (at your option) any later version.
   
   xtb is distributed in the hope that it will be useful,
   but WITHOUT ANY WARRANTY; without even the implied warranty of
   MERCHANTABILITY or FITNESS FOR A PARTICULAR PURPOSE.  See the
   GNU Lesser General Public License for more details.
   
   Cite this work as:
   * C. Bannwarth, E. Caldeweyher, S. Ehlert, A. Hansen, P. Pracht,
     J. Seibert, S. Spicher, S. Grimme, WIREs Comput. Mol. Sci., 2020, 11,
     e01493. DOI: 10.1002/wcms.1493
   
   for GFN2-xTB:
   * C. Bannwarth, S. Ehlert and S. Grimme., J. Chem. Theory Comput., 2019,
     15, 1652-1671. DOI: 10.1021/acs.jctc.8b01176
   for GFN1-xTB:
   * S. Grimme, C. Bannwarth, P. Shushkov, J. Chem. Theory Comput., 2017,
     13, 1989-2009. DOI: 10.1021/acs.jctc.7b00118
   for GFN0-xTB:
   * P. Pracht, E. Caldeweyher, S. Ehlert, S. Grimme, ChemRxiv, 2019, preprint.
     DOI: 10.26434/chemrxiv.8326202.v1
   for GFN-FF:
   * S. Spicher and S. Grimme, Angew. Chem. Int. Ed., 2020, 59, 15665-15673.
     DOI: 10.1002/anie.202004239
   
   for ALPB and GBSA implicit solvation:
   * S. Ehlert, M. Stahn, S. Spicher, S. Grimme, J. Chem. Theory Comput.,
     2021, 17, 4250-4261. DOI: 10.1021/acs.jctc.1c00471
   
   for ddCOSMO and CPCM-X implicit solvation:
   * M. Stahn, S. Ehlert, S. Grimme, J. Phys. Chem. A,
     2023, XX, XXXX-XXXX. DOI: 10.1021/acs.jpca.3c04382
   
   for DFT-D4:
   * E. Caldeweyher, C. Bannwarth and S. Grimme, J. Chem. Phys., 2017,
     147, 034112. DOI: 10.1063/1.4993215
   * E. Caldeweyher, S. Ehlert, A. Hansen, H. Neugebauer, S. Spicher,
     C. Bannwarth and S. Grimme, J. Chem. Phys., 2019, 150, 154122.
     DOI: 10.1063/1.5090222
   * E. Caldeweyher, J.-M. Mewes, S. Ehlert and S. Grimme, Phys. Chem. Chem. Phys.
     2020, 22, 8499-8512. DOI: 10.1039/D0CP00502A
   
   for sTDA-xTB:
   * S. Grimme and C. Bannwarth, J. Chem. Phys., 2016, 145, 054103.
     DOI: 10.1063/1.4959605
   
   in the mass-spec context:
   * V. Asgeirsson, C. Bauer and S. Grimme, Chem. Sci., 2017, 8, 4879.
     DOI: 10.1039/c7sc00601b
   * J. Koopman and S. Grimme, ACS Omega 2019, 4, 12, 15120-15133.
     DOI: 10.1021/acsomega.9b02011
   
   for metadynamics refer to:
   * S. Grimme, J. Chem. Theory Comput., 2019, 155, 2847-2862
     DOI: 10.1021/acs.jctc.9b00143
   
   for SPH calculations refer to:
   * S. Spicher and S. Grimme, J. Chem. Theory Comput., 2021, 17, 1701-1714
     DOI: 10.1021/acs.jctc.0c01306
   
   for ONIOM refer to:
   * C. Plett, A. Katbashev, S. Ehlert, S. Grimme, M. Bursch,
     Phys. Chem. Chem. Phys., 2023, 25, 17860-17868. DOI: 10.1039/D3CP02178E
   
   for DIPRO refer to:
   * J. Kohn, N. Gildemeister, S. Grimme, D. Fazzi, A. Hansen,
     J. Chem. Phys., 2023, just accepted.
   
   for PTB refer to:
   * S. Grimme, M. Mueller, A. Hansen, J. Chem. Phys., 2023, 158, 124111.
     DOI: 10.1063/5.0137838
   
   with help from (in alphabetical order)
   P. Atkinson, C. Bannwarth, F. Bohle, G. Brandenburg, E. Caldeweyher
   M. Checinski, S. Dohm, S. Ehlert, S. Ehrlich, I. Gerasimov, C. Hölzer
   A. Katbashev, J. Kohn, J. Koopman, C. Lavigne, S. Lehtola, F. März, M. Müller,
   F. Musil, H. Neugebauer, J. Pisarek, C. Plett, P. Pracht, F. Pultar,
   J. Seibert, P. Shushkov, S. Spicher, M. Stahn, M. Steiner, T. Strunk,
   J. Stückrath, T. Rose, and J. Unsleber
   
 * started run on 2026/08/11 at 11:12:00.118     
   ID    Z sym.   atoms
    1    6 C      1, 5, 8, 11
    2    1 H      2-4, 6, 7, 9, 10, 12-14

           -------------------------------------------------
          |                Calculation Setup                |
           -------------------------------------------------

          program call               : xtb input.xyz --gfn2 --opt tight --chrg 0 --uhf 0 --iterations 250
          coordinate file            : input.xyz
          omp threads                :                     4


           -------------------------------------------------
          |                 G F N 2 - x T B                 |
           -------------------------------------------------

        Reference                      10.1021/acs.jctc.8b01176
      * Hamiltonian:
        H0-scaling (s, p, d)           1.850000    2.230000    2.230000
        zeta-weighting                 0.500000
      * Dispersion:
        s8                             2.700000
        a1                             0.520000
        a2                             5.000000
        s9                             5.000000
      * Repulsion:
        kExp                           1.500000    1.000000
        rExp                           1.000000
      * Coulomb:
        alpha                          2.000000
        third order                    shell-resolved
        anisotropic                    true
        a3                             3.000000
        a5                             4.000000
        cn-shift                       1.200000
        cn-exp                         4.000000
        max-rad                        5.000000


          ...................................................
          :                      SETUP                      :
          :.................................................:
          :  # basis functions                  26          :
          :  # atomic orbitals                  26          :
          :  # shells                           18          :
          :  # electrons                        26          :
          :  max. iterations                   250          :
          :  Hamiltonian                  GFN2-xTB          :
          :  restarted?                      false          :
          :  GBSA solvation                  false          :
          :  PC potential                    false          :
          :  electronic temp.          300.0000000     K    :
          :  accuracy                    1.0000000          :
          :  -> integral cutoff          0.2500000E+02      :
          :  -> integral neglect         0.1000000E-07      :
          :  -> SCF convergence          0.1000000E-05 Eh   :
          :  -> wf. convergence          0.1000000E-03 e    :
          :  Broyden damping             0.4000000          :
          :  net charge                          0          :
          :  unpaired electrons                  0          :
          ...................................................

 iter      E             dE          RMSdq      gap      omega  full diag
   1    -13.8273986 -0.138274E+02  0.253E+00   13.80       0.0  T
   2    -13.8668099 -0.394113E-01  0.129E+00   13.42       1.0  T
   3    -13.8672367 -0.426795E-03  0.694E-01   13.40       1.0  T
   4    -13.8673495 -0.112857E-03  0.919E-02   13.42       1.0  T
   5    -13.8673557 -0.611585E-05  0.504E-02   13.41       1.0  T
   6    -13.8673561 -0.402245E-06  0.244E-03   13.41      10.9  T
   7    -13.8673561 -0.843392E-08  0.729E-04   13.41      36.7  T
   8    -13.8673561 -0.802761E-09  0.165E-04   13.41     162.0  T

   *** convergence criteria satisfied after 8 iterations ***

         #    Occupation            Energy/Eh            Energy/eV
      -------------------------------------------------------------
         1        2.0000           -0.6167290             -16.7821
       ...           ...                  ...                  ...
         7        2.0000           -0.4896014             -13.3227
         8        2.0000           -0.4747492             -12.9186
         9        2.0000           -0.4537519             -12.3472
        10        2.0000           -0.4500548             -12.2466
        11        2.0000           -0.4292603             -11.6808
        12        2.0000           -0.4267828             -11.6134
        13        2.0000           -0.4158710             -11.3164 (HOMO)
        14                          0.0771168               2.0985 (LUMO)
        15                          0.1169937               3.1836
        16                          0.1264190               3.4400
        17                          0.1479340               4.0255
        18                          0.1580307               4.3002
       ...                                ...                  ...
        26                          0.3177927               8.6476
      -------------------------------------------------------------
                  HL-Gap            0.4929878 Eh           13.4149 eV
             Fermi-level           -0.1693771 Eh           -4.6090 eV

 SCC (total)                   0 d,  0 h,  0 min,  0.013 sec
 SCC setup                      ...        0 min,  0.000 sec (  1.889%)
 Dispersion                     ...        0 min,  0.000 sec (  2.058%)
 classical contributions        ...        0 min,  0.000 sec (  0.867%)
 integral evaluation            ...        0 min,  0.002 sec ( 13.552%)
 iterations                     ...        0 min,  0.006 sec ( 45.262%)
 molecular gradient             ...        0 min,  0.005 sec ( 34.938%)
 printout                       ...        0 min,  0.000 sec (  1.295%)

         :::::::::::::::::::::::::::::::::::::::::::::::::::::
         ::                     SUMMARY                     ::
         :::::::::::::::::::::::::::::::::::::::::::::::::::::
         :: total energy             -13.661320316642 Eh    ::
         :: gradient norm              0.013689882309 Eh/a0 ::
         :: HOMO-LUMO gap             13.414881070951 eV    ::
         ::.................................................::
         :: SCC energy               -13.867350976888 Eh    ::
         :: -> isotropic ES            0.002915751170 Eh    ::
         :: -> anisotropic ES          0.005011032206 Eh    ::
         :: -> anisotropic XC          0.009053199759 Eh    ::
         :: -> dispersion             -0.006051229802 Eh    ::
         :: repulsion energy           0.206030660246 Eh    ::
         :: add. restraining           0.000000000000 Eh    ::
         :: total charge               0.000000000000 e     ::
         :::::::::::::::::::::::::::::::::::::::::::::::::::::

      ----------------------------------------------------------- 
     |                   =====================                   |
     |                        A N C O P T                        |
     |                   =====================                   |
     |               Approximate Normal Coordinate               |
     |                Rational Function Optimizer                |
      ----------------------------------------------------------- 
      ----------------------------------------------------------- 
     |                   =====================                   |
     |                        A N C O P T                        |
     |                   =====================                   |
     |               Approximate Normal Coordinate               |
     |                Rational Function Optimizer                |
      ----------------------------------------------------------- 

          ...................................................
          :                      SETUP                      :
          :.................................................:
          :   optimization level             tight          :
          :   max. optcycles                   200          :
          :   ANC micro-cycles                  20          :
          :   degrees of freedom                36          :
          :.................................................:
          :   RF solver                   davidson          :
          :   write xtbopt.log                true          :
          :   linear?                        false          :
          :   energy convergence         0.1000000E-05 Eh   :
          :   grad. convergence          0.8000000E-03 Eh/α :
          :   maxmium RF displ.          1.0000000          :
          :   Hlow (freq-cutoff)         0.1000000E-01      :
          :   Hmax (freq-cutoff)         5.0000000          :
          :   S6 in model hess.         20.0000000          :
          ...................................................

generating ANC from exact Hessian ...
Using Lindh-Hessian (1995)
 Shifting diagonal of input Hessian by    6.0855646268020659E-003
 Lowest  eigenvalues of input Hessian
    0.000000    0.000000    0.000000    0.000000    0.000000    0.000000
    0.010000    0.013354    0.013641    0.019328    0.021716    0.046526
    0.046670    0.057347    0.058786    0.059861    0.062023    0.068317
 Highest eigenvalues
    1.108827    1.130671    1.157023    1.210468    1.211740    1.286521


........................................................................
.............................. CYCLE    1 ..............................
........................................................................

 iter      E             dE          RMSdq      gap      omega  full diag
   1    -13.8673561 -0.138674E+02  0.237E-05   13.41       0.0  T
   2    -13.8673561 -0.193268E-11  0.104E-05   13.41    2557.8  T
   3    -13.8673561 -0.301981E-13  0.452E-06   13.41    5908.0  T
     SCC iter.                  ...        0 min,  0.002 sec
     gradient                   ...        0 min,  0.005 sec
 * total energy  :   -13.6613203 Eh     change       -0.1321787E-10 Eh
   gradient norm :     0.0136895 Eh/α   predicted     0.0000000E+00 (-100.00%)
   displ. norm   :     0.1571937 α      lambda       -0.1014364E-02
   maximum displ.:     0.0885155 α      in ANC's #8, #5, #1, ...

........................................................................
.............................. CYCLE    2 ..............................
........................................................................

 iter      E             dE          RMSdq      gap      omega  full diag
   1    -13.8706402 -0.138706E+02  0.148E-01   13.67       0.0  T
   2    -13.8706412 -0.100399E-05  0.867E-02   13.67       1.0  T
   3    -13.8706414 -0.228103E-06  0.258E-03   13.67      10.3  T
   4    -13.8706414 -0.314090E-08  0.114E-03   13.67      23.4  T
   5    -13.8706414 -0.390202E-09  0.231E-04   13.67     115.6  T
   6    -13.8706414 -0.785736E-10  0.924E-05   13.67     289.4  T
     SCC iter.                  ...        0 min,  0.004 sec
     gradient                   ...        0 min,  0.005 sec
 * total energy  :   -13.6619094 Eh     change       -0.5891157E-03 Eh
   gradient norm :     0.0051949 Eh/α   predicted    -0.5197130E-03 ( -11.78%)
   displ. norm   :     0.1373920 α      lambda       -0.2316925E-03
   maximum displ.:     0.1227983 α      in ANC's #1, #5, #6, ...

........................................................................
.............................. CYCLE    3 ..............................
........................................................................

 iter      E             dE          RMSdq      gap      omega  full diag
   1    -13.8722837 -0.138723E+02  0.541E-02   13.69       0.0  T
   2    -13.8722841 -0.483803E-06  0.315E-02   13.69       1.0  T
   3    -13.8722842 -0.281157E-07  0.225E-03   13.69      11.9  T
   4    -13.8722842 -0.443914E-08  0.612E-04   13.69      43.7  T
   5    -13.8722842 -0.351264E-09  0.267E-04   13.69     100.2  T
     SCC iter.                  ...        0 min,  0.003 sec
     gradient                   ...        0 min,  0.005 sec
 * total energy  :   -13.6621079 Eh     change       -0.1985174E-03 Eh
   gradient norm :     0.0022090 Eh/α   predicted    -0.1180312E-03 ( -40.54%)
   displ. norm   :     0.2367350 α      lambda       -0.3182327E-03
   maximum displ.:     0.2187594 α      in ANC's #1, #5, #6, ...

........................................................................
.............................. CYCLE    4 ..............................
........................................................................

 iter      E             dE          RMSdq      gap      omega  full diag
   1    -13.8733159 -0.138733E+02  0.771E-02   13.68       0.0  T
   2    -13.8733163 -0.388462E-06  0.455E-02   13.68       1.0  T
   3    -13.8733164 -0.534114E-07  0.186E-03   13.68      14.4  T
   4    -13.8733164 -0.223601E-08  0.782E-04   13.68      34.2  T
   5    -13.8733164 -0.297785E-09  0.158E-04   13.68     169.5  T
     SCC iter.                  ...        0 min,  0.003 sec
     gradient                   ...        0 min,  0.005 sec
 * total energy  :   -13.6623990 Eh     change       -0.2910301E-03 Eh
   gradient norm :     0.0047161 Eh/α   predicted    -0.1680332E-03 ( -42.26%)
   displ. norm   :     0.3125069 α      lambda       -0.3956998E-03
   maximum displ.:     0.2951714 α      in ANC's #1, #5, #6, ...

........................................................................
.............................. CYCLE    5 ..............................
........................................................................

 iter      E             dE          RMSdq      gap      omega  full diag
   1    -13.8731649 -0.138732E+02  0.950E-02   13.66       0.0  T
   2    -13.8731652 -0.216356E-06  0.563E-02   13.66       1.0  T
   3    -13.8731652 -0.774757E-07  0.201E-03   13.65      13.3  T
   4    -13.8731652 -0.573366E-08  0.103E-03   13.65      26.0  T
   5    -13.8731652 -0.551116E-09  0.157E-04   13.65     170.7  T
   6    -13.8731652 -0.122604E-10  0.459E-05   13.65     582.3  T
     SCC iter.                  ...        0 min,  0.004 sec
     gradient                   ...        0 min,  0.005 sec
 * total energy  :   -13.6627744 Eh     change       -0.3753972E-03 Eh
   gradient norm :     0.0073751 Eh/α   predicted    -0.2171656E-03 ( -42.15%)
   displ. norm   :     0.2492866 α      lambda       -0.3445387E-03
   maximum displ.:     0.2384899 α      in ANC's #1, #5, #4, ...

........................................................................
.............................. CYCLE    6 ..............................
........................................................................

 iter      E             dE          RMSdq      gap      omega  full diag
   1    -13.8728988 -0.138729E+02  0.731E-02   13.64       0.0  T
   2    -13.8728990 -0.218413E-06  0.434E-02   13.64       1.0  T
   3    -13.8728990 -0.441942E-07  0.169E-03   13.63      15.9  T
   4    -13.8728990 -0.897922E-08  0.864E-04   13.63      30.9  T
   5    -13.8728990 -0.287326E-09  0.238E-04   13.63     112.3  T
     SCC iter.                  ...        0 min,  0.003 sec
     gradient                   ...        0 min,  0.005 sec
 * total energy  :   -13.6631023 Eh     change       -0.3279630E-03 Eh
   gradient norm :     0.0075348 Eh/α   predicted    -0.1829750E-03 ( -44.21%)
   displ. norm   :     0.2184684 α      lambda       -0.3427694E-03
   maximum displ.:     0.2103582 α      in ANC's #1, #5, #4, ...

........................................................................
.............................. CYCLE    7 ..............................
........................................................................

 iter      E             dE          RMSdq      gap      omega  full diag
   1    -13.8730886 -0.138731E+02  0.617E-02   13.64       0.0  T
   2    -13.8730888 -0.245381E-06  0.366E-02   13.64       1.0  T
   3    -13.8730889 -0.341136E-07  0.162E-03   13.64      16.5  T
   4    -13.8730889 -0.100410E-07  0.791E-04   13.64      33.8  T
   5    -13.8730889 -0.339440E-09  0.280E-04   13.64      95.5  T
     SCC iter.                  ...        0 min,  0.003 sec
     gradient                   ...        0 min,  0.004 sec
 * total energy  :   -13.6634239 Eh     change       -0.3215419E-03 Eh
   gradient norm :     0.0060618 Eh/α   predicted    -0.1795644E-03 ( -44.16%)
   displ. norm   :     0.2541615 α      lambda       -0.3979743E-03
   maximum displ.:     0.2453895 α      in ANC's #1, #5, #24, ...

........................................................................
.............................. CYCLE    8 ..............................
........................................................................

 iter      E             dE          RMSdq      gap      omega  full diag
   1    -13.8731393 -0.138731E+02  0.688E-02   13.68       0.0  T
   2    -13.8731398 -0.492821E-06  0.409E-02   13.68       1.0  T
   3    -13.8731398 -0.391618E-07  0.218E-03   13.68      12.3  T
   4    -13.8731399 -0.202066E-07  0.916E-04   13.68      29.2  T
   5    -13.8731399 -0.615149E-09  0.378E-04   13.68      70.8  T
     SCC iter.                  ...        0 min,  0.003 sec
     gradient                   ...        0 min,  0.004 sec
 * total energy  :   -13.6637864 Eh     change       -0.3625138E-03 Eh
   gradient norm :     0.0043090 Eh/α   predicted    -0.2118410E-03 ( -41.56%)
   displ. norm   :     0.3200762 α      lambda       -0.4443558E-03
   maximum displ.:     0.3090350 α      in ANC's #1, #5, #24, ...

........................................................................
.............................. CYCLE    9 ..............................
........................................................................

 iter      E             dE          RMSdq      gap      omega  full diag
   1    -13.8728624 -0.138729E+02  0.817E-02   13.71       0.0  T
   2    -13.8728631 -0.704630E-06  0.485E-02   13.71       1.0  T
   3    -13.8728632 -0.585959E-07  0.268E-03   13.71      10.0  T
   4    -13.8728632 -0.266202E-07  0.112E-03   13.71      23.9  T
   5    -13.8728632 -0.905239E-09  0.453E-04   13.71      59.0  T
   6    -13.8728632 -0.569269E-10  0.760E-05   13.71     351.6  T
     SCC iter.                  ...        0 min,  0.004 sec
     gradient                   ...        0 min,  0.003 sec
 * total energy  :   -13.6641726 Eh     change       -0.3861989E-03 Eh
   gradient norm :     0.0048343 Eh/α   predicted    -0.2449348E-03 ( -36.58%)
   displ. norm   :     0.4719182 α      lambda       -0.5253106E-03
   maximum displ.:     0.4537683 α      in ANC's #1, #5, #24, ...

........................................................................
.............................. CYCLE   10 ..............................
........................................................................

 iter      E             dE          RMSdq      gap      omega  full diag
   1    -13.8711729 -0.138712E+02  0.119E-01   13.70       0.0  T
   2    -13.8711744 -0.150328E-05  0.705E-02   13.70       1.0  T
   3    -13.8711746 -0.141928E-06  0.400E-03   13.70       6.7  T
   4    -13.8711746 -0.487873E-07  0.171E-03   13.70      15.6  T
   5    -13.8711746 -0.176819E-08  0.692E-04   13.70      38.6  T
   6    -13.8711746 -0.168125E-09  0.110E-04   13.70     243.1  T
     SCC iter.                  ...        0 min,  0.003 sec
     gradient                   ...        0 min,  0.003 sec
 * total energy  :   -13.6645501 Eh     change       -0.3775368E-03 Eh
   gradient norm :     0.0087584 Eh/α   predicted    -0.3211391E-03 ( -14.94%)
   displ. norm   :     0.3152870 α      lambda       -0.2795975E-03
   maximum displ.:     0.2965278 α      in ANC's #1, #24, #8, ...

........................................................................
.............................. CYCLE   11 ..............................
........................................................................

 iter      E             dE          RMSdq      gap      omega  full diag
   1    -13.8717818 -0.138718E+02  0.763E-02   13.68       0.0  T
   2    -13.8717820 -0.167827E-06  0.453E-02   13.68       1.0  T
   3    -13.8717821 -0.643715E-07  0.190E-03   13.68      14.1  T
   4    -13.8717821 -0.322342E-08  0.920E-04   13.68      29.1  T
   5    -13.8717821 -0.561965E-09  0.129E-04   13.68     208.0  T
     SCC iter.                  ...        0 min,  0.003 sec
     gradient                   ...        0 min,  0.002 sec
 * total energy  :   -13.6647495 Eh     change       -0.1994076E-03 Eh
   gradient norm :     0.0086809 Eh/α   predicted    -0.1536965E-03 ( -22.92%)
   displ. norm   :     0.2147456 α      lambda       -0.2493496E-03
   maximum displ.:     0.1862497 α      in ANC's #1, #24, #8, ...

........................................................................
.............................. CYCLE   12 ..............................
........................................................................

 iter      E             dE          RMSdq      gap      omega  full diag
   1    -13.8746969 -0.138747E+02  0.654E-02   13.78       0.0  T
   2    -13.8746974 -0.499741E-06  0.384E-02   13.78       1.0  T
   3    -13.8746974 -0.508379E-07  0.233E-03   13.78      11.5  T
   4    -13.8746975 -0.703838E-08  0.951E-04   13.78      28.1  T
   5    -13.8746975 -0.255039E-09  0.413E-04   13.78      64.8  T
     SCC iter.                  ...        0 min,  0.009 sec
     gradient                   ...        0 min,  0.002 sec
 * total energy  :   -13.6649226 Eh     change       -0.1731045E-03 Eh
   gradient norm :     0.0049608 Eh/α   predicted    -0.1304252E-03 ( -24.66%)
   displ. norm   :     0.2699338 α      lambda       -0.1327194E-03
   maximum displ.:     0.2415582 α      in ANC's #1, #5, #24, ...

........................................................................
.............................. CYCLE   13 ..............................
........................................................................

 iter      E             dE          RMSdq      gap      omega  full diag
   1    -13.8741062 -0.138741E+02  0.768E-02   13.83       0.0  T
   2    -13.8741063 -0.165045E-06  0.456E-02   13.83       1.0  T
   3    -13.8741064 -0.631614E-07  0.173E-03   13.83      15.4  T
   4    -13.8741064 -0.100021E-08  0.815E-04   13.83      32.8  T
   5    -13.8741064 -0.167409E-09  0.125E-04   13.83     213.6  T
     SCC iter.                  ...        0 min,  0.003 sec
     gradient                   ...        0 min,  0.002 sec
 * total energy  :   -13.6649997 Eh     change       -0.7702760E-04 Eh
   gradient norm :     0.0050161 Eh/α   predicted    -0.7119375E-04 (  -7.57%)
   displ. norm   :     0.1095825 α      lambda       -0.9368863E-04
   maximum displ.:     0.0794572 α      in ANC's #1, #3, #24, ...

........................................................................
.............................. CYCLE   14 ..............................
........................................................................

 iter      E             dE          RMSdq      gap      omega  full diag
   1    -13.8768042 -0.138768E+02  0.394E-02   13.84       0.0  T
   2    -13.8768050 -0.809789E-06  0.228E-02   13.84       1.2  T
   3    -13.8768050 -0.250222E-07  0.365E-03   13.84       7.3  T
   4    -13.8768050 -0.875268E-08  0.735E-04   13.84      36.3  T
   5    -13.8768050 -0.418488E-09  0.392E-04   13.84      68.2  T
     SCC iter.                  ...        0 min,  0.003 sec
     gradient                   ...        0 min,  0.002 sec
 * total energy  :   -13.6650468 Eh     change       -0.4712786E-04 Eh
   gradient norm :     0.0026535 Eh/α   predicted    -0.4740883E-04 (   0.60%)
   displ. norm   :     0.0965279 α      lambda       -0.3185939E-04
   maximum displ.:     0.0791510 α      in ANC's #1, #3, #24, ...

........................................................................
.............................. CYCLE   15 ..............................
........................................................................

 iter      E             dE          RMSdq      gap      omega  full diag
   1    -13.8761639 -0.138762E+02  0.293E-02   13.83       0.0  T
   2    -13.8761639 -0.579386E-07  0.174E-02   13.83       1.5  T
   3    -13.8761640 -0.100737E-07  0.994E-04   13.83      26.9  T
   4    -13.8761640 -0.251134E-08  0.473E-04   13.83      56.5  T
     SCC iter.                  ...        0 min,  0.002 sec
     gradient                   ...        0 min,  0.002 sec
 * total energy  :   -13.6650697 Eh     change       -0.2286664E-04 Eh
   gradient norm :     0.0020687 Eh/α   predicted    -0.1607967E-04 ( -29.68%)
   displ. norm   :     0.1100820 α      lambda       -0.4101269E-04
   maximum displ.:     0.0863948 α      in ANC's #3, #1, #11, ...

........................................................................
.............................. CYCLE   16 ..............................
........................................................................

 iter      E             dE          RMSdq      gap      omega  full diag
   1    -13.8756376 -0.138756E+02  0.336E-02   13.81       0.0  T
   2    -13.8756376 -0.438601E-07  0.201E-02   13.81       1.3  T
   3    -13.8756376 -0.119758E-07  0.877E-04   13.81      30.5  T
   4    -13.8756376 -0.164974E-08  0.450E-04   13.81      59.4  T
     SCC iter.                  ...        0 min,  0.003 sec
     gradient                   ...        0 min,  0.002 sec
 * total energy  :   -13.6650959 Eh     change       -0.2625327E-04 Eh
   gradient norm :     0.0018353 Eh/α   predicted    -0.2075399E-04 ( -20.95%)
   displ. norm   :     0.1420815 α      lambda       -0.3414691E-04
   maximum displ.:     0.1224522 α      in ANC's #3, #1, #5, ...

........................................................................
.............................. CYCLE   17 ..............................
........................................................................

 iter      E             dE          RMSdq      gap      omega  full diag
   1    -13.8757600 -0.138758E+02  0.418E-02   13.79       0.0  T
   2    -13.8757602 -0.162796E-06  0.249E-02   13.79       1.1  T
   3    -13.8757602 -0.168647E-07  0.195E-03   13.79      13.7  T
   4    -13.8757602 -0.158500E-07  0.708E-04   13.79      37.7  T
   5    -13.8757602 -0.348056E-09  0.195E-04   13.79     137.3  T
     SCC iter.                  ...        0 min,  0.002 sec
     gradient                   ...        0 min,  0.002 sec
 * total energy  :   -13.6651104 Eh     change       -0.1451219E-04 Eh
   gradient norm :     0.0033657 Eh/α   predicted    -0.1722645E-04 (  18.70%)
   displ. norm   :     0.0182987 α      lambda       -0.1754379E-04
   maximum displ.:     0.0121331 α      in ANC's #1, #3, #5, ...

........................................................................
.............................. CYCLE   18 ..............................
........................................................................

 iter      E             dE          RMSdq      gap      omega  full diag
   1    -13.8760298 -0.138760E+02  0.121E-02   13.79       0.0  T
   2    -13.8760299 -0.861724E-07  0.685E-03   13.79       3.9  T
   3    -13.8760299 -0.568161E-08  0.172E-03   13.79      15.6  T
   4    -13.8760299 -0.440041E-08  0.415E-04   13.79      64.3  T
   5    -13.8760299 -0.115435E-09  0.155E-04   13.79     172.8  T
     SCC iter.                  ...        0 min,  0.002 sec
     gradient                   ...        0 min,  0.002 sec
 * total energy  :   -13.6651212 Eh     change       -0.1080624E-04 Eh
   gradient norm :     0.0015703 Eh/α   predicted    -0.8775542E-05 ( -18.79%)
   displ. norm   :     0.0131925 α      lambda       -0.5787027E-05
   maximum displ.:     0.0058389 α      in ANC's #6, #1, #11, ...

........................................................................
.............................. CYCLE   19 ..............................
........................................................................

 iter      E             dE          RMSdq      gap      omega  full diag
   1    -13.8760926 -0.138761E+02  0.994E-03   13.81       0.0  T
   2    -13.8760926 -0.180398E-07  0.577E-03   13.81       4.6  T
   3    -13.8760926 -0.211152E-08  0.635E-04   13.81      42.1  T
   4    -13.8760926 -0.127540E-08  0.222E-04   13.81     120.4  T
     SCC iter.                  ...        0 min,  0.002 sec
     gradient                   ...        0 min,  0.002 sec
 * total energy  :   -13.6651250 Eh     change       -0.3762266E-05 Eh
   gradient norm :     0.0008465 Eh/α   predicted    -0.2894977E-05 ( -23.05%)
   displ. norm   :     0.0084012 α      lambda       -0.1656302E-05
   maximum displ.:     0.0053671 α      in ANC's #3, #4, #7, ...

........................................................................
.............................. CYCLE   20 ..............................
........................................................................

 iter      E             dE          RMSdq      gap      omega  full diag
   1    -13.8760043 -0.138760E+02  0.535E-03   13.80       0.0  T
   2    -13.8760043 -0.203026E-07  0.296E-03   13.80       9.0  T
   3    -13.8760043 -0.921681E-09  0.876E-04   13.80      30.5  T
   4    -13.8760043 -0.107646E-08  0.166E-04   13.80     161.4  T
     SCC iter.                  ...        0 min,  0.002 sec
     gradient                   ...        0 min,  0.002 sec
 * total energy  :   -13.6651262 Eh     change       -0.1171315E-05 Eh
   gradient norm :     0.0004006 Eh/α   predicted    -0.8282108E-06 ( -29.29%)
   displ. norm   :     0.0264076 α      lambda       -0.1323868E-05
   maximum displ.:     0.0210317 α      in ANC's #3, #1, #11, ...
 * RMSD in coord.:     0.8606176 α      energy gain  -0.3805854E-02 Eh

generating ANC from exact Hessian ...
Using Lindh-Hessian (1995)
 Shifting diagonal of input Hessian by    5.7794312576953423E-003
 Lowest  eigenvalues of input Hessian
    0.000000    0.000000    0.000000    0.000000    0.000000    0.000000
    0.010000    0.013352    0.013755    0.018281    0.022451    0.045947
    0.047955    0.057631    0.060162    0.060566    0.062353    0.070996
 Highest eigenvalues
    1.131702    1.150921    1.197775    1.197891    1.225105    1.287461


........................................................................
.............................. CYCLE   21 ..............................
........................................................................

 iter      E             dE          RMSdq      gap      omega  full diag
   1    -13.8758688 -0.138759E+02  0.838E-03   13.79       0.0  T
   2    -13.8758688 -0.829486E-08  0.498E-03   13.79       5.4  T
   3    -13.8758688 -0.667857E-09  0.413E-04   13.79      64.8  T
   4    -13.8758688 -0.610683E-09  0.139E-04   13.79     191.8  T
     SCC iter.                  ...        0 min,  0.002 sec
     gradient                   ...        0 min,  0.003 sec
 * total energy  :   -13.6651269 Eh     change       -0.7405064E-06 Eh
   gradient norm :     0.0004566 Eh/α   predicted     0.0000000E+00 (-100.00%)
   displ. norm   :     0.0053687 α      lambda       -0.6725106E-06
   maximum displ.:     0.0043699 α      in ANC's #4, #8, #1, ...

   *** GEOMETRY OPTIMIZATION CONVERGED AFTER 21 ITERATIONS ***

------------------------------------------------------------------------
 total energy gain   :        -0.0038066 Eh       -2.3887 kcal/mol
 total RMSD          :         0.8606176 a0        0.4554 Å
 total power (kW/mol):        -0.4759149 (step)  -52.9832 (real)
------------------------------------------------------------------------

 ANCopt (total)                0 d,  0 h,  0 min,  0.189 sec
 optimizer setup                ...        0 min,  0.000 sec (  0.061%)
 model hessian                  ...        0 min,  0.011 sec (  5.878%)
 ANC generation                 ...        0 min,  0.002 sec (  0.917%)
 coordinate transformation      ...        0 min,  0.000 sec (  0.099%)
 single point calculation       ...        0 min,  0.164 sec ( 86.917%)
 optimization log               ...        0 min,  0.003 sec (  1.744%)
 hessian update                 ...        0 min,  0.003 sec (  1.577%)
 rational function              ...        0 min,  0.004 sec (  2.031%)

================
 final structure:
================
14
 xtb: 6.7.1 (edcfbbe)
C           -1.75537774695036        0.57278725935806       -0.17814599363048
H           -1.10252602422157        1.12758184131952       -0.84926891358646
H           -2.76332981253496        0.59399492504932       -0.58822120855929
H           -1.41839422289924       -0.46108222238363       -0.14874469726381
C           -1.73302031570320        1.18614460408689        1.21667416553887
H           -0.71723676206915        1.14218752133150        1.61614832841648
H           -2.37440443753786        0.60182402149697        1.88056557372600
C           -2.20747674305029        2.63743206006339        1.20931027514656
H           -1.56714045077841        3.22126047054842        0.54374968620631
H           -3.22430657179762        2.68135043781665        0.81136156251153
C           -2.18250731428987        3.25167792074134        2.60362952586346
H           -1.17418325307746        3.22991551954731        3.01191743012124
H           -2.51849739601252        4.28581862051282        2.57437248453350
H           -2.83461011907735        2.69803519051117        3.27603058097610

 Bond Distances (Angstroems)
 ---------------------------
C1-H2=1.0883         C1-H3=1.0884         C1-H4=1.0878         C1-C5=1.5239         H2-C1=1.0883         H3-C1=1.0884         
H4-C1=1.0878         C5-C1=1.5239         C5-H6=1.0924         C5-H7=1.0925         C5-C8=1.5269         H6-C5=1.0924         
H7-C5=1.0925         C8-C5=1.5269         C8-H9=1.0926         C8-H10=1.0928        C8-C11=1.5238        H9-C8=1.0926         
H10-C8=1.0928        C11-C8=1.5238        C11-H12=1.0881       C11-H13=1.0877       C11-H14=1.0881       H12-C11=1.0881       
H13-C11=1.0877       H14-C11=1.0881       
 C  H  Rav=1.0899 sigma=0.0022  Rmin=1.0877  Rmax=1.0928    10
 C  C  Rav=1.5249 sigma=0.0014  Rmin=1.5238  Rmax=1.5269     3

 selected bond angles (degree)
 --------------------
H3-C1-H2=108.26                H4-C1-H2=108.38                H4-C1-H3=108.40                C5-C1-H2=110.52                
C5-C1-H3=110.52                C5-C1-H4=110.69                H6-C5-C1=109.40                H7-C5-C1=109.41                
H7-C5-H6=107.59                C8-C5-C1=111.94                C8-C5-H6=109.21                C8-C5-H7=109.20                
H9-C8-C5=109.19                H10-C8-C5=109.21               H10-C8-H9=107.58               C11-C8-C5=111.94               
C11-C8-H9=109.41               C11-C8-H10=109.41              

 selected dihedral angles (degree)
 ---------------------------------
H6-C5-C1-H2=298.99            H6-C5-C1-H3=179.18            H6-C5-C1-H4= 59.07            H7-C5-C1-H2=181.36            
H7-C5-C1-H3= 61.55            H7-C5-C1-H4=301.44            C8-C5-C1-H2= 60.18            C8-C5-C1-H3=300.36            
C8-C5-C1-H4=180.26            H9-C8-C5-C1=301.42            H9-C8-C5-H6= 62.72            H9-C8-C5-H7=180.11            
H10-C8-C5-C1= 58.80           H10-C8-C5-H6=180.10           H10-C8-C5-H7=297.49           C11-C8-C5-C1=180.11           
C11-C8-C5-H6=301.41           C11-C8-C5-H7= 58.81           
           -------------------------------------------------
          |                Final Singlepoint                |
           -------------------------------------------------

          ...................................................
          :                      SETUP                      :
          :.................................................:
          :  # basis functions                  26          :
          :  # atomic orbitals                  26          :
          :  # shells                           18          :
          :  # electrons                        26          :
          :  max. iterations                   250          :
          :  Hamiltonian                  GFN2-xTB          :
          :  restarted?                      false          :
          :  GBSA solvation                  false          :
          :  PC potential                    false          :
          :  electronic temp.          300.0000000     K    :
          :  accuracy                    1.0000000          :
          :  -> integral cutoff          0.2500000E+02      :
          :  -> integral neglect         0.1000000E-07      :
          :  -> SCF convergence          0.1000000E-05 Eh   :
          :  -> wf. convergence          0.1000000E-03 e    :
          :  Broyden damping             0.4000000          :
          :  net charge                          0          :
          :  unpaired electrons                  0          :
          ...................................................

 iter      E             dE          RMSdq      gap      omega  full diag
   1    -13.8758688 -0.138759E+02  0.438E-05   13.79       0.0  T
   2    -13.8758688 -0.102141E-11  0.247E-05   13.79    1083.5  T
   3    -13.8758688  0.266454E-13  0.617E-06   13.79    4332.4  T

   *** convergence criteria satisfied after 3 iterations ***

         #    Occupation            Energy/Eh            Energy/eV
      -------------------------------------------------------------
         1        2.0000           -0.6179463             -16.8152
       ...           ...                  ...                  ...
         7        2.0000           -0.4878826             -13.2760
         8        2.0000           -0.4789589             -13.0331
         9        2.0000           -0.4546443             -12.3715
        10        2.0000           -0.4395076             -11.9596
        11        2.0000           -0.4367424             -11.8844
        12        2.0000           -0.4258271             -11.5873
        13        2.0000           -0.4195600             -11.4168 (HOMO)
        14                          0.0873950               2.3781 (LUMO)
        15                          0.1265874               3.4446
        16                          0.1277123               3.4752
        17                          0.1524815               4.1492
        18                          0.1628820               4.4322
       ...                                ...                  ...
        26                          0.3112459               8.4694
      -------------------------------------------------------------
                  HL-Gap            0.5069550 Eh           13.7949 eV
             Fermi-level           -0.1660825 Eh           -4.5193 eV

 SCC (total)                   0 d,  0 h,  0 min,  0.005 sec
 SCC setup                      ...        0 min,  0.000 sec (  2.716%)
 Dispersion                     ...        0 min,  0.000 sec (  2.216%)
 classical contributions        ...        0 min,  0.000 sec (  0.957%)
 integral evaluation            ...        0 min,  0.001 sec ( 14.610%)
 iterations                     ...        0 min,  0.002 sec ( 34.262%)
 molecular gradient             ...        0 min,  0.002 sec ( 41.338%)
 printout                       ...        0 min,  0.000 sec (  3.517%)

         :::::::::::::::::::::::::::::::::::::::::::::::::::::
         ::                     SUMMARY                     ::
         :::::::::::::::::::::::::::::::::::::::::::::::::::::
         :: total energy             -13.665126911534 Eh    ::
         :: gradient norm              0.000456161955 Eh/a0 ::
         :: HOMO-LUMO gap             13.794946734380 eV    ::
         ::.................................................::
         :: SCC energy               -13.875864958195 Eh    ::
         :: -> isotropic ES            0.002996590654 Eh    ::
         :: -> anisotropic ES          0.004915396706 Eh    ::
         :: -> anisotropic XC          0.009064513882 Eh    ::
         :: -> dispersion             -0.006048773214 Eh    ::
         :: repulsion energy           0.210738046662 Eh    ::
         :: add. restraining           0.000000000000 Eh    ::
         :: total charge               0.000000000000 e     ::
         :::::::::::::::::::::::::::::::::::::::::::::::::::::

           -------------------------------------------------
          |                Property Printout                |
           -------------------------------------------------

    * Orbital Energies and Occupations

         #    Occupation            Energy/Eh            Energy/eV
      -------------------------------------------------------------
         1        2.0000           -0.6179463             -16.8152
         2        2.0000           -0.5989405             -16.2980
         3        2.0000           -0.5679016             -15.4534
         4        2.0000           -0.5523956             -15.0314
         5        2.0000           -0.5138187             -13.9817
         6        2.0000           -0.4918222             -13.3832
         7        2.0000           -0.4878826             -13.2760
         8        2.0000           -0.4789589             -13.0331
         9        2.0000           -0.4546443             -12.3715
        10        2.0000           -0.4395076             -11.9596
        11        2.0000           -0.4367424             -11.8844
        12        2.0000           -0.4258271             -11.5873
        13        2.0000           -0.4195600             -11.4168 (HOMO)
        14                          0.0873950               2.3781 (LUMO)
        15                          0.1265874               3.4446
        16                          0.1277123               3.4752
        17                          0.1524815               4.1492
        18                          0.1628820               4.4322
        19                          0.1834238               4.9912
        20                          0.1935486               5.2667
        21                          0.1969338               5.3588
        22                          0.2242542               6.1023
        23                          0.2548607               6.9351
        24                          0.2643305               7.1928
       ...                                ...                  ...
        26                          0.3112459               8.4694
      -------------------------------------------------------------
                  HL-Gap            0.5069550 Eh           13.7949 eV
             Fermi-level           -0.1660825 Eh           -4.5193 eV

     #   Z          covCN         q      C6AA      α(0)
     1   6 C        3.752    -0.102    22.509     6.766
     2   1 H        0.925     0.033     2.551     2.498
     3   1 H        0.925     0.033     2.550     2.497
     4   1 H        0.925     0.032     2.554     2.499
     5   6 C        3.801    -0.053    21.534     6.607
     6   1 H        0.924     0.029     2.599     2.521
     7   1 H        0.924     0.029     2.600     2.522
     8   6 C        3.801    -0.053    21.534     6.607
     9   1 H        0.924     0.029     2.600     2.522
    10   1 H        0.924     0.029     2.601     2.522
    11   6 C        3.752    -0.102    22.510     6.766
    12   1 H        0.925     0.033     2.550     2.497
    13   1 H        0.925     0.032     2.554     2.499
    14   1 H        0.925     0.033     2.550     2.497

 Mol. C6AA /au·bohr⁶  :       1207.516142
 Mol. C8AA /au·bohr⁸  :      24480.721857
 Mol. α(0) /au        :         51.819892


Wiberg/Mayer (AO) data.
largest (>0.10) Wiberg bond orders for each atom

 ---------------------------------------------------------------------------
     #   Z sym  total        # sym  WBO       # sym  WBO       # sym  WBO
 ---------------------------------------------------------------------------
     1   6 C    3.997 --     5 C    1.019     2 H    0.988     3 H    0.988
                             4 H    0.988
     2   1 H    0.999 --     1 C    0.988
     3   1 H    0.999 --     1 C    0.988
     4   1 H    0.999 --     1 C    0.988
     5   6 C    3.998 --     1 C    1.019     8 C    1.009     7 H    0.979
                             6 H    0.979
     6   1 H    0.999 --     5 C    0.979
     7   1 H    0.999 --     5 C    0.979
     8   6 C    3.998 --    11 C    1.019     5 C    1.009     9 H    0.979
                            10 H    0.979
     9   1 H    0.999 --     8 C    0.979
    10   1 H    0.999 --     8 C    0.979
    11   6 C    3.997 --     8 C    1.019    14 H    0.988    12 H    0.988
                            13 H    0.988
    12   1 H    0.999 --    11 C    0.988
    13   1 H    0.999 --    11 C    0.988
    14   1 H    0.999 --    11 C    0.988
 ---------------------------------------------------------------------------

Topologies differ in total number of bonds
Writing topology from bond orders to xtbtopo.mol

molecular dipole:
                 x           y           z       tot (Debye)
 q only:        0.000      -0.000       0.000
   full:        0.000      -0.000       0.000       0.001
molecular quadrupole (traceless):
                xx          xy          yy          xz          yz          zz
 q only:       -0.158      -0.046       0.026       0.014       0.108       0.133
  q+dip:        0.854       0.274      -0.214      -0.039      -0.663      -0.641
   full:        0.373       0.121      -0.091      -0.020      -0.283      -0.282

           -------------------------------------------------
          |                Geometry Summary                 |
           -------------------------------------------------

      molecular mass/u    :       58.1223511
   center of mass at/Å    :       -1.9695727       1.9120242       1.2128539
Note: The following floating-point exceptions are signalling: IEEE_UNDERFLOW_FLAG IEEE_DENORMAL
normal termination of xtb
  moments of inertia/u·Å² :        0.2163157E+02   0.1370179E+03   0.1461124E+03
rotational constants/cm⁻¹ :        0.7793071E+00   0.1230323E+00   0.1153744E+00

 * 13 selected distances

     #   Z          #   Z                                           value/Å
     1   6 C        2   1 H                                       1.0883100
     1   6 C        3   1 H                                       1.0883837
     1   6 C        4   1 H                                       1.0877999
     1   6 C        5   6 C                                       1.5238867
     5   6 C        6   1 H                                       1.0923957
     5   6 C        7   1 H                                       1.0925000
     5   6 C        8   6 C                                       1.5268919 (max)
     8   6 C        9   1 H                                       1.0926378
     8   6 C       10   1 H                                       1.0928107
     8   6 C       11   6 C                                       1.5238268
    11   6 C       12   1 H                                       1.0880672
    11   6 C       13   1 H                                       1.0877465 (min)
    11   6 C       14   1 H                                       1.0880633

 * 2 distinct bonds (by element types)

   Z      Z             #   av. dist./Å        max./Å        min./Å
   1 H    6 C          10     1.0898715     1.0928107     1.0877465
   6 C    6 C           3     1.5248685     1.5268919     1.5238268


optimized geometry written to: xtbopt.xyz


           -------------------------------------------------
          | TOTAL ENERGY              -13.665126911534 Eh   |
          | GRADIENT NORM               0.000456161955 Eh/α |
          | HOMO-LUMO GAP              13.794946734380 eV   |
           -------------------------------------------------

------------------------------------------------------------------------
 * finished run on 2026/08/11 at 11:12:00.340     
------------------------------------------------------------------------
 total:
 * wall-time:     0 d,  0 h,  0 min,  0.222 sec
 *  cpu-time:     0 d,  0 h,  0 min,  0.844 sec
 * ratio c/w:     3.795 speedup
 SCF:
 * wall-time:     0 d,  0 h,  0 min,  0.013 sec
 *  cpu-time:     0 d,  0 h,  0 min,  0.051 sec
 * ratio c/w:     3.891 speedup
 ANC optimizer:
 * wall-time:     0 d,  0 h,  0 min,  0.194 sec
 *  cpu-time:     0 d,  0 h,  0 min,  0.737 sec
 * ratio c/w:     3.790 speedup

