14
 energy: -13.665126911534 gnorm: 0.000456161955 xtb: 6.7.1 (edcfbbe)
C           -1.75537774695036        0.57278725935806       -0.17814599363048
H           -1.10252602422157        1.12758184131952       -0.84926891358646
H           -2.76332981253496        0.59399492504932       -0.58822120855929
H           -1.41839422289924       -0.46108222238363       -0.14874469726381
C           -1.73302031570320        1.18614460408689        1.21667416553887
H           -0.71723676206915        1.14218752133150        1.61614832841648
H           -2.37440443753786        0.60182402149697        1.88056557372600
C           -2.20747674305029        2.63743206006339        1.20931027514656
H           -1.56714045077841        3.22126047054842        0.54374968620631
H           -3.22430657179762        2.68135043781665        0.81136156251153
C           -2.18250731428987        3.25167792074134        2.60362952586346
H           -1.17418325307746        3.22991551954731        3.01191743012124
H           -2.51849739601252        4.28581862051282        2.57437248453350
H           -2.83461011907735        2.69803519051117        3.27603058097610
