      -----------------------------------------------------------      
     |                   =====================                   |     
     |                           x T B                           |     
     |                   =====================                   |     
     |                         S. Grimme                         |     
     |          Mulliken Center for Theoretical Chemistry        |     
     |                    University of Bonn                     |     
      -----------------------------------------------------------      

   * xtb version 6.7.1 (edcfbbe) compiled by 'conda@5dfe00f5fb80' on 2026-06-10

   xtb is free software: you can redistribute it and/or modify it under
   the terms of the GNU Lesser General Public License as published by
   the Free Software Foundation, either version 3 of the License, or
   (at your option) any later version.
   
   xtb is distributed in the hope that it will be useful,
   but WITHOUT ANY WARRANTY; without even the implied warranty of
   MERCHANTABILITY or FITNESS FOR A PARTICULAR PURPOSE.  See the
   GNU Lesser General Public License for more details.
   
   Cite this work as:
   * C. Bannwarth, E. Caldeweyher, S. Ehlert, A. Hansen, P. Pracht,
     J. Seibert, S. Spicher, S. Grimme, WIREs Comput. Mol. Sci., 2020, 11,
     e01493. DOI: 10.1002/wcms.1493
   
   for GFN2-xTB:
   * C. Bannwarth, S. Ehlert and S. Grimme., J. Chem. Theory Comput., 2019,
     15, 1652-1671. DOI: 10.1021/acs.jctc.8b01176
   for GFN1-xTB:
   * S. Grimme, C. Bannwarth, P. Shushkov, J. Chem. Theory Comput., 2017,
     13, 1989-2009. DOI: 10.1021/acs.jctc.7b00118
   for GFN0-xTB:
   * P. Pracht, E. Caldeweyher, S. Ehlert, S. Grimme, ChemRxiv, 2019, preprint.
     DOI: 10.26434/chemrxiv.8326202.v1
   for GFN-FF:
   * S. Spicher and S. Grimme, Angew. Chem. Int. Ed., 2020, 59, 15665-15673.
     DOI: 10.1002/anie.202004239
   
   for ALPB and GBSA implicit solvation:
   * S. Ehlert, M. Stahn, S. Spicher, S. Grimme, J. Chem. Theory Comput.,
     2021, 17, 4250-4261. DOI: 10.1021/acs.jctc.1c00471
   
   for ddCOSMO and CPCM-X implicit solvation:
   * M. Stahn, S. Ehlert, S. Grimme, J. Phys. Chem. A,
     2023, XX, XXXX-XXXX. DOI: 10.1021/acs.jpca.3c04382
   
   for DFT-D4:
   * E. Caldeweyher, C. Bannwarth and S. Grimme, J. Chem. Phys., 2017,
     147, 034112. DOI: 10.1063/1.4993215
   * E. Caldeweyher, S. Ehlert, A. Hansen, H. Neugebauer, S. Spicher,
     C. Bannwarth and S. Grimme, J. Chem. Phys., 2019, 150, 154122.
     DOI: 10.1063/1.5090222
   * E. Caldeweyher, J.-M. Mewes, S. Ehlert and S. Grimme, Phys. Chem. Chem. Phys.
     2020, 22, 8499-8512. DOI: 10.1039/D0CP00502A
   
   for sTDA-xTB:
   * S. Grimme and C. Bannwarth, J. Chem. Phys., 2016, 145, 054103.
     DOI: 10.1063/1.4959605
   
   in the mass-spec context:
   * V. Asgeirsson, C. Bauer and S. Grimme, Chem. Sci., 2017, 8, 4879.
     DOI: 10.1039/c7sc00601b
   * J. Koopman and S. Grimme, ACS Omega 2019, 4, 12, 15120-15133.
     DOI: 10.1021/acsomega.9b02011
   
   for metadynamics refer to:
   * S. Grimme, J. Chem. Theory Comput., 2019, 155, 2847-2862
     DOI: 10.1021/acs.jctc.9b00143
   
   for SPH calculations refer to:
   * S. Spicher and S. Grimme, J. Chem. Theory Comput., 2021, 17, 1701-1714
     DOI: 10.1021/acs.jctc.0c01306
   
   for ONIOM refer to:
   * C. Plett, A. Katbashev, S. Ehlert, S. Grimme, M. Bursch,
     Phys. Chem. Chem. Phys., 2023, 25, 17860-17868. DOI: 10.1039/D3CP02178E
   
   for DIPRO refer to:
   * J. Kohn, N. Gildemeister, S. Grimme, D. Fazzi, A. Hansen,
     J. Chem. Phys., 2023, just accepted.
   
   for PTB refer to:
   * S. Grimme, M. Mueller, A. Hansen, J. Chem. Phys., 2023, 158, 124111.
     DOI: 10.1063/5.0137838
   
   with help from (in alphabetical order)
   P. Atkinson, C. Bannwarth, F. Bohle, G. Brandenburg, E. Caldeweyher
   M. Checinski, S. Dohm, S. Ehlert, S. Ehrlich, I. Gerasimov, C. Hölzer
   A. Katbashev, J. Kohn, J. Koopman, C. Lavigne, S. Lehtola, F. März, M. Müller,
   F. Musil, H. Neugebauer, J. Pisarek, C. Plett, P. Pracht, F. Pultar,
   J. Seibert, P. Shushkov, S. Spicher, M. Stahn, M. Steiner, T. Strunk,
   J. Stückrath, T. Rose, and J. Unsleber
   
 * started run on 2026/08/17 at 12:14:19.640     
   ID    Z sym.   atoms
    1    6 C      1, 5, 8, 11
    2    1 H      2-4, 6, 7, 9, 10, 12-14

           -------------------------------------------------
          |                Calculation Setup                |
           -------------------------------------------------

          program call               : xtb input.xyz --gfn2 --opt tight --chrg 0 --uhf 0 --iterations 250
          coordinate file            : input.xyz
          omp threads                :                     4


           -------------------------------------------------
          |                 G F N 2 - x T B                 |
           -------------------------------------------------

        Reference                      10.1021/acs.jctc.8b01176
      * Hamiltonian:
        H0-scaling (s, p, d)           1.850000    2.230000    2.230000
        zeta-weighting                 0.500000
      * Dispersion:
        s8                             2.700000
        a1                             0.520000
        a2                             5.000000
        s9                             5.000000
      * Repulsion:
        kExp                           1.500000    1.000000
        rExp                           1.000000
      * Coulomb:
        alpha                          2.000000
        third order                    shell-resolved
        anisotropic                    true
        a3                             3.000000
        a5                             4.000000
        cn-shift                       1.200000
        cn-exp                         4.000000
        max-rad                        5.000000

q/qsh data taken from xtbrestart
CAMM data taken from xtbrestart

          ...................................................
          :                      SETUP                      :
          :.................................................:
          :  # basis functions                  26          :
          :  # atomic orbitals                  26          :
          :  # shells                           18          :
          :  # electrons                        26          :
          :  max. iterations                   250          :
          :  Hamiltonian                  GFN2-xTB          :
          :  restarted?                       true          :
          :  GBSA solvation                  false          :
          :  PC potential                    false          :
          :  electronic temp.          300.0000000     K    :
          :  accuracy                    1.0000000          :
          :  -> integral cutoff          0.2500000E+02      :
          :  -> integral neglect         0.1000000E-07      :
          :  -> SCF convergence          0.1000000E-05 Eh   :
          :  -> wf. convergence          0.1000000E-03 e    :
          :  Broyden damping             0.4000000          :
          :  net charge                          0          :
          :  unpaired electrons                  0          :
          ...................................................

 iter      E             dE          RMSdq      gap      omega  full diag
   1    -13.8645268 -0.138645E+02  0.856E-01   13.26       0.0  T
   2    -13.8645591 -0.323409E-04  0.513E-01   13.25       1.0  T
   3    -13.8645691 -0.995952E-05  0.263E-02   13.25       1.0  T
   4    -13.8645704 -0.133139E-05  0.144E-02   13.25       1.9  T
   5    -13.8645704 -0.142251E-07  0.229E-03   13.25      11.7  T
   6    -13.8645704 -0.117318E-07  0.548E-04   13.25      48.8  T
   7    -13.8645704 -0.278751E-09  0.212E-04   13.25     125.9  T

   *** convergence criteria satisfied after 7 iterations ***

         #    Occupation            Energy/Eh            Energy/eV
      -------------------------------------------------------------
         1        2.0000           -0.6168290             -16.7848
       ...           ...                  ...                  ...
         7        2.0000           -0.4901607             -13.3380
         8        2.0000           -0.4785640             -13.0224
         9        2.0000           -0.4523612             -12.3094
        10        2.0000           -0.4454139             -12.1203
        11        2.0000           -0.4336145             -11.7993
        12        2.0000           -0.4266367             -11.6094
        13        2.0000           -0.4141444             -11.2694 (HOMO)
        14                          0.0728621               1.9827 (LUMO)
        15                          0.1130764               3.0770
        16                          0.1175882               3.1997
        17                          0.1495370               4.0691
        18                          0.1551655               4.2223
       ...                                ...                  ...
        26                          0.3254567               8.8561
      -------------------------------------------------------------
                  HL-Gap            0.4870065 Eh           13.2521 eV
             Fermi-level           -0.1706412 Eh           -4.6434 eV

 SCC (total)                   0 d,  0 h,  0 min,  0.089 sec
 SCC setup                      ...        0 min,  0.003 sec (  3.101%)
 Dispersion                     ...        0 min,  0.008 sec (  8.965%)
 classical contributions        ...        0 min,  0.003 sec (  3.258%)
 integral evaluation            ...        0 min,  0.009 sec ( 10.180%)
 iterations                     ...        0 min,  0.064 sec ( 71.856%)
 molecular gradient             ...        0 min,  0.002 sec (  2.276%)
 printout                       ...        0 min,  0.000 sec (  0.340%)

         :::::::::::::::::::::::::::::::::::::::::::::::::::::
         ::                     SUMMARY                     ::
         :::::::::::::::::::::::::::::::::::::::::::::::::::::
         :: total energy             -13.658512045262 Eh    ::
         :: gradient norm              0.014555284952 Eh/a0 ::
         :: HOMO-LUMO gap             13.252120926915 eV    ::
         ::.................................................::
         :: SCC energy               -13.864566200054 Eh    ::
         :: -> isotropic ES            0.002962784957 Eh    ::
         :: -> anisotropic ES          0.005175967284 Eh    ::
         :: -> anisotropic XC          0.009145473569 Eh    ::
         :: -> dispersion             -0.006019246954 Eh    ::
         :: repulsion energy           0.206054154792 Eh    ::
         :: add. restraining           0.000000000000 Eh    ::
         :: total charge               0.000000000000 e     ::
         :::::::::::::::::::::::::::::::::::::::::::::::::::::

      ----------------------------------------------------------- 
     |                   =====================                   |
     |                        A N C O P T                        |
     |                   =====================                   |
     |               Approximate Normal Coordinate               |
     |                Rational Function Optimizer                |
      ----------------------------------------------------------- 
      ----------------------------------------------------------- 
     |                   =====================                   |
     |                        A N C O P T                        |
     |                   =====================                   |
     |               Approximate Normal Coordinate               |
     |                Rational Function Optimizer                |
      ----------------------------------------------------------- 

          ...................................................
          :                      SETUP                      :
          :.................................................:
          :   optimization level             tight          :
          :   max. optcycles                   200          :
          :   ANC micro-cycles                  20          :
          :   degrees of freedom                36          :
          :.................................................:
          :   RF solver                   davidson          :
          :   write xtbopt.log                true          :
          :   linear?                        false          :
          :   energy convergence         0.1000000E-05 Eh   :
          :   grad. convergence          0.8000000E-03 Eh/α :
          :   maxmium RF displ.          1.0000000          :
          :   Hlow (freq-cutoff)         0.1000000E-01      :
          :   Hmax (freq-cutoff)         5.0000000          :
          :   S6 in model hess.         20.0000000          :
          ...................................................

generating ANC from exact Hessian ...
Using Lindh-Hessian (1995)
 Shifting diagonal of input Hessian by    5.9010667483788302E-003
 Lowest  eigenvalues of input Hessian
    0.000000    0.000000    0.000000    0.000000    0.000000    0.000000
    0.010000    0.013201    0.013551    0.018182    0.022026    0.045149
    0.046928    0.057116    0.059061    0.060000    0.061502    0.069432
 Highest eigenvalues
    1.107743    1.130516    1.167159    1.199685    1.212063    1.288062


........................................................................
.............................. CYCLE    1 ..............................
........................................................................

 iter      E             dE          RMSdq      gap      omega  full diag
   1    -13.8645704 -0.138646E+02  0.294E-05   13.25       0.0  T
   2    -13.8645704 -0.985878E-12  0.162E-05   13.25    1647.0  T
   3    -13.8645704 -0.532907E-13  0.525E-06   13.25    5094.2  T
     SCC iter.                  ...        0 min,  0.002 sec
     gradient                   ...        0 min,  0.002 sec
 * total energy  :   -13.6585120 Eh     change       -0.4633804E-10 Eh
   gradient norm :     0.0145551 Eh/α   predicted     0.0000000E+00 (-100.00%)
   displ. norm   :     0.2012065 α      lambda       -0.1047756E-02
   maximum displ.:     0.1340806 α      in ANC's #4, #1, #5, ...

........................................................................
.............................. CYCLE    2 ..............................
........................................................................

 iter      E             dE          RMSdq      gap      omega  full diag
   1    -13.8677463 -0.138677E+02  0.836E-02   13.38       0.0  T
   2    -13.8677477 -0.133542E-05  0.491E-02   13.38       1.0  T
   3    -13.8677478 -0.887672E-07  0.370E-03   13.38       7.2  T
   4    -13.8677478 -0.200879E-07  0.102E-03   13.38      26.3  T
   5    -13.8677478 -0.854319E-09  0.492E-04   13.38      54.3  T
   6    -13.8677478 -0.126773E-09  0.920E-05   13.38     290.4  T
     SCC iter.                  ...        0 min,  0.003 sec
     gradient                   ...        0 min,  0.002 sec
 * total energy  :   -13.6593667 Eh     change       -0.8546449E-03 Eh
   gradient norm :     0.0062748 Eh/α   predicted    -0.5450882E-03 ( -36.22%)
   displ. norm   :     0.4917455 α      lambda       -0.1636640E-02
   maximum displ.:     0.3670054 α      in ANC's #4, #1, #2, ...

........................................................................
.............................. CYCLE    3 ..............................
........................................................................

 iter      E             dE          RMSdq      gap      omega  full diag
   1    -13.8689471 -0.138689E+02  0.157E-01   13.45       0.0  T
   2    -13.8689483 -0.117787E-05  0.936E-02   13.45       1.0  T
   3    -13.8689485 -0.262172E-06  0.423E-03   13.45       6.3  T
   4    -13.8689486 -0.574735E-07  0.207E-03   13.45      12.9  T
   5    -13.8689486 -0.273928E-08  0.600E-04   13.45      44.5  T
   6    -13.8689486 -0.351188E-09  0.175E-04   13.45     152.7  T
     SCC iter.                  ...        0 min,  0.003 sec
     gradient                   ...        0 min,  0.002 sec
 * total energy  :   -13.6606270 Eh     change       -0.1260309E-02 Eh
   gradient norm :     0.0084330 Eh/α   predicted    -0.1016205E-02 ( -19.37%)
   displ. norm   :     0.5197579 α      lambda       -0.1241414E-02
   maximum displ.:     0.4034254 α      in ANC's #4, #1, #2, ...

........................................................................
.............................. CYCLE    4 ..............................
........................................................................

 iter      E             dE          RMSdq      gap      omega  full diag
   1    -13.8660310 -0.138660E+02  0.160E-01   13.48       0.0  T
   2    -13.8660335 -0.252385E-05  0.951E-02   13.48       1.0  T
   3    -13.8660339 -0.316062E-06  0.520E-03   13.48       5.1  T
   4    -13.8660339 -0.472036E-07  0.240E-03   13.48      11.1  T
   5    -13.8660339 -0.210187E-08  0.102E-03   13.48      26.1  T
   6    -13.8660339 -0.903364E-09  0.146E-04   13.48     183.2  T
   7    -13.8660339 -0.171685E-10  0.525E-05   13.48     508.8  T
     SCC iter.                  ...        0 min,  0.004 sec
     gradient                   ...        0 min,  0.002 sec
 * total energy  :   -13.6615439 Eh     change       -0.9168981E-03 Eh
   gradient norm :     0.0146254 Eh/α   predicted    -0.7884000E-03 ( -14.01%)
   displ. norm   :     0.4201893 α      lambda       -0.1131165E-02
   maximum displ.:     0.3244376 α      in ANC's #4, #1, #24, ...

........................................................................
.............................. CYCLE    5 ..............................
........................................................................

 iter      E             dE          RMSdq      gap      omega  full diag
   1    -13.8661110 -0.138661E+02  0.136E-01   13.51       0.0  T
   2    -13.8661135 -0.254154E-05  0.805E-02   13.51       1.0  T
   3    -13.8661137 -0.201046E-06  0.563E-03   13.51       4.7  T
   4    -13.8661138 -0.601794E-07  0.198E-03   13.51      13.5  T
   5    -13.8661138 -0.103299E-08  0.697E-04   13.51      38.3  T
   6    -13.8661138 -0.397955E-09  0.134E-04   13.51     199.8  T
     SCC iter.                  ...        0 min,  0.003 sec
     gradient                   ...        0 min,  0.002 sec
 * total energy  :   -13.6623815 Eh     change       -0.8376421E-03 Eh
   gradient norm :     0.0145019 Eh/α   predicted    -0.6654385E-03 ( -20.56%)
   displ. norm   :     0.2866161 α      lambda       -0.1193690E-02
   maximum displ.:     0.2103180 α      in ANC's #4, #1, #24, ...

........................................................................
.............................. CYCLE    6 ..............................
........................................................................

 iter      E             dE          RMSdq      gap      omega  full diag
   1    -13.8732658 -0.138733E+02  0.124E-01   13.61       0.0  T
   2    -13.8732689 -0.310919E-05  0.729E-02   13.61       1.0  T
   3    -13.8732692 -0.326462E-06  0.812E-03   13.61       3.3  T
   4    -13.8732694 -0.215375E-06  0.312E-03   13.61       8.6  T
   5    -13.8732694 -0.426873E-08  0.121E-03   13.61      22.1  T
   6    -13.8732694 -0.609617E-09  0.199E-04   13.61     134.4  T
   7    -13.8732694 -0.322249E-10  0.609E-05   13.61     439.0  T
     SCC iter.                  ...        0 min,  0.004 sec
     gradient                   ...        0 min,  0.004 sec
 * total energy  :   -13.6630578 Eh     change       -0.6762914E-03 Eh
   gradient norm :     0.0094451 Eh/α   predicted    -0.6458752E-03 (  -4.50%)
   displ. norm   :     0.4099104 α      lambda       -0.6310064E-03
   maximum displ.:     0.3264142 α      in ANC's #4, #1, #3, ...

........................................................................
.............................. CYCLE    7 ..............................
........................................................................

 iter      E             dE          RMSdq      gap      omega  full diag
   1    -13.8680070 -0.138680E+02  0.129E-01   13.67       0.0  T
   2    -13.8680144 -0.737054E-05  0.757E-02   13.66       1.0  T
   3    -13.8680147 -0.286307E-06  0.110E-02   13.66       2.4  T
   4    -13.8680147 -0.661919E-07  0.240E-03   13.66      11.1  T
   5    -13.8680147 -0.297052E-08  0.119E-03   13.66      22.4  T
   6    -13.8680147 -0.744031E-09  0.169E-04   13.66     158.0  T
   7    -13.8680147 -0.469900E-10  0.750E-05   13.66     356.4  T
     SCC iter.                  ...        0 min,  0.004 sec
     gradient                   ...        0 min,  0.002 sec
 * total energy  :   -13.6633376 Eh     change       -0.2797868E-03 Eh
   gradient norm :     0.0170831 Eh/α   predicted    -0.3685135E-03 (  31.71%)
   displ. norm   :     0.0607259 α      lambda       -0.4928605E-03
   maximum displ.:     0.0358059 α      in ANC's #4, #24, #9, ...

........................................................................
.............................. CYCLE    8 ..............................
........................................................................

 iter      E             dE          RMSdq      gap      omega  full diag
   1    -13.8721703 -0.138722E+02  0.532E-02   13.72       0.0  T
   2    -13.8721738 -0.350524E-05  0.289E-02   13.72       1.0  T
   3    -13.8721740 -0.165176E-06  0.939E-03   13.72       2.8  T
   4    -13.8721740 -0.438951E-07  0.191E-03   13.72      14.0  T
   5    -13.8721740 -0.715902E-09  0.925E-04   13.72      28.9  T
   6    -13.8721740 -0.286441E-09  0.780E-05   13.72     342.8  T
     SCC iter.                  ...        0 min,  0.003 sec
     gradient                   ...        0 min,  0.002 sec
 * total energy  :   -13.6636572 Eh     change       -0.3195605E-03 Eh
   gradient norm :     0.0089393 Eh/α   predicted    -0.2473391E-03 ( -22.60%)
   displ. norm   :     0.2081673 α      lambda       -0.3994287E-03
   maximum displ.:     0.1367963 α      in ANC's #4, #3, #1, ...

........................................................................
.............................. CYCLE    9 ..............................
........................................................................

 iter      E             dE          RMSdq      gap      omega  full diag
   1    -13.8754874 -0.138755E+02  0.684E-02   13.78       0.0  T
   2    -13.8754894 -0.206482E-05  0.399E-02   13.79       1.0  T
   3    -13.8754895 -0.112296E-06  0.621E-03   13.79       4.3  T
   4    -13.8754895 -0.171387E-07  0.142E-03   13.79      18.8  T
   5    -13.8754895 -0.283478E-09  0.539E-04   13.79      49.6  T
   6    -13.8754895 -0.568310E-10  0.515E-05   13.79     518.9  T
     SCC iter.                  ...        0 min,  0.004 sec
     gradient                   ...        0 min,  0.002 sec
 * total energy  :   -13.6639141 Eh     change       -0.2569686E-03 Eh
   gradient norm :     0.0099244 Eh/α   predicted    -0.2083694E-03 ( -18.91%)
   displ. norm   :     0.3640516 α      lambda       -0.4892150E-03
   maximum displ.:     0.2951311 α      in ANC's #4, #1, #3, ...

........................................................................
.............................. CYCLE   10 ..............................
........................................................................

 iter      E             dE          RMSdq      gap      omega  full diag
   1    -13.8727739 -0.138728E+02  0.113E-01   13.74       0.0  T
   2    -13.8727757 -0.180335E-05  0.675E-02   13.74       1.0  T
   3    -13.8727758 -0.130502E-06  0.603E-03   13.74       4.4  T
   4    -13.8727760 -0.144220E-06  0.211E-03   13.74      12.7  T
   5    -13.8727760 -0.167612E-08  0.813E-04   13.74      32.9  T
   6    -13.8727760 -0.323359E-09  0.127E-04   13.74     210.9  T
     SCC iter.                  ...        0 min,  0.003 sec
     gradient                   ...        0 min,  0.002 sec
 * total energy  :   -13.6641427 Eh     change       -0.2285768E-03 Eh
   gradient norm :     0.0075283 Eh/α   predicted    -0.2770231E-03 (  21.19%)
   displ. norm   :     0.0922105 α      lambda       -0.2857856E-03
   maximum displ.:     0.0657256 α      in ANC's #3, #2, #1, ...

........................................................................
.............................. CYCLE   11 ..............................
........................................................................

 iter      E             dE          RMSdq      gap      omega  full diag
   1    -13.8765175 -0.138765E+02  0.436E-02   13.76       0.0  T
   2    -13.8765198 -0.227233E-05  0.244E-02   13.76       1.1  T
   3    -13.8765199 -0.603912E-07  0.714E-03   13.76       3.7  T
   4    -13.8765199 -0.161360E-07  0.113E-03   13.76      23.6  T
   5    -13.8765199 -0.836350E-09  0.619E-04   13.76      43.2  T
   6    -13.8765199 -0.959481E-10  0.573E-05   13.76     466.3  T
     SCC iter.                  ...        0 min,  0.003 sec
     gradient                   ...        0 min,  0.002 sec
 * total energy  :   -13.6643278 Eh     change       -0.1850864E-03 Eh
   gradient norm :     0.0054730 Eh/α   predicted    -0.1441072E-03 ( -22.14%)
   displ. norm   :     0.2357398 α      lambda       -0.2944537E-03
   maximum displ.:     0.1820729 α      in ANC's #3, #4, #24, ...

........................................................................
.............................. CYCLE   12 ..............................
........................................................................

 iter      E             dE          RMSdq      gap      omega  full diag
   1    -13.8766898 -0.138767E+02  0.782E-02   13.75       0.0  T
   2    -13.8766912 -0.132766E-05  0.462E-02   13.75       1.0  T
   3    -13.8766912 -0.698610E-07  0.587E-03   13.75       4.5  T
   4    -13.8766913 -0.999783E-07  0.164E-03   13.75      16.3  T
   5    -13.8766913 -0.136468E-08  0.634E-04   13.75      42.2  T
   6    -13.8766913 -0.397984E-09  0.118E-04   13.75     226.0  T
     SCC iter.                  ...        0 min,  0.003 sec
     gradient                   ...        0 min,  0.002 sec
 * total energy  :   -13.6644904 Eh     change       -0.1626032E-03 Eh
   gradient norm :     0.0101127 Eh/α   predicted    -0.1554106E-03 (  -4.42%)
   displ. norm   :     0.1799089 α      lambda       -0.3114834E-03
   maximum displ.:     0.1383256 α      in ANC's #3, #1, #25, ...

........................................................................
.............................. CYCLE   13 ..............................
........................................................................

 iter      E             dE          RMSdq      gap      omega  full diag
   1    -13.8781275 -0.138781E+02  0.615E-02   13.72       0.0  T
   2    -13.8781284 -0.989940E-06  0.361E-02   13.72       1.0  T
   3    -13.8781285 -0.695410E-07  0.445E-03   13.72       6.0  T
   4    -13.8781285 -0.332250E-07  0.128E-03   13.72      20.9  T
   5    -13.8781285 -0.767010E-09  0.543E-04   13.72      49.2  T
   6    -13.8781285 -0.282505E-09  0.956E-05   13.72     279.6  T
     SCC iter.                  ...        0 min,  0.003 sec
     gradient                   ...        0 min,  0.002 sec
 * total energy  :   -13.6647041 Eh     change       -0.2137019E-03 Eh
   gradient norm :     0.0090531 Eh/α   predicted    -0.1607818E-03 ( -24.76%)
   displ. norm   :     0.2750676 α      lambda       -0.3292391E-03
   maximum displ.:     0.2281246 α      in ANC's #3, #25, #23, ...

........................................................................
.............................. CYCLE   14 ..............................
........................................................................

 iter      E             dE          RMSdq      gap      omega  full diag
   1    -13.8751105 -0.138751E+02  0.833E-02   13.74       0.0  T
   2    -13.8751123 -0.181162E-05  0.493E-02   13.74       1.0  T
   3    -13.8751124 -0.106529E-06  0.524E-03   13.74       5.1  T
   4    -13.8751125 -0.389057E-07  0.152E-03   13.74      17.6  T
   5    -13.8751125 -0.208976E-08  0.793E-04   13.74      33.7  T
   6    -13.8751125 -0.287798E-09  0.961E-05   13.74     278.2  T
     SCC iter.                  ...        0 min,  0.003 sec
     gradient                   ...        0 min,  0.002 sec
 * total energy  :   -13.6648812 Eh     change       -0.1770468E-03 Eh
   gradient norm :     0.0074850 Eh/α   predicted    -0.1770751E-03 (   0.02%)
   displ. norm   :     0.1166952 α      lambda       -0.1631457E-03
   maximum displ.:     0.0964377 α      in ANC's #4, #3, #24, ...

........................................................................
.............................. CYCLE   15 ..............................
........................................................................

 iter      E             dE          RMSdq      gap      omega  full diag
   1    -13.8753569 -0.138754E+02  0.515E-02   13.77       0.0  T
   2    -13.8753579 -0.908893E-06  0.299E-02   13.77       1.0  T
   3    -13.8753579 -0.633770E-07  0.455E-03   13.76       5.9  T
   4    -13.8753579 -0.284294E-07  0.123E-03   13.77      21.6  T
   5    -13.8753579 -0.689830E-09  0.424E-04   13.77      63.0  T
   6    -13.8753579 -0.294214E-09  0.984E-05   13.77     271.5  T
     SCC iter.                  ...        0 min,  0.003 sec
     gradient                   ...        0 min,  0.002 sec
 * total energy  :   -13.6649567 Eh     change       -0.7558705E-04 Eh
   gradient norm :     0.0061171 Eh/α   predicted    -0.8268312E-04 (   9.39%)
   displ. norm   :     0.0689295 α      lambda       -0.1125939E-03
   maximum displ.:     0.0438978 α      in ANC's #3, #1, #6, ...

........................................................................
.............................. CYCLE   16 ..............................
........................................................................

 iter      E             dE          RMSdq      gap      omega  full diag
   1    -13.8749867 -0.138750E+02  0.320E-02   13.78       0.0  T
   2    -13.8749873 -0.550578E-06  0.185E-02   13.78       1.4  T
   3    -13.8749873 -0.321373E-07  0.339E-03   13.78       7.9  T
   4    -13.8749873 -0.877527E-08  0.811E-04   13.78      32.9  T
   5    -13.8749873 -0.111735E-09  0.263E-04   13.78     101.5  T
     SCC iter.                  ...        0 min,  0.002 sec
     gradient                   ...        0 min,  0.002 sec
 * total energy  :   -13.6650256 Eh     change       -0.6886099E-04 Eh
   gradient norm :     0.0034247 Eh/α   predicted    -0.5656607E-04 ( -17.85%)
   displ. norm   :     0.0764201 α      lambda       -0.6687777E-04
   maximum displ.:     0.0505453 α      in ANC's #4, #1, #3, ...

........................................................................
.............................. CYCLE   17 ..............................
........................................................................

 iter      E             dE          RMSdq      gap      omega  full diag
   1    -13.8755581 -0.138756E+02  0.305E-02   13.81       0.0  T
   2    -13.8755583 -0.205380E-06  0.179E-02   13.81       1.5  T
   3    -13.8755583 -0.171726E-07  0.231E-03   13.81      11.6  T
   4    -13.8755583 -0.169308E-07  0.762E-04   13.81      35.1  T
   5    -13.8755583 -0.442167E-09  0.184E-04   13.81     145.3  T
     SCC iter.                  ...        0 min,  0.002 sec
     gradient                   ...        0 min,  0.002 sec
 * total energy  :   -13.6650544 Eh     change       -0.2881697E-04 Eh
   gradient norm :     0.0042908 Eh/α   predicted    -0.3363486E-04 (  16.72%)
   displ. norm   :     0.1091260 α      lambda       -0.4733271E-04
   maximum displ.:     0.0877033 α      in ANC's #3, #4, #1, ...

........................................................................
.............................. CYCLE   18 ..............................
........................................................................

 iter      E             dE          RMSdq      gap      omega  full diag
   1    -13.8745882 -0.138746E+02  0.335E-02   13.80       0.0  T
   2    -13.8745885 -0.231015E-06  0.199E-02   13.80       1.3  T
   3    -13.8745885 -0.128261E-07  0.216E-03   13.80      12.4  T
   4    -13.8745885 -0.131593E-07  0.629E-04   13.80      42.5  T
   5    -13.8745885 -0.278737E-09  0.307E-04   13.80      87.1  T
     SCC iter.                  ...        0 min,  0.002 sec
     gradient                   ...        0 min,  0.002 sec
 * total energy  :   -13.6650759 Eh     change       -0.2146221E-04 Eh
   gradient norm :     0.0035601 Eh/α   predicted    -0.2394824E-04 (  11.58%)
   displ. norm   :     0.0269691 α      lambda       -0.2311278E-04
   maximum displ.:     0.0155645 α      in ANC's #1, #3, #4, ...

........................................................................
.............................. CYCLE   19 ..............................
........................................................................

 iter      E             dE          RMSdq      gap      omega  full diag
   1    -13.8756798 -0.138757E+02  0.137E-02   13.80       0.0  T
   2    -13.8756799 -0.189184E-06  0.775E-03   13.80       3.4  T
   3    -13.8756799 -0.608291E-08  0.197E-03   13.80      13.6  T
   4    -13.8756800 -0.103097E-08  0.352E-04   13.80      76.0  T
   5    -13.8756800 -0.685763E-10  0.177E-04   13.80     150.6  T
     SCC iter.                  ...        0 min,  0.002 sec
     gradient                   ...        0 min,  0.002 sec
 * total energy  :   -13.6650893 Eh     change       -0.1344732E-04 Eh
   gradient norm :     0.0017519 Eh/α   predicted    -0.1156611E-04 ( -13.99%)
   displ. norm   :     0.0667447 α      lambda       -0.1454615E-04
   maximum displ.:     0.0420278 α      in ANC's #1, #4, #3, ...

........................................................................
.............................. CYCLE   20 ..............................
........................................................................

 iter      E             dE          RMSdq      gap      omega  full diag
   1    -13.8762573 -0.138763E+02  0.225E-02   13.79       0.0  T
   2    -13.8762574 -0.952565E-07  0.133E-02   13.79       2.0  T
   3    -13.8762574 -0.516230E-08  0.122E-03   13.79      21.9  T
   4    -13.8762574 -0.391960E-08  0.371E-04   13.79      71.9  T
   5    -13.8762574 -0.126722E-09  0.187E-04   13.79     143.3  T
     SCC iter.                  ...        0 min,  0.002 sec
     gradient                   ...        0 min,  0.002 sec
 * total energy  :   -13.6651006 Eh     change       -0.1130027E-04 Eh
   gradient norm :     0.0017363 Eh/α   predicted    -0.7287552E-05 ( -35.51%)
   displ. norm   :     0.0778893 α      lambda       -0.1205519E-04
   maximum displ.:     0.0667831 α      in ANC's #1, #2, #3, ...
 * RMSD in coord.:     0.8006152 α      energy gain  -0.6588591E-02 Eh

generating ANC from exact Hessian ...
Using Lindh-Hessian (1995)
 Shifting diagonal of input Hessian by    5.7799694675922169E-003
 Lowest  eigenvalues of input Hessian
    0.000000    0.000000    0.000000    0.000000    0.000000    0.000000
    0.010000    0.013354    0.013764    0.018294    0.022449    0.045939
    0.047921    0.057652    0.060193    0.060555    0.062412    0.070969
 Highest eigenvalues
    1.133605    1.152344    1.196261    1.198942    1.225348    1.286722


........................................................................
.............................. CYCLE   21 ..............................
........................................................................

 iter      E             dE          RMSdq      gap      omega  full diag
   1    -13.8760901 -0.138761E+02  0.261E-02   13.80       0.0  T
   2    -13.8760902 -0.572377E-07  0.155E-02   13.80       1.7  T
   3    -13.8760902 -0.561752E-08  0.963E-04   13.80      27.8  T
   4    -13.8760902 -0.344014E-08  0.377E-04   13.80      70.8  T
     SCC iter.                  ...        0 min,  0.002 sec
     gradient                   ...        0 min,  0.002 sec
 * total energy  :   -13.6651125 Eh     change       -0.1191258E-04 Eh
   gradient norm :     0.0018031 Eh/α   predicted     0.0000000E+00 (-100.00%)
   displ. norm   :     0.0244449 α      lambda       -0.8431132E-05
   maximum displ.:     0.0207106 α      in ANC's #1, #2, #4, ...

........................................................................
.............................. CYCLE   22 ..............................
........................................................................

 iter      E             dE          RMSdq      gap      omega  full diag
   1    -13.8760438 -0.138760E+02  0.127E-02   13.79       0.0  T
   2    -13.8760438 -0.415063E-07  0.740E-03   13.79       3.6  T
   3    -13.8760438 -0.256102E-08  0.967E-04   13.79      27.6  T
   4    -13.8760438 -0.263254E-08  0.272E-04   13.79      98.1  T
     SCC iter.                  ...        0 min,  0.002 sec
     gradient                   ...        0 min,  0.002 sec
 * total energy  :   -13.6651194 Eh     change       -0.6896493E-05 Eh
   gradient norm :     0.0003928 Eh/α   predicted    -0.4217582E-05 ( -38.84%)
   displ. norm   :     0.0214304 α      lambda       -0.2372919E-05
   maximum displ.:     0.0193688 α      in ANC's #1, #4, #2, ...

........................................................................
.............................. CYCLE   23 ..............................
........................................................................

 iter      E             dE          RMSdq      gap      omega  full diag
   1    -13.8760018 -0.138760E+02  0.854E-03   13.81       0.0  T
   2    -13.8760018 -0.271524E-08  0.507E-03   13.81       5.3  T
   3    -13.8760018 -0.412268E-09  0.158E-04   13.81     169.4  T
   4    -13.8760018 -0.837694E-10  0.754E-05   13.81     354.6  T
     SCC iter.                  ...        0 min,  0.002 sec
     gradient                   ...        0 min,  0.002 sec
 * total energy  :   -13.6651220 Eh     change       -0.2520764E-05 Eh
   gradient norm :     0.0004675 Eh/α   predicted    -0.1187171E-05 ( -52.90%)
   displ. norm   :     0.0189404 α      lambda       -0.1528086E-05
   maximum displ.:     0.0173750 α      in ANC's #1, #4, #3, ...

........................................................................
.............................. CYCLE   24 ..............................
........................................................................

 iter      E             dE          RMSdq      gap      omega  full diag
   1    -13.8760173 -0.138760E+02  0.621E-03   13.80       0.0  T
   2    -13.8760173 -0.163341E-08  0.367E-03   13.80       7.3  T
   3    -13.8760173 -0.396868E-09  0.183E-04   13.80     146.1  T
   4    -13.8760173 -0.109532E-09  0.898E-05   13.80     297.5  T
     SCC iter.                  ...        0 min,  0.002 sec
     gradient                   ...        0 min,  0.002 sec
 * total energy  :   -13.6651238 Eh     change       -0.1875298E-05 Eh
   gradient norm :     0.0003321 Eh/α   predicted    -0.7633413E-06 ( -59.29%)
   displ. norm   :     0.0174167 α      lambda       -0.1096950E-05
   maximum displ.:     0.0161212 α      in ANC's #1, #4, #3, ...

........................................................................
.............................. CYCLE   25 ..............................
........................................................................

 iter      E             dE          RMSdq      gap      omega  full diag
   1    -13.8760318 -0.138760E+02  0.528E-03   13.80       0.0  T
   2    -13.8760318 -0.102414E-08  0.313E-03   13.80       8.5  T
   3    -13.8760318 -0.288066E-09  0.118E-04   13.80     226.1  T
   4    -13.8760318 -0.131202E-10  0.595E-05   13.80     449.5  T
     SCC iter.                  ...        0 min,  0.002 sec
     gradient                   ...        0 min,  0.002 sec
 * total energy  :   -13.6651252 Eh     change       -0.1333403E-05 Eh
   gradient norm :     0.0001378 Eh/α   predicted    -0.5492672E-06 ( -58.81%)
   displ. norm   :     0.0131925 α      lambda       -0.5897849E-06
   maximum displ.:     0.0125634 α      in ANC's #1, #4, #2, ...

........................................................................
.............................. CYCLE   26 ..............................
........................................................................

 iter      E             dE          RMSdq      gap      omega  full diag
   1    -13.8760426 -0.138760E+02  0.433E-03   13.80       0.0  T
   2    -13.8760426 -0.466558E-09  0.257E-03   13.80      10.4  T
   3    -13.8760426 -0.154827E-09  0.837E-05   13.80     319.3  T
   4    -13.8760426 -0.650680E-11  0.419E-05   13.80     637.7  T
     SCC iter.                  ...        0 min,  0.002 sec
     gradient                   ...        0 min,  0.002 sec
 * total energy  :   -13.6651259 Eh     change       -0.7511657E-06 Eh
   gradient norm :     0.0001049 Eh/α   predicted    -0.2960089E-06 ( -60.59%)
   displ. norm   :     0.0093300 α      lambda       -0.3417020E-06
   maximum displ.:     0.0090332 α      in ANC's #1, #3, #4, ...

   *** GEOMETRY OPTIMIZATION CONVERGED AFTER 26 ITERATIONS ***

------------------------------------------------------------------------
 total energy gain   :        -0.0066139 Eh       -4.1503 kcal/mol
 total RMSD          :         0.8170125 a0        0.4323 Å
 total power (kW/mol):        -0.6678747 (step)  -96.8874 (real)
------------------------------------------------------------------------

 ANCopt (total)                0 d,  0 h,  0 min,  0.179 sec
 optimizer setup                ...        0 min,  0.000 sec (  0.069%)
 model hessian                  ...        0 min,  0.012 sec (  6.560%)
 ANC generation                 ...        0 min,  0.001 sec (  0.615%)
 coordinate transformation      ...        0 min,  0.000 sec (  0.136%)
 single point calculation       ...        0 min,  0.153 sec ( 85.209%)
 optimization log               ...        0 min,  0.005 sec (  2.694%)
 hessian update                 ...        0 min,  0.002 sec (  1.024%)
 rational function              ...        0 min,  0.005 sec (  2.658%)

================
 final structure:
================
14
 xtb: 6.7.1 (edcfbbe)
C           -2.81078022697284        0.24321794345966        0.26663303048504
H           -3.89299248281602        0.35540303476553        0.27494921059301
H           -2.57482550306708       -0.81415355600400        0.36254410935771
H           -2.43917674908521        0.59213491929405       -0.69453000712060
C           -2.18272663335141        1.03991257601039        1.40353035843711
H           -1.09987377728400        0.89441801866219        1.39411264464196
H           -2.55788239951946        0.66562626712374        2.35898659961420
C           -2.48988961674311        2.53138413122679        1.29287467564153
H           -2.10347387941538        2.90829164409624        0.34297628919253
H           -3.57283953231582        2.67600577315349        1.28960561552933
C           -1.87719075581690        3.32545154786902        2.43994600375035
H           -2.10548275979464        4.38404745136037        2.33916514263333
H           -2.26810345013826        2.97949160556055        3.39461843274957
H           -0.79569760367984        3.20702801342192        2.45128148449475

 Bond Distances (Angstroems)
 ---------------------------
C1-H2=1.0880         C1-H3=1.0876         C1-H4=1.0880         C1-C5=1.5237         H2-C1=1.0880         H3-C1=1.0876         
H4-C1=1.0880         C5-C1=1.5237         C5-H6=1.0926         C5-H7=1.0926         C5-C8=1.5268         H6-C5=1.0926         
H7-C5=1.0926         C8-C5=1.5268         C8-H9=1.0926         C8-H10=1.0926        C8-C11=1.5237        H9-C8=1.0926         
H10-C8=1.0926        C11-C8=1.5237        C11-H12=1.0876       C11-H13=1.0881       C11-H14=1.0880       H12-C11=1.0876       
H13-C11=1.0881       H14-C11=1.0880       
 C  H  Rav=1.0898 sigma=0.0023  Rmin=1.0876  Rmax=1.0926    10
 C  C  Rav=1.5247 sigma=0.0014  Rmin=1.5237  Rmax=1.5268     3

 selected bond angles (degree)
 --------------------
H3-C1-H2=108.38                H4-C1-H2=108.27                H4-C1-H3=108.40                C5-C1-H2=110.51                
C5-C1-H3=110.68                C5-C1-H4=110.53                H6-C5-C1=109.42                H7-C5-C1=109.38                
H7-C5-H6=107.59                C8-C5-C1=111.95                C8-C5-H6=109.20                C8-C5-H7=109.20                
H9-C8-C5=109.20                H10-C8-C5=109.20               H10-C8-H9=107.60               C11-C8-C5=111.94               
C11-C8-H9=109.42               C11-C8-H10=109.38              

 selected dihedral angles (degree)
 ---------------------------------
H6-C5-C1-H2=178.57            H6-C5-C1-H3= 58.50            H6-C5-C1-H4=298.39            H7-C5-C1-H2= 60.94            
H7-C5-C1-H3=300.87            H7-C5-C1-H4=180.77            C8-C5-C1-H2=299.76            C8-C5-C1-H3=179.69            
C8-C5-C1-H4= 59.59            H9-C8-C5-C1=300.57            H9-C8-C5-H6= 61.89            H9-C8-C5-H7=179.29            
H10-C8-C5-C1= 57.97           H10-C8-C5-H6=179.29           H10-C8-C5-H7=296.69           C11-C8-C5-C1=179.25           
C11-C8-C5-H6=300.57           C11-C8-C5-H7= 57.97           
           -------------------------------------------------
          |                Final Singlepoint                |
           -------------------------------------------------

          ...................................................
          :                      SETUP                      :
          :.................................................:
          :  # basis functions                  26          :
          :  # atomic orbitals                  26          :
          :  # shells                           18          :
          :  # electrons                        26          :
          :  max. iterations                   250          :
          :  Hamiltonian                  GFN2-xTB          :
          :  restarted?                      false          :
          :  GBSA solvation                  false          :
          :  PC potential                    false          :
          :  electronic temp.          300.0000000     K    :
          :  accuracy                    1.0000000          :
          :  -> integral cutoff          0.2500000E+02      :
          :  -> integral neglect         0.1000000E-07      :
          :  -> SCF convergence          0.1000000E-05 Eh   :
          :  -> wf. convergence          0.1000000E-03 e    :
          :  Broyden damping             0.4000000          :
          :  net charge                          0          :
          :  unpaired electrons                  0          :
          ...................................................

 iter      E             dE          RMSdq      gap      omega  full diag
   1    -13.8760426 -0.138760E+02  0.931E-06   13.80       0.0  T
   2    -13.8760426 -0.101252E-12  0.525E-06   13.80    5087.2  T
   3    -13.8760426 -0.213163E-13  0.211E-06   13.80   12676.6  T

   *** convergence criteria satisfied after 3 iterations ***

         #    Occupation            Energy/Eh            Energy/eV
      -------------------------------------------------------------
         1        2.0000           -0.6179689             -16.8158
       ...           ...                  ...                  ...
         7        2.0000           -0.4878892             -13.2761
         8        2.0000           -0.4789804             -13.0337
         9        2.0000           -0.4546551             -12.3718
        10        2.0000           -0.4395297             -11.9602
        11        2.0000           -0.4367174             -11.8837
        12        2.0000           -0.4258149             -11.5870
        13        2.0000           -0.4195544             -11.4167 (HOMO)
        14                          0.0875955               2.3836 (LUMO)
        15                          0.1267598               3.4493
        16                          0.1278096               3.4779
        17                          0.1525717               4.1517
        18                          0.1629468               4.4340
       ...                                ...                  ...
        26                          0.3114228               8.4742
      -------------------------------------------------------------
                  HL-Gap            0.5071499 Eh           13.8003 eV
             Fermi-level           -0.1659794 Eh           -4.5165 eV

 SCC (total)                   0 d,  0 h,  0 min,  0.005 sec
 SCC setup                      ...        0 min,  0.000 sec (  5.332%)
 Dispersion                     ...        0 min,  0.000 sec (  2.482%)
 classical contributions        ...        0 min,  0.000 sec (  1.301%)
 integral evaluation            ...        0 min,  0.001 sec ( 13.347%)
 iterations                     ...        0 min,  0.002 sec ( 35.088%)
 molecular gradient             ...        0 min,  0.002 sec ( 38.705%)
 printout                       ...        0 min,  0.000 sec (  3.363%)

         :::::::::::::::::::::::::::::::::::::::::::::::::::::
         ::                     SUMMARY                     ::
         :::::::::::::::::::::::::::::::::::::::::::::::::::::
         :: total energy             -13.665125926015 Eh    ::
         :: gradient norm              0.000104790427 Eh/a0 ::
         :: HOMO-LUMO gap             13.800250097111 eV    ::
         ::.................................................::
         :: SCC energy               -13.876038708775 Eh    ::
         :: -> isotropic ES            0.002998718731 Eh    ::
         :: -> anisotropic ES          0.004909014667 Eh    ::
         :: -> anisotropic XC          0.009059183701 Eh    ::
         :: -> dispersion             -0.006048960384 Eh    ::
         :: repulsion energy           0.210912782760 Eh    ::
         :: add. restraining           0.000000000000 Eh    ::
         :: total charge              -0.000000000000 e     ::
         :::::::::::::::::::::::::::::::::::::::::::::::::::::

           -------------------------------------------------
          |                Property Printout                |
           -------------------------------------------------

    * Orbital Energies and Occupations

         #    Occupation            Energy/Eh            Energy/eV
      -------------------------------------------------------------
         1        2.0000           -0.6179689             -16.8158
         2        2.0000           -0.5989723             -16.2989
         3        2.0000           -0.5679234             -15.4540
         4        2.0000           -0.5523975             -15.0315
         5        2.0000           -0.5138403             -13.9823
         6        2.0000           -0.4918455             -13.3838
         7        2.0000           -0.4878892             -13.2761
         8        2.0000           -0.4789804             -13.0337
         9        2.0000           -0.4546551             -12.3718
        10        2.0000           -0.4395297             -11.9602
        11        2.0000           -0.4367174             -11.8837
        12        2.0000           -0.4258149             -11.5870
        13        2.0000           -0.4195544             -11.4167 (HOMO)
        14                          0.0875955               2.3836 (LUMO)
        15                          0.1267598               3.4493
        16                          0.1278096               3.4779
        17                          0.1525717               4.1517
        18                          0.1629468               4.4340
        19                          0.1837243               4.9994
        20                          0.1937282               5.2716
        21                          0.1971526               5.3648
        22                          0.2245190               6.1095
        23                          0.2548827               6.9357
        24                          0.2646212               7.2007
       ...                                ...                  ...
        26                          0.3114228               8.4742
      -------------------------------------------------------------
                  HL-Gap            0.5071499 Eh           13.8003 eV
             Fermi-level           -0.1659794 Eh           -4.5165 eV

     #   Z          covCN         q      C6AA      α(0)
     1   6 C        3.752    -0.102    22.510     6.766
     2   1 H        0.925     0.033     2.550     2.497
     3   1 H        0.925     0.032     2.554     2.499
     4   1 H        0.925     0.033     2.550     2.497
     5   6 C        3.801    -0.053    21.534     6.607
     6   1 H        0.924     0.029     2.601     2.522
     7   1 H        0.924     0.029     2.599     2.521
     8   6 C        3.801    -0.053    21.534     6.607
     9   1 H        0.924     0.029     2.601     2.522
    10   1 H        0.924     0.029     2.599     2.521
    11   6 C        3.752    -0.102    22.510     6.766
    12   1 H        0.925     0.032     2.554     2.499
    13   1 H        0.925     0.033     2.550     2.497
    14   1 H        0.925     0.033     2.550     2.497

 Mol. C6AA /au·bohr⁶  :       1207.497393
 Mol. C8AA /au·bohr⁸  :      24480.529418
 Mol. α(0) /au        :         51.819389


Wiberg/Mayer (AO) data.
largest (>0.10) Wiberg bond orders for each atom

 ---------------------------------------------------------------------------
     #   Z sym  total        # sym  WBO       # sym  WBO       # sym  WBO
 ---------------------------------------------------------------------------
     1   6 C    3.997 --     5 C    1.019     2 H    0.988     4 H    0.988
                             3 H    0.988
     2   1 H    0.999 --     1 C    0.988
     3   1 H    0.999 --     1 C    0.988
     4   1 H    0.999 --     1 C    0.988
     5   6 C    3.998 --     1 C    1.019     8 C    1.009     6 H    0.979
                             7 H    0.979
     6   1 H    0.999 --     5 C    0.979
     7   1 H    0.999 --     5 C    0.979
     8   6 C    3.998 --    11 C    1.019     5 C    1.009     9 H    0.979
                            10 H    0.979
     9   1 H    0.999 --     8 C    0.979
    10   1 H    0.999 --     8 C    0.979
    11   6 C    3.997 --     8 C    1.019    14 H    0.988    13 H    0.988
                            12 H    0.988
    12   1 H    0.999 --    11 C    0.988
    13   1 H    0.999 --    11 C    0.988
    14   1 H    0.999 --    11 C    0.988
 ---------------------------------------------------------------------------

Topologies differ in total number of bonds
Writing topology from bond orders to xtbtopo.mol

molecular dipole:
                 x           y           z       tot (Debye)
 q only:       -0.000      -0.000       0.000
   full:       -0.000      -0.000       0.000       0.001
molecular quadrupole (traceless):
                xx          xy          yy          xz          yz          zz
 q only:       -0.099       0.031       0.065       0.116       0.110       0.034
  q+dip:        0.592      -0.203      -0.465      -0.605      -0.649      -0.128
   full:        0.259      -0.087      -0.200      -0.269      -0.279      -0.059

           -------------------------------------------------
          |                Geometry Summary                 |
           -------------------------------------------------

      molecular mass/u    :       58.1223511
   center of mass at/Å    :       -2.3403010       1.7849636       1.3508545
Note: The following floating-point exceptions are signalling: IEEE_UNDERFLOW_FLAG IEEE_DENORMAL
normal termination of xtb
  moments of inertia/u·Å² :        0.2162834E+02   0.1369998E+03   0.1460893E+03
rotational constants/cm⁻¹ :        0.7794232E+00   0.1230486E+00   0.1153927E+00

 * 13 selected distances

     #   Z          #   Z                                           value/Å
     1   6 C        2   1 H                                       1.0880433
     1   6 C        3   1 H                                       1.0876159
     1   6 C        4   1 H                                       1.0879645
     1   6 C        5   6 C                                       1.5237157
     5   6 C        6   1 H                                       1.0926243
     5   6 C        7   1 H                                       1.0925790
     5   6 C        8   6 C                                       1.5267880 (max)
     8   6 C        9   1 H                                       1.0925583
     8   6 C       10   1 H                                       1.0925689
     8   6 C       11   6 C                                       1.5237178
    11   6 C       12   1 H                                       1.0876118 (min)
    11   6 C       13   1 H                                       1.0880720
    11   6 C       14   1 H                                       1.0880167

 * 2 distinct bonds (by element types)

   Z      Z             #   av. dist./Å        max./Å        min./Å
   1 H    6 C          10     1.0897655     1.0926243     1.0876118
   6 C    6 C           3     1.5247405     1.5267880     1.5237157


optimized geometry written to: xtbopt.xyz


           -------------------------------------------------
          | TOTAL ENERGY              -13.665125926015 Eh   |
          | GRADIENT NORM               0.000104790427 Eh/α |
          | HOMO-LUMO GAP              13.800250097111 eV   |
           -------------------------------------------------

------------------------------------------------------------------------
 * finished run on 2026/08/17 at 12:14:19.952     
------------------------------------------------------------------------
 total:
 * wall-time:     0 d,  0 h,  0 min,  0.312 sec
 *  cpu-time:     0 d,  0 h,  0 min,  1.230 sec
 * ratio c/w:     3.938 speedup
 SCF:
 * wall-time:     0 d,  0 h,  0 min,  0.089 sec
 *  cpu-time:     0 d,  0 h,  0 min,  0.355 sec
 * ratio c/w:     3.982 speedup
 ANC optimizer:
 * wall-time:     0 d,  0 h,  0 min,  0.185 sec
 *  cpu-time:     0 d,  0 h,  0 min,  0.728 sec
 * ratio c/w:     3.929 speedup

