14
 energy: -13.665125926015 gnorm: 0.000104790427 xtb: 6.7.1 (edcfbbe)
C           -2.81078022697284        0.24321794345966        0.26663303048504
H           -3.89299248281602        0.35540303476553        0.27494921059301
H           -2.57482550306708       -0.81415355600400        0.36254410935771
H           -2.43917674908521        0.59213491929405       -0.69453000712060
C           -2.18272663335141        1.03991257601039        1.40353035843711
H           -1.09987377728400        0.89441801866219        1.39411264464196
H           -2.55788239951946        0.66562626712374        2.35898659961420
C           -2.48988961674311        2.53138413122679        1.29287467564153
H           -2.10347387941538        2.90829164409624        0.34297628919253
H           -3.57283953231582        2.67600577315349        1.28960561552933
C           -1.87719075581690        3.32545154786902        2.43994600375035
H           -2.10548275979464        4.38404745136037        2.33916514263333
H           -2.26810345013826        2.97949160556055        3.39461843274957
H           -0.79569760367984        3.20702801342192        2.45128148449475
