14
 energy: -13.665127753260 gnorm: 0.000042588633 xtb: 6.7.1 (edcfbbe)
C           -2.49257402276589        0.36457782023231       -0.00023537887776
H           -2.13424834799293       -0.66231055559322       -0.00730359091770
H           -2.14006045721318        0.85732819588331       -0.90398908215928
H           -3.58027235604296        0.34870935785455       -0.02259676187068
C           -1.99448591312203        1.09978055699868        1.23790836692101
H           -0.90205774225606        1.08780177737390        1.25215888585447
H           -2.34208198381558        0.57924939973915        2.13343623568750
C           -2.48148914879301        2.54635766730250        1.27690149366383
H           -2.13389279983415        3.06688891612300        0.38137378635100
H           -3.57391731590091        2.55833645614116        1.26265064288237
C           -1.98340142619395        3.28156026249482        2.51504547991784
H           -0.89570309860855        3.29742850428876        2.53740733611205
H           -2.34172689819971        4.30844871057176        2.52211357271692
H           -2.33591548926110        2.78880993058932        3.41879901371844
