      -----------------------------------------------------------      
     |                   =====================                   |     
     |                           x T B                           |     
     |                   =====================                   |     
     |                         S. Grimme                         |     
     |          Mulliken Center for Theoretical Chemistry        |     
     |                    University of Bonn                     |     
      -----------------------------------------------------------      

   * xtb version 6.7.1 (edcfbbe) compiled by 'conda@5dfe00f5fb80' on 2026-06-10

   xtb is free software: you can redistribute it and/or modify it under
   the terms of the GNU Lesser General Public License as published by
   the Free Software Foundation, either version 3 of the License, or
   (at your option) any later version.
   
   xtb is distributed in the hope that it will be useful,
   but WITHOUT ANY WARRANTY; without even the implied warranty of
   MERCHANTABILITY or FITNESS FOR A PARTICULAR PURPOSE.  See the
   GNU Lesser General Public License for more details.
   
   Cite this work as:
   * C. Bannwarth, E. Caldeweyher, S. Ehlert, A. Hansen, P. Pracht,
     J. Seibert, S. Spicher, S. Grimme, WIREs Comput. Mol. Sci., 2020, 11,
     e01493. DOI: 10.1002/wcms.1493
   
   for GFN2-xTB:
   * C. Bannwarth, S. Ehlert and S. Grimme., J. Chem. Theory Comput., 2019,
     15, 1652-1671. DOI: 10.1021/acs.jctc.8b01176
   for GFN1-xTB:
   * S. Grimme, C. Bannwarth, P. Shushkov, J. Chem. Theory Comput., 2017,
     13, 1989-2009. DOI: 10.1021/acs.jctc.7b00118
   for GFN0-xTB:
   * P. Pracht, E. Caldeweyher, S. Ehlert, S. Grimme, ChemRxiv, 2019, preprint.
     DOI: 10.26434/chemrxiv.8326202.v1
   for GFN-FF:
   * S. Spicher and S. Grimme, Angew. Chem. Int. Ed., 2020, 59, 15665-15673.
     DOI: 10.1002/anie.202004239
   
   for ALPB and GBSA implicit solvation:
   * S. Ehlert, M. Stahn, S. Spicher, S. Grimme, J. Chem. Theory Comput.,
     2021, 17, 4250-4261. DOI: 10.1021/acs.jctc.1c00471
   
   for ddCOSMO and CPCM-X implicit solvation:
   * M. Stahn, S. Ehlert, S. Grimme, J. Phys. Chem. A,
     2023, XX, XXXX-XXXX. DOI: 10.1021/acs.jpca.3c04382
   
   for DFT-D4:
   * E. Caldeweyher, C. Bannwarth and S. Grimme, J. Chem. Phys., 2017,
     147, 034112. DOI: 10.1063/1.4993215
   * E. Caldeweyher, S. Ehlert, A. Hansen, H. Neugebauer, S. Spicher,
     C. Bannwarth and S. Grimme, J. Chem. Phys., 2019, 150, 154122.
     DOI: 10.1063/1.5090222
   * E. Caldeweyher, J.-M. Mewes, S. Ehlert and S. Grimme, Phys. Chem. Chem. Phys.
     2020, 22, 8499-8512. DOI: 10.1039/D0CP00502A
   
   for sTDA-xTB:
   * S. Grimme and C. Bannwarth, J. Chem. Phys., 2016, 145, 054103.
     DOI: 10.1063/1.4959605
   
   in the mass-spec context:
   * V. Asgeirsson, C. Bauer and S. Grimme, Chem. Sci., 2017, 8, 4879.
     DOI: 10.1039/c7sc00601b
   * J. Koopman and S. Grimme, ACS Omega 2019, 4, 12, 15120-15133.
     DOI: 10.1021/acsomega.9b02011
   
   for metadynamics refer to:
   * S. Grimme, J. Chem. Theory Comput., 2019, 155, 2847-2862
     DOI: 10.1021/acs.jctc.9b00143
   
   for SPH calculations refer to:
   * S. Spicher and S. Grimme, J. Chem. Theory Comput., 2021, 17, 1701-1714
     DOI: 10.1021/acs.jctc.0c01306
   
   for ONIOM refer to:
   * C. Plett, A. Katbashev, S. Ehlert, S. Grimme, M. Bursch,
     Phys. Chem. Chem. Phys., 2023, 25, 17860-17868. DOI: 10.1039/D3CP02178E
   
   for DIPRO refer to:
   * J. Kohn, N. Gildemeister, S. Grimme, D. Fazzi, A. Hansen,
     J. Chem. Phys., 2023, just accepted.
   
   for PTB refer to:
   * S. Grimme, M. Mueller, A. Hansen, J. Chem. Phys., 2023, 158, 124111.
     DOI: 10.1063/5.0137838
   
   with help from (in alphabetical order)
   P. Atkinson, C. Bannwarth, F. Bohle, G. Brandenburg, E. Caldeweyher
   M. Checinski, S. Dohm, S. Ehlert, S. Ehrlich, I. Gerasimov, C. Hölzer
   A. Katbashev, J. Kohn, J. Koopman, C. Lavigne, S. Lehtola, F. März, M. Müller,
   F. Musil, H. Neugebauer, J. Pisarek, C. Plett, P. Pracht, F. Pultar,
   J. Seibert, P. Shushkov, S. Spicher, M. Stahn, M. Steiner, T. Strunk,
   J. Stückrath, T. Rose, and J. Unsleber
   
 * started run on 2026/08/11 at 11:11:58.489     
   ID    Z sym.   atoms
    1    6 C      1, 5, 8, 11
    2    1 H      2-4, 6, 7, 9, 10, 12-14

           -------------------------------------------------
          |                Calculation Setup                |
           -------------------------------------------------

          program call               : xtb input.xyz --gfn2 --opt tight --chrg 0 --uhf 0 --iterations 250
          coordinate file            : input.xyz
          omp threads                :                     4


           -------------------------------------------------
          |                 G F N 2 - x T B                 |
           -------------------------------------------------

        Reference                      10.1021/acs.jctc.8b01176
      * Hamiltonian:
        H0-scaling (s, p, d)           1.850000    2.230000    2.230000
        zeta-weighting                 0.500000
      * Dispersion:
        s8                             2.700000
        a1                             0.520000
        a2                             5.000000
        s9                             5.000000
      * Repulsion:
        kExp                           1.500000    1.000000
        rExp                           1.000000
      * Coulomb:
        alpha                          2.000000
        third order                    shell-resolved
        anisotropic                    true
        a3                             3.000000
        a5                             4.000000
        cn-shift                       1.200000
        cn-exp                         4.000000
        max-rad                        5.000000


          ...................................................
          :                      SETUP                      :
          :.................................................:
          :  # basis functions                  26          :
          :  # atomic orbitals                  26          :
          :  # shells                           18          :
          :  # electrons                        26          :
          :  max. iterations                   250          :
          :  Hamiltonian                  GFN2-xTB          :
          :  restarted?                      false          :
          :  GBSA solvation                  false          :
          :  PC potential                    false          :
          :  electronic temp.          300.0000000     K    :
          :  accuracy                    1.0000000          :
          :  -> integral cutoff          0.2500000E+02      :
          :  -> integral neglect         0.1000000E-07      :
          :  -> SCF convergence          0.1000000E-05 Eh   :
          :  -> wf. convergence          0.1000000E-03 e    :
          :  Broyden damping             0.4000000          :
          :  net charge                          0          :
          :  unpaired electrons                  0          :
          ...................................................

 iter      E             dE          RMSdq      gap      omega  full diag
   1    -13.8250646 -0.138251E+02  0.251E+00   13.92       0.0  T
   2    -13.8643448 -0.392802E-01  0.129E+00   13.61       1.0  T
   3    -13.8647457 -0.400933E-03  0.694E-01   13.60       1.0  T
   4    -13.8648610 -0.115246E-03  0.906E-02   13.59       1.0  T
   5    -13.8648659 -0.497237E-05  0.488E-02   13.59       1.0  T
   6    -13.8648665 -0.529059E-06  0.291E-03   13.59       9.2  T
   7    -13.8648665 -0.120179E-07  0.701E-04   13.59      38.1  T
   8    -13.8648665 -0.842833E-09  0.177E-04   13.59     151.0  T

   *** convergence criteria satisfied after 8 iterations ***

         #    Occupation            Energy/Eh            Energy/eV
      -------------------------------------------------------------
         1        2.0000           -0.6169293             -16.7875
       ...           ...                  ...                  ...
         7        2.0000           -0.4868620             -13.2482
         8        2.0000           -0.4678349             -12.7304
         9        2.0000           -0.4584418             -12.4748
        10        2.0000           -0.4510297             -12.2731
        11        2.0000           -0.4270864             -11.6216
        12        2.0000           -0.4236019             -11.5268
        13        2.0000           -0.4174134             -11.3584 (HOMO)
        14                          0.0820918               2.2338 (LUMO)
        15                          0.1050255               2.8579
        16                          0.1286847               3.5017
        17                          0.1423958               3.8748
        18                          0.1507076               4.1010
       ...                                ...                  ...
        26                          0.3212019               8.7403
      -------------------------------------------------------------
                  HL-Gap            0.4995052 Eh           13.5922 eV
             Fermi-level           -0.1676608 Eh           -4.5623 eV

 SCC (total)                   0 d,  0 h,  0 min,  0.086 sec
 SCC setup                      ...        0 min,  0.003 sec (  3.467%)
 Dispersion                     ...        0 min,  0.006 sec (  6.960%)
 classical contributions        ...        0 min,  0.003 sec (  3.174%)
 integral evaluation            ...        0 min,  0.007 sec (  8.205%)
 iterations                     ...        0 min,  0.065 sec ( 75.536%)
 molecular gradient             ...        0 min,  0.002 sec (  2.276%)
 printout                       ...        0 min,  0.000 sec (  0.354%)

         :::::::::::::::::::::::::::::::::::::::::::::::::::::
         ::                     SUMMARY                     ::
         :::::::::::::::::::::::::::::::::::::::::::::::::::::
         :: total energy             -13.658807113229 Eh    ::
         :: gradient norm              0.013981381050 Eh/a0 ::
         :: HOMO-LUMO gap             13.592228600220 eV    ::
         ::.................................................::
         :: SCC energy               -13.864859568380 Eh    ::
         :: -> isotropic ES            0.002938895310 Eh    ::
         :: -> anisotropic ES          0.005132680998 Eh    ::
         :: -> anisotropic XC          0.009109393771 Eh    ::
         :: -> dispersion             -0.006161886724 Eh    ::
         :: repulsion energy           0.206052455151 Eh    ::
         :: add. restraining           0.000000000000 Eh    ::
         :: total charge               0.000000000000 e     ::
         :::::::::::::::::::::::::::::::::::::::::::::::::::::

      ----------------------------------------------------------- 
     |                   =====================                   |
     |                        A N C O P T                        |
     |                   =====================                   |
     |               Approximate Normal Coordinate               |
     |                Rational Function Optimizer                |
      ----------------------------------------------------------- 
      ----------------------------------------------------------- 
     |                   =====================                   |
     |                        A N C O P T                        |
     |                   =====================                   |
     |               Approximate Normal Coordinate               |
     |                Rational Function Optimizer                |
      ----------------------------------------------------------- 

          ...................................................
          :                      SETUP                      :
          :.................................................:
          :   optimization level             tight          :
          :   max. optcycles                   200          :
          :   ANC micro-cycles                  20          :
          :   degrees of freedom                36          :
          :.................................................:
          :   RF solver                   davidson          :
          :   write xtbopt.log                true          :
          :   linear?                        false          :
          :   energy convergence         0.1000000E-05 Eh   :
          :   grad. convergence          0.8000000E-03 Eh/α :
          :   maxmium RF displ.          1.0000000          :
          :   Hlow (freq-cutoff)         0.1000000E-01      :
          :   Hmax (freq-cutoff)         5.0000000          :
          :   S6 in model hess.         20.0000000          :
          ...................................................

generating ANC from exact Hessian ...
Using Lindh-Hessian (1995)
 Shifting diagonal of input Hessian by    6.1706223566397374E-003
 Lowest  eigenvalues of input Hessian
    0.000000    0.000000    0.000000    0.000000    0.000000    0.000000
    0.010000    0.013020    0.013768    0.021163    0.021953    0.046483
    0.049080    0.058235    0.058517    0.060148    0.064206    0.064821
 Highest eigenvalues
    1.110089    1.134835    1.141291    1.206763    1.231331    1.279854


........................................................................
.............................. CYCLE    1 ..............................
........................................................................

 iter      E             dE          RMSdq      gap      omega  full diag
   1    -13.8648665 -0.138649E+02  0.740E-05   13.59       0.0  T
   2    -13.8648665 -0.651212E-11  0.423E-05   13.59     632.2  T
   3    -13.8648665 -0.206057E-12  0.158E-05   13.59    1692.6  T
     SCC iter.                  ...        0 min,  0.002 sec
     gradient                   ...        0 min,  0.003 sec
 * total energy  :   -13.6588071 Eh     change       -0.1858425E-10 Eh
   gradient norm :     0.0139807 Eh/α   predicted     0.0000000E+00 (-100.00%)
   displ. norm   :     0.1927291 α      lambda       -0.1006381E-02
   maximum displ.:     0.1298422 α      in ANC's #1, #5, #3, ...

........................................................................
.............................. CYCLE    2 ..............................
........................................................................

 iter      E             dE          RMSdq      gap      omega  full diag
   1    -13.8679142 -0.138679E+02  0.113E-01   13.66       0.0  T
   2    -13.8679153 -0.114676E-05  0.664E-02   13.66       1.0  T
   3    -13.8679155 -0.155116E-06  0.292E-03   13.66       9.2  T
   4    -13.8679155 -0.240645E-07  0.136E-03   13.66      19.6  T
   5    -13.8679155 -0.145082E-08  0.621E-04   13.66      43.1  T
   6    -13.8679155 -0.231006E-09  0.910E-05   13.66     293.6  T
     SCC iter.                  ...        0 min,  0.003 sec
     gradient                   ...        0 min,  0.002 sec
 * total energy  :   -13.6595554 Eh     change       -0.7482595E-03 Eh
   gradient norm :     0.0061994 Eh/α   predicted    -0.5218794E-03 ( -30.25%)
   displ. norm   :     0.3643896 α      lambda       -0.1011537E-02
   maximum displ.:     0.2454089 α      in ANC's #1, #3, #5, ...

........................................................................
.............................. CYCLE    3 ..............................
........................................................................

 iter      E             dE          RMSdq      gap      omega  full diag
   1    -13.8692030 -0.138692E+02  0.127E-01   13.72       0.0  T
   2    -13.8692045 -0.150808E-05  0.752E-02   13.72       1.0  T
   3    -13.8692047 -0.144836E-06  0.472E-03   13.72       5.7  T
   4    -13.8692048 -0.784134E-07  0.181E-03   13.72      14.8  T
   5    -13.8692048 -0.103921E-08  0.632E-04   13.72      42.3  T
   6    -13.8692048 -0.293886E-09  0.119E-04   13.72     224.1  T
     SCC iter.                  ...        0 min,  0.003 sec
     gradient                   ...        0 min,  0.002 sec
 * total energy  :   -13.6603805 Eh     change       -0.8251486E-03 Eh
   gradient norm :     0.0072961 Eh/α   predicted    -0.5729176E-03 ( -30.57%)
   displ. norm   :     0.5136833 α      lambda       -0.1115029E-02
   maximum displ.:     0.3311838 α      in ANC's #1, #3, #2, ...

........................................................................
.............................. CYCLE    4 ..............................
........................................................................

 iter      E             dE          RMSdq      gap      omega  full diag
   1    -13.8660975 -0.138661E+02  0.158E-01   13.79       0.0  T
   2    -13.8661050 -0.755045E-05  0.927E-02   13.78       1.0  T
   3    -13.8661054 -0.362110E-06  0.126E-02   13.78       2.1  T
   4    -13.8661056 -0.243854E-06  0.314E-03   13.78       8.5  T
   5    -13.8661056 -0.251288E-08  0.139E-03   13.78      19.2  T
   6    -13.8661056 -0.124860E-08  0.169E-04   13.78     158.6  T
   7    -13.8661056 -0.339604E-10  0.731E-05   13.78     365.8  T
     SCC iter.                  ...        0 min,  0.013 sec
     gradient                   ...        0 min,  0.002 sec
 * total energy  :   -13.6610402 Eh     change       -0.6596771E-03 Eh
   gradient norm :     0.0193340 Eh/α   predicted    -0.7046229E-03 (   6.81%)
   displ. norm   :     0.1896005 α      lambda       -0.7986813E-03
   maximum displ.:     0.1492455 α      in ANC's #1, #3, #5, ...

........................................................................
.............................. CYCLE    5 ..............................
........................................................................

 iter      E             dE          RMSdq      gap      omega  full diag
   1    -13.8689225 -0.138689E+02  0.689E-02   13.88       0.0  T
   2    -13.8689245 -0.205935E-05  0.400E-02   13.88       1.0  T
   3    -13.8689246 -0.971356E-07  0.729E-03   13.88       3.7  T
   4    -13.8689247 -0.100840E-06  0.175E-03   13.88      15.2  T
   5    -13.8689247 -0.116832E-08  0.778E-04   13.88      34.4  T
   6    -13.8689247 -0.364729E-09  0.105E-04   13.88     254.8  T
     SCC iter.                  ...        0 min,  0.003 sec
     gradient                   ...        0 min,  0.002 sec
 * total energy  :   -13.6616811 Eh     change       -0.6409486E-03 Eh
   gradient norm :     0.0129575 Eh/α   predicted    -0.4136944E-03 ( -35.46%)
   displ. norm   :     0.4214867 α      lambda       -0.1086395E-02
   maximum displ.:     0.3081273 α      in ANC's #1, #3, #2, ...

........................................................................
.............................. CYCLE    6 ..............................
........................................................................

 iter      E             dE          RMSdq      gap      omega  full diag
   1    -13.8700303 -0.138700E+02  0.123E-01   14.02       0.0  T
   2    -13.8700319 -0.160567E-05  0.737E-02   14.02       1.0  T
   3    -13.8700320 -0.134313E-06  0.491E-03   14.02       5.4  T
   4    -13.8700321 -0.110911E-06  0.194E-03   14.02      13.8  T
   5    -13.8700321 -0.309686E-08  0.674E-04   14.02      39.7  T
   6    -13.8700321 -0.206523E-09  0.148E-04   14.02     180.1  T
     SCC iter.                  ...        0 min,  0.003 sec
     gradient                   ...        0 min,  0.002 sec
 * total energy  :   -13.6624643 Eh     change       -0.7831351E-03 Eh
   gradient norm :     0.0086190 Eh/α   predicted    -0.6396945E-03 ( -18.32%)
   displ. norm   :     0.2778437 α      lambda       -0.6488588E-03
   maximum displ.:     0.2005724 α      in ANC's #1, #2, #3, ...

........................................................................
.............................. CYCLE    7 ..............................
........................................................................

 iter      E             dE          RMSdq      gap      omega  full diag
   1    -13.8735497 -0.138735E+02  0.885E-02   14.12       0.0  T
   2    -13.8735522 -0.253757E-05  0.518E-02   14.12       1.0  T
   3    -13.8735524 -0.141398E-06  0.820E-03   14.13       3.3  T
   4    -13.8735525 -0.157177E-06  0.223E-03   14.13      12.0  T
   5    -13.8735525 -0.206813E-08  0.628E-04   14.13      42.6  T
   6    -13.8735525 -0.313952E-09  0.160E-04   14.13     166.6  T
     SCC iter.                  ...        0 min,  0.003 sec
     gradient                   ...        0 min,  0.002 sec
 * total energy  :   -13.6628619 Eh     change       -0.3976418E-03 Eh
   gradient norm :     0.0064458 Eh/α   predicted    -0.3494742E-03 ( -12.11%)
   displ. norm   :     0.5977053 α      lambda       -0.7201586E-03
   maximum displ.:     0.4229816 α      in ANC's #1, #3, #2, ...

........................................................................
.............................. CYCLE    8 ..............................
........................................................................

 iter      E             dE          RMSdq      gap      omega  full diag
   1    -13.8634643 -0.138635E+02  0.184E-01   14.13       0.0  T
   2    -13.8634910 -0.267321E-04  0.105E-01   14.13       1.0  T
   3    -13.8634921 -0.109879E-05  0.253E-02   14.13       1.1  T
   4    -13.8634923 -0.253186E-06  0.485E-03   14.13       5.5  T
   5    -13.8634923 -0.625906E-08  0.219E-03   14.13      12.2  T
   6    -13.8634923 -0.292378E-08  0.273E-04   14.13      97.8  T
   7    -13.8634923 -0.112841E-09  0.124E-04   14.13     214.8  T
     SCC iter.                  ...        0 min,  0.003 sec
     gradient                   ...        0 min,  0.002 sec
 * total energy  :   -13.6625559 Eh     change        0.3059774E-03 Eh
   gradient norm :     0.0254314 Eh/α   predicted    -0.4887101E-03 (-259.72%)
   displ. norm   :     0.2567028 α      lambda       -0.1472921E-02
   maximum displ.:     0.1683878 α      in ANC's #1, #3, #2, ...

........................................................................
.............................. CYCLE    9 ..............................
........................................................................

 iter      E             dE          RMSdq      gap      omega  full diag
   1    -13.8729025 -0.138729E+02  0.119E-01   14.15       0.0  T
   2    -13.8729216 -0.190900E-04  0.652E-02   14.15       1.0  T
   3    -13.8729223 -0.708815E-06  0.212E-02   14.15       1.3  T
   4    -13.8729224 -0.126542E-06  0.385E-03   14.15       6.9  T
   5    -13.8729224 -0.424601E-08  0.181E-03   14.15      14.8  T
   6    -13.8729224 -0.176824E-08  0.213E-04   14.15     125.2  T
   7    -13.8729224 -0.852545E-10  0.944E-05   14.15     283.2  T
     SCC iter.                  ...        0 min,  0.004 sec
     gradient                   ...        0 min,  0.002 sec
 * total energy  :   -13.6632323 Eh     change       -0.6763437E-03 Eh
   gradient norm :     0.0058932 Eh/α   predicted    -0.7849917E-03 (  16.06%)
   displ. norm   :     0.1129176 α      lambda       -0.1411520E-03
   maximum displ.:     0.0781557 α      in ANC's #2, #1, #24, ...

........................................................................
.............................. CYCLE   10 ..............................
........................................................................

 iter      E             dE          RMSdq      gap      omega  full diag
   1    -13.8737432 -0.138737E+02  0.352E-02   14.15       0.0  T
   2    -13.8737433 -0.797495E-07  0.210E-02   14.15       1.3  T
   3    -13.8737433 -0.936119E-08  0.849E-04   14.15      31.5  T
   4    -13.8737433 -0.209850E-08  0.392E-04   14.15      68.2  T
     SCC iter.                  ...        0 min,  0.002 sec
     gradient                   ...        0 min,  0.002 sec
 * total energy  :   -13.6633592 Eh     change       -0.1268704E-03 Eh
   gradient norm :     0.0041294 Eh/α   predicted    -0.7147389E-04 ( -43.66%)
   displ. norm   :     0.4906649 α      lambda       -0.4953567E-03
   maximum displ.:     0.3248951 α      in ANC's #2, #1, #24, ...

........................................................................
.............................. CYCLE   11 ..............................
........................................................................

 iter      E             dE          RMSdq      gap      omega  full diag
   1    -13.8712212 -0.138712E+02  0.142E-01   14.12       0.0  T
   2    -13.8712235 -0.230208E-05  0.848E-02   14.12       1.0  T
   3    -13.8712237 -0.199090E-06  0.612E-03   14.12       4.4  T
   4    -13.8712239 -0.132400E-06  0.229E-03   14.12      11.7  T
   5    -13.8712239 -0.156133E-08  0.848E-04   14.12      31.5  T
   6    -13.8712239 -0.320441E-09  0.135E-04   14.12     198.1  T
     SCC iter.                  ...        0 min,  0.003 sec
     gradient                   ...        0 min,  0.002 sec
 * total energy  :   -13.6636365 Eh     change       -0.2773739E-03 Eh
   gradient norm :     0.0092767 Eh/α   predicted    -0.3073138E-03 (  10.79%)
   displ. norm   :     0.0948992 α      lambda       -0.1884641E-03
   maximum displ.:     0.0607725 α      in ANC's #2, #3, #1, ...

........................................................................
.............................. CYCLE   12 ..............................
........................................................................

 iter      E             dE          RMSdq      gap      omega  full diag
   1    -13.8730183 -0.138730E+02  0.341E-02   14.12       0.0  T
   2    -13.8730190 -0.771899E-06  0.196E-02   14.13       1.4  T
   3    -13.8730191 -0.332661E-07  0.432E-03   14.13       6.2  T
   4    -13.8730191 -0.108101E-07  0.855E-04   14.13      31.2  T
   5    -13.8730191 -0.239229E-09  0.397E-04   14.13      67.3  T
     SCC iter.                  ...        0 min,  0.003 sec
     gradient                   ...        0 min,  0.002 sec
 * total energy  :   -13.6637775 Eh     change       -0.1409207E-03 Eh
   gradient norm :     0.0052742 Eh/α   predicted    -0.9507951E-04 ( -32.53%)
   displ. norm   :     0.3356991 α      lambda       -0.2469542E-03
   maximum displ.:     0.2197313 α      in ANC's #2, #1, #24, ...

........................................................................
.............................. CYCLE   13 ..............................
........................................................................

 iter      E             dE          RMSdq      gap      omega  full diag
   1    -13.8725656 -0.138726E+02  0.916E-02   14.15       0.0  T
   2    -13.8725661 -0.456154E-06  0.549E-02   14.15       1.0  T
   3    -13.8725662 -0.848782E-07  0.227E-03   14.15      11.7  T
   4    -13.8725662 -0.881026E-08  0.111E-03   14.15      24.0  T
   5    -13.8725662 -0.379663E-09  0.338E-04   14.15      79.0  T
   6    -13.8725662 -0.157593E-09  0.752E-05   14.15     355.2  T
     SCC iter.                  ...        0 min,  0.003 sec
     gradient                   ...        0 min,  0.002 sec
 * total energy  :   -13.6639412 Eh     change       -0.1637722E-03 Eh
   gradient norm :     0.0063870 Eh/α   predicted    -0.1373952E-03 ( -16.11%)
   displ. norm   :     0.1680777 α      lambda       -0.1825126E-03
   maximum displ.:     0.0915700 α      in ANC's #1, #2, #24, ...

........................................................................
.............................. CYCLE   14 ..............................
........................................................................

 iter      E             dE          RMSdq      gap      omega  full diag
   1    -13.8751233 -0.138751E+02  0.541E-02   14.20       0.0  T
   2    -13.8751241 -0.797023E-06  0.318E-02   14.20       1.0  T
   3    -13.8751241 -0.338384E-07  0.412E-03   14.20       6.5  T
   4    -13.8751242 -0.461508E-07  0.109E-03   14.20      24.4  T
   5    -13.8751242 -0.280316E-09  0.501E-04   14.20      53.4  T
   6    -13.8751242 -0.551594E-10  0.484E-05   14.20     552.2  T
     SCC iter.                  ...        0 min,  0.003 sec
     gradient                   ...        0 min,  0.002 sec
 * total energy  :   -13.6640480 Eh     change       -0.1067688E-03 Eh
   gradient norm :     0.0037527 Eh/α   predicted    -0.9383512E-04 ( -12.11%)
   displ. norm   :     0.3707299 α      lambda       -0.1615819E-03
   maximum displ.:     0.2235483 α      in ANC's #1, #2, #24, ...

........................................................................
.............................. CYCLE   15 ..............................
........................................................................

 iter      E             dE          RMSdq      gap      omega  full diag
   1    -13.8702916 -0.138703E+02  0.106E-01   14.22       0.0  T
   2    -13.8702960 -0.445437E-05  0.626E-02   14.22       1.0  T
   3    -13.8702962 -0.220877E-06  0.866E-03   14.22       3.1  T
   4    -13.8702963 -0.437870E-07  0.209E-03   14.22      12.8  T
   5    -13.8702963 -0.177660E-08  0.980E-04   14.22      27.3  T
   6    -13.8702963 -0.549106E-09  0.113E-04   14.22     235.6  T
     SCC iter.                  ...        0 min,  0.004 sec
     gradient                   ...        0 min,  0.002 sec
 * total energy  :   -13.6640132 Eh     change        0.3477348E-04 Eh
   gradient norm :     0.0104128 Eh/α   predicted    -0.9189567E-04 (-364.27%)
   displ. norm   :     0.1721966 α      lambda       -0.2650346E-03
   maximum displ.:     0.1150560 α      in ANC's #2, #1, #24, ...

........................................................................
.............................. CYCLE   16 ..............................
........................................................................

 iter      E             dE          RMSdq      gap      omega  full diag
   1    -13.8746769 -0.138747E+02  0.611E-02   14.23       0.0  T
   2    -13.8746802 -0.324217E-05  0.347E-02   14.23       1.0  T
   3    -13.8746803 -0.147966E-06  0.878E-03   14.23       3.0  T
   4    -13.8746803 -0.345691E-07  0.178E-03   14.23      15.0  T
   5    -13.8746803 -0.191691E-08  0.885E-04   14.23      30.2  T
   6    -13.8746803 -0.371852E-09  0.103E-04   14.23     258.4  T
     SCC iter.                  ...        0 min,  0.004 sec
     gradient                   ...        0 min,  0.002 sec
 * total energy  :   -13.6641224 Eh     change       -0.1091789E-03 Eh
   gradient norm :     0.0020566 Eh/α   predicted    -0.1364466E-03 (  24.98%)
   displ. norm   :     0.0646461 α      lambda       -0.2588591E-04
   maximum displ.:     0.0388604 α      in ANC's #2, #1, #24, ...

........................................................................
.............................. CYCLE   17 ..............................
........................................................................

 iter      E             dE          RMSdq      gap      omega  full diag
   1    -13.8747500 -0.138747E+02  0.211E-02   14.23       0.0  T
   2    -13.8747500 -0.542604E-07  0.126E-02   14.23       2.1  T
   3    -13.8747500 -0.508381E-08  0.865E-04   14.23      30.9  T
   4    -13.8747500 -0.204313E-08  0.330E-04   14.23      81.0  T
     SCC iter.                  ...        0 min,  0.002 sec
     gradient                   ...        0 min,  0.002 sec
 * total energy  :   -13.6641399 Eh     change       -0.1753149E-04 Eh
   gradient norm :     0.0020417 Eh/α   predicted    -0.1299827E-04 ( -25.86%)
   displ. norm   :     0.1522542 α      lambda       -0.3325468E-04
   maximum displ.:     0.0896483 α      in ANC's #2, #1, #24, ...

........................................................................
.............................. CYCLE   18 ..............................
........................................................................

 iter      E             dE          RMSdq      gap      omega  full diag
   1    -13.8741031 -0.138741E+02  0.424E-02   14.23       0.0  T
   2    -13.8741032 -0.116351E-06  0.255E-02   14.23       1.0  T
   3    -13.8741033 -0.162628E-07  0.122E-03   14.23      21.8  T
   4    -13.8741033 -0.552578E-08  0.553E-04   14.23      48.3  T
   5    -13.8741033 -0.113491E-09  0.200E-04   14.23     133.6  T
     SCC iter.                  ...        0 min,  0.002 sec
     gradient                   ...        0 min,  0.002 sec
 * total energy  :   -13.6641557 Eh     change       -0.1572953E-04 Eh
   gradient norm :     0.0023606 Eh/α   predicted    -0.1701379E-04 (   8.16%)
   displ. norm   :     0.0246854 α      lambda       -0.1298237E-04
   maximum displ.:     0.0135893 α      in ANC's #1, #24, #2, ...

........................................................................
.............................. CYCLE   19 ..............................
........................................................................

 iter      E             dE          RMSdq      gap      omega  full diag
   1    -13.8744904 -0.138745E+02  0.113E-02   14.23       0.0  T
   2    -13.8744904 -0.547675E-07  0.656E-03   14.23       4.1  T
   3    -13.8744904 -0.422558E-08  0.118E-03   14.23      22.6  T
   4    -13.8744904 -0.204741E-08  0.332E-04   14.23      80.5  T
   5    -13.8744904 -0.849525E-10  0.117E-04   14.23     227.9  T
     SCC iter.                  ...        0 min,  0.003 sec
     gradient                   ...        0 min,  0.002 sec
 * total energy  :   -13.6641617 Eh     change       -0.5989467E-05 Eh
   gradient norm :     0.0020361 Eh/α   predicted    -0.6497084E-05 (   8.48%)
   displ. norm   :     0.0252228 α      lambda       -0.8848321E-05
   maximum displ.:     0.0187518 α      in ANC's #1, #24, #2, ...

........................................................................
.............................. CYCLE   20 ..............................
........................................................................

 iter      E             dE          RMSdq      gap      omega  full diag
   1    -13.8748132 -0.138748E+02  0.104E-02   14.23       0.0  T
   2    -13.8748133 -0.667297E-07  0.599E-03   14.23       4.5  T
   3    -13.8748133 -0.287401E-08  0.122E-03   14.23      22.0  T
   4    -13.8748133 -0.104908E-08  0.247E-04   14.23     108.2  T
   5    -13.8748133 -0.228688E-10  0.113E-04   14.23     237.5  T
     SCC iter.                  ...        0 min,  0.003 sec
     gradient                   ...        0 min,  0.002 sec
 * total energy  :   -13.6641666 Eh     change       -0.4992019E-05 Eh
   gradient norm :     0.0012500 Eh/α   predicted    -0.4426673E-05 ( -11.33%)
   displ. norm   :     0.0681128 α      lambda       -0.5493832E-05
   maximum displ.:     0.0412421 α      in ANC's #1, #2, #24, ...
 * RMSD in coord.:     0.9668152 α      energy gain  -0.5359531E-02 Eh

generating ANC from exact Hessian ...
Using Lindh-Hessian (1995)
 Shifting diagonal of input Hessian by    5.8760408442235486E-003
 Lowest  eigenvalues of input Hessian
    0.000000    0.000000    0.000000    0.000000    0.000000    0.000000
    0.010000    0.012774    0.013889    0.020815    0.024456    0.046266
    0.051303    0.058741    0.058887    0.061030    0.062400    0.067425
 Highest eigenvalues
    1.130345    1.157820    1.163038    1.211107    1.245807    1.277462


........................................................................
.............................. CYCLE   21 ..............................
........................................................................

 iter      E             dE          RMSdq      gap      omega  full diag
   1    -13.8750531 -0.138751E+02  0.189E-02   14.24       0.0  T
   2    -13.8750531 -0.128917E-07  0.113E-02   14.24       2.4  T
   3    -13.8750531 -0.383193E-08  0.456E-04   14.24      58.6  T
   4    -13.8750531 -0.329798E-09  0.231E-04   14.24     115.7  T
     SCC iter.                  ...        0 min,  0.002 sec
     gradient                   ...        0 min,  0.003 sec
 * total energy  :   -13.6641709 Eh     change       -0.4212147E-05 Eh
   gradient norm :     0.0010622 Eh/α   predicted     0.0000000E+00 (-100.00%)
   displ. norm   :     0.0160164 α      lambda       -0.3943157E-05
   maximum displ.:     0.0090580 α      in ANC's #1, #5, #2, ...

........................................................................
.............................. CYCLE   22 ..............................
........................................................................

 iter      E             dE          RMSdq      gap      omega  full diag
   1    -13.8749727 -0.138750E+02  0.848E-03   14.24       0.0  T
   2    -13.8749727 -0.162690E-07  0.501E-03   14.24       5.3  T
   3    -13.8749727 -0.218735E-08  0.558E-04   14.24      47.9  T
   4    -13.8749727 -0.641869E-09  0.224E-04   14.24     119.1  T
     SCC iter.                  ...        0 min,  0.002 sec
     gradient                   ...        0 min,  0.002 sec
 * total energy  :   -13.6641741 Eh     change       -0.3264280E-05 Eh
   gradient norm :     0.0002670 Eh/α   predicted    -0.1969914E-05 ( -39.65%)
   displ. norm   :     0.0161913 α      lambda       -0.1312930E-05
   maximum displ.:     0.0096968 α      in ANC's #1, #3, #4, ...

........................................................................
.............................. CYCLE   23 ..............................
........................................................................

 iter      E             dE          RMSdq      gap      omega  full diag
   1    -13.8749664 -0.138750E+02  0.484E-03   14.24       0.0  T
   2    -13.8749664 -0.174799E-08  0.290E-03   14.24       9.2  T
   3    -13.8749664 -0.278087E-09  0.171E-04   14.24     155.9  T
   4    -13.8749664 -0.100224E-09  0.791E-05   14.24     337.7  T
     SCC iter.                  ...        0 min,  0.002 sec
     gradient                   ...        0 min,  0.002 sec
 * total energy  :   -13.6641756 Eh     change       -0.1457049E-05 Eh
   gradient norm :     0.0002964 Eh/α   predicted    -0.6550843E-06 ( -55.04%)
   displ. norm   :     0.0260076 α      lambda       -0.1366944E-05
   maximum displ.:     0.0167370 α      in ANC's #3, #1, #4, ...

........................................................................
.............................. CYCLE   24 ..............................
........................................................................

 iter      E             dE          RMSdq      gap      omega  full diag
   1    -13.8749789 -0.138750E+02  0.774E-03   14.25       0.0  T
   2    -13.8749789 -0.303426E-08  0.462E-03   14.25       5.8  T
   3    -13.8749789 -0.645246E-09  0.247E-04   14.25     108.4  T
   4    -13.8749789 -0.187839E-09  0.117E-04   14.25     228.5  T
     SCC iter.                  ...        0 min,  0.002 sec
     gradient                   ...        0 min,  0.002 sec
 * total energy  :   -13.6641768 Eh     change       -0.1185920E-05 Eh
   gradient norm :     0.0002270 Eh/α   predicted    -0.6841435E-06 ( -42.31%)
   displ. norm   :     0.0095255 α      lambda       -0.2732204E-06
   maximum displ.:     0.0071104 α      in ANC's #3, #1, #4, ...

........................................................................
.............................. CYCLE   25 ..............................
........................................................................

 iter      E             dE          RMSdq      gap      omega  full diag
   1    -13.8749941 -0.138750E+02  0.300E-03   14.25       0.0  T
   2    -13.8749941 -0.498192E-09  0.179E-03   14.25      14.9  T
   3    -13.8749941 -0.741327E-10  0.898E-05   14.25     297.6  T
   4    -13.8749941 -0.312923E-10  0.409E-05   14.25     654.1  T
     SCC iter.                  ...        0 min,  0.002 sec
     gradient                   ...        0 min,  0.004 sec
 * total energy  :   -13.6641770 Eh     change       -0.2323730E-06 Eh
   gradient norm :     0.0000892 Eh/α   predicted    -0.1379185E-06 ( -40.65%)
   displ. norm   :     0.0053029 α      lambda       -0.1068921E-06
   maximum displ.:     0.0032090 α      in ANC's #3, #1, #2, ...

   *** GEOMETRY OPTIMIZATION CONVERGED AFTER 25 ITERATIONS ***

------------------------------------------------------------------------
 total energy gain   :        -0.0053699 Eh       -3.3697 kcal/mol
 total RMSD          :         0.9774994 a0        0.5173 Å
 total power (kW/mol):        -0.5639450 (step)  -73.6109 (real)
------------------------------------------------------------------------

 ANCopt (total)                0 d,  0 h,  0 min,  0.192 sec
 optimizer setup                ...        0 min,  0.000 sec (  0.105%)
 model hessian                  ...        0 min,  0.018 sec (  9.310%)
 ANC generation                 ...        0 min,  0.001 sec (  0.575%)
 coordinate transformation      ...        0 min,  0.000 sec (  0.116%)
 single point calculation       ...        0 min,  0.158 sec ( 82.242%)
 optimization log               ...        0 min,  0.005 sec (  2.643%)
 hessian update                 ...        0 min,  0.003 sec (  1.487%)
 rational function              ...        0 min,  0.004 sec (  2.325%)

================
 final structure:
================
14
 xtb: 6.7.1 (edcfbbe)
C           -2.94633382297168        0.20108760300190        1.89593780275041
H           -2.92799097084031        0.44156006437763        2.95562335907129
H           -2.67783416259658       -0.84699052815874        1.78282162066012
H           -3.96181614286858        0.33602963453524        1.52905556412238
C           -1.97708385093524        1.08240477421166        1.11674913057707
H           -1.96197840518456        0.75329723767617        0.07471544596489
H           -0.96866459596592        0.95505923805169        1.51743805275844
C           -2.34902307498777        2.56513124007363        1.15470514904521
H           -1.70551989658343        3.10371660654919        0.45459651260870
H           -3.38015032946955        2.68542951107836        0.81419974793763
C           -2.19721175975748        3.18639725285899        2.53830971323087
H           -1.18298965750234        3.04852413142442        2.90754029165883
H           -2.40489016472206        4.25345283889365        2.49801926630423
H           -2.88636649561455        2.73507123542611        3.24714375330993

 Bond Distances (Angstroems)
 ---------------------------
C1-H2=1.0868         C1-H3=1.0878         C1-H4=1.0881         C1-C5=1.5242         H2-C1=1.0868         H3-C1=1.0878         
H4-C1=1.0881         C5-C1=1.5242         C5-H6=1.0929         C5-H7=1.0926         C5-C8=1.5291         H6-C5=1.0929         
H7-C5=1.0926         C8-C5=1.5291         C8-H9=1.0929         C8-H10=1.0925        C8-C11=1.5243        H9-C8=1.0929         
H10-C8=1.0925        C11-C8=1.5243        C11-H12=1.0881       C11-H13=1.0878       C11-H14=1.0868       H12-C11=1.0881       
H13-C11=1.0878       H14-C11=1.0868       
 C  H  Rav=1.0896 sigma=0.0026  Rmin=1.0868  Rmax=1.0929    10
 C  C  Rav=1.5259 sigma=0.0023  Rmin=1.5242  Rmax=1.5291     3

 selected bond angles (degree)
 --------------------
H3-C1-H2=108.08                H4-C1-H2=108.49                H4-C1-H3=108.35                C5-C1-H2=111.09                
C5-C1-H3=110.30                C5-C1-H4=110.45                H6-C5-C1=108.79                H7-C5-C1=109.39                
H7-C5-H6=107.57                C8-C5-C1=113.16                C8-C5-H6=108.60                C8-C5-H7=109.17                
H9-C8-C5=108.59                H10-C8-C5=109.18               H10-C8-H9=107.57               C11-C8-C5=113.17               
C11-C8-H9=108.78               C11-C8-H10=109.39              

 selected dihedral angles (degree)
 ---------------------------------
H6-C5-C1-H2=175.21            H6-C5-C1-H3= 55.38            H6-C5-C1-H4=295.63            H7-C5-C1-H2= 57.96            
H7-C5-C1-H3=298.14            H7-C5-C1-H4=178.39            C8-C5-C1-H2=296.01            C8-C5-C1-H3=176.18            
C8-C5-C1-H4= 56.44            H9-C8-C5-C1=188.66            H9-C8-C5-H6=309.57            H9-C8-C5-H7= 66.58            
H10-C8-C5-C1=305.67           H10-C8-C5-H6= 66.58           H10-C8-C5-H7=183.59           C11-C8-C5-C1= 67.77           
C11-C8-C5-H6=188.67           C11-C8-C5-H7=305.69           
           -------------------------------------------------
          |                Final Singlepoint                |
           -------------------------------------------------

          ...................................................
          :                      SETUP                      :
          :.................................................:
          :  # basis functions                  26          :
          :  # atomic orbitals                  26          :
          :  # shells                           18          :
          :  # electrons                        26          :
          :  max. iterations                   250          :
          :  Hamiltonian                  GFN2-xTB          :
          :  restarted?                      false          :
          :  GBSA solvation                  false          :
          :  PC potential                    false          :
          :  electronic temp.          300.0000000     K    :
          :  accuracy                    1.0000000          :
          :  -> integral cutoff          0.2500000E+02      :
          :  -> integral neglect         0.1000000E-07      :
          :  -> SCF convergence          0.1000000E-05 Eh   :
          :  -> wf. convergence          0.1000000E-03 e    :
          :  Broyden damping             0.4000000          :
          :  net charge                          0          :
          :  unpaired electrons                  0          :
          ...................................................

 iter      E             dE          RMSdq      gap      omega  full diag
   1    -13.8749941 -0.138750E+02  0.130E-05   14.25       0.0  T
   2    -13.8749941 -0.136779E-12  0.732E-06   14.25    3650.1  T
   3    -13.8749941  0.106581E-13  0.208E-06   14.25   12820.6  T

   *** convergence criteria satisfied after 3 iterations ***

         #    Occupation            Energy/Eh            Energy/eV
      -------------------------------------------------------------
         1        2.0000           -0.6178086             -16.8114
       ...           ...                  ...                  ...
         7        2.0000           -0.4850276             -13.1983
         8        2.0000           -0.4662807             -12.6881
         9        2.0000           -0.4619431             -12.5701
        10        2.0000           -0.4481713             -12.1954
        11        2.0000           -0.4258423             -11.5878
        12        2.0000           -0.4235646             -11.5258
        13        2.0000           -0.4220762             -11.4853 (HOMO)
        14                          0.1015247               2.7626 (LUMO)
        15                          0.1114557               3.0329
        16                          0.1371719               3.7326
        17                          0.1488908               4.0515
        18                          0.1497682               4.0754
       ...                                ...                  ...
        26                          0.3005801               8.1792
      -------------------------------------------------------------
                  HL-Gap            0.5236008 Eh           14.2479 eV
             Fermi-level           -0.1602757 Eh           -4.3613 eV

 SCC (total)                   0 d,  0 h,  0 min,  0.037 sec
 SCC setup                      ...        0 min,  0.001 sec (  2.019%)
 Dispersion                     ...        0 min,  0.003 sec (  8.070%)
 classical contributions        ...        0 min,  0.003 sec (  7.886%)
 integral evaluation            ...        0 min,  0.003 sec (  8.418%)
 iterations                     ...        0 min,  0.021 sec ( 56.398%)
 molecular gradient             ...        0 min,  0.006 sec ( 16.141%)
 printout                       ...        0 min,  0.000 sec (  0.774%)

         :::::::::::::::::::::::::::::::::::::::::::::::::::::
         ::                     SUMMARY                     ::
         :::::::::::::::::::::::::::::::::::::::::::::::::::::
         :: total energy             -13.664176995858 Eh    ::
         :: gradient norm              0.000089166027 Eh/a0 ::
         :: HOMO-LUMO gap             14.247904111239 eV    ::
         ::.................................................::
         :: SCC energy               -13.874987006501 Eh    ::
         :: -> isotropic ES            0.002971443987 Eh    ::
         :: -> anisotropic ES          0.004971696218 Eh    ::
         :: -> anisotropic XC          0.008992816592 Eh    ::
         :: -> dispersion             -0.006301240225 Eh    ::
         :: repulsion energy           0.210810010642 Eh    ::
         :: add. restraining           0.000000000000 Eh    ::
         :: total charge              -0.000000000000 e     ::
         :::::::::::::::::::::::::::::::::::::::::::::::::::::

           -------------------------------------------------
          |                Property Printout                |
           -------------------------------------------------

    * Orbital Energies and Occupations

         #    Occupation            Energy/Eh            Energy/eV
      -------------------------------------------------------------
         1        2.0000           -0.6178086             -16.8114
         2        2.0000           -0.5960773             -16.2201
         3        2.0000           -0.5731291             -15.5956
         4        2.0000           -0.5475358             -14.8992
         5        2.0000           -0.5065082             -13.7828
         6        2.0000           -0.5058558             -13.7650
         7        2.0000           -0.4850276             -13.1983
         8        2.0000           -0.4662807             -12.6881
         9        2.0000           -0.4619431             -12.5701
        10        2.0000           -0.4481713             -12.1954
        11        2.0000           -0.4258423             -11.5878
        12        2.0000           -0.4235646             -11.5258
        13        2.0000           -0.4220762             -11.4853 (HOMO)
        14                          0.1015247               2.7626 (LUMO)
        15                          0.1114557               3.0329
        16                          0.1371719               3.7326
        17                          0.1488908               4.0515
        18                          0.1497682               4.0754
        19                          0.1575333               4.2867
        20                          0.2026495               5.5144
        21                          0.2066255               5.6226
        22                          0.2347596               6.3881
        23                          0.2486779               6.7669
        24                          0.2784322               7.5765
       ...                                ...                  ...
        26                          0.3005801               8.1792
      -------------------------------------------------------------
                  HL-Gap            0.5236008 Eh           14.2479 eV
             Fermi-level           -0.1602757 Eh           -4.3613 eV

     #   Z          covCN         q      C6AA      α(0)
     1   6 C        3.751    -0.101    22.492     6.763
     2   1 H        0.925     0.035     2.511     2.478
     3   1 H        0.925     0.030     2.585     2.514
     4   1 H        0.925     0.032     2.551     2.498
     5   6 C        3.800    -0.053    21.518     6.605
     6   1 H        0.924     0.026     2.643     2.543
     7   1 H        0.924     0.030     2.591     2.517
     8   6 C        3.800    -0.053    21.519     6.605
     9   1 H        0.924     0.026     2.643     2.543
    10   1 H        0.924     0.030     2.591     2.517
    11   6 C        3.751    -0.101    22.492     6.763
    12   1 H        0.925     0.033     2.551     2.498
    13   1 H        0.925     0.030     2.585     2.514
    14   1 H        0.925     0.035     2.512     2.478

 Mol. C6AA /au·bohr⁶  :       1208.194537
 Mol. C8AA /au·bohr⁸  :      24487.181000
 Mol. α(0) /au        :         51.836785


Wiberg/Mayer (AO) data.
largest (>0.10) Wiberg bond orders for each atom

 ---------------------------------------------------------------------------
     #   Z sym  total        # sym  WBO       # sym  WBO       # sym  WBO
 ---------------------------------------------------------------------------
     1   6 C    3.997 --     5 C    1.020     4 H    0.988     3 H    0.988
                             2 H    0.986
     2   1 H    0.999 --     1 C    0.986
     3   1 H    0.999 --     1 C    0.988
     4   1 H    0.999 --     1 C    0.988
     5   6 C    3.998 --     1 C    1.020     8 C    1.008     6 H    0.979
                             7 H    0.978
     6   1 H    0.999 --     5 C    0.979
     7   1 H    0.999 --     5 C    0.978
     8   6 C    3.998 --    11 C    1.020     5 C    1.008     9 H    0.979
                            10 H    0.978
     9   1 H    0.999 --     8 C    0.979
    10   1 H    0.999 --     8 C    0.978
    11   6 C    3.997 --     8 C    1.020    12 H    0.988    13 H    0.988
                            14 H    0.986
    12   1 H    0.999 --    11 C    0.988
    13   1 H    0.999 --    11 C    0.988
    14   1 H    0.999 --    11 C    0.986
 ---------------------------------------------------------------------------

Topologies differ in total number of bonds
Writing topology from bond orders to xtbtopo.mol

molecular dipole:
                 x           y           z       tot (Debye)
 q only:       -0.005      -0.002       0.014
   full:       -0.004      -0.001       0.011       0.031
molecular quadrupole (traceless):
                xx          xy          yy          xz          yz          zz
 q only:       -0.039      -0.005      -0.107      -0.174       0.053       0.146
  q+dip:        0.527      -0.182      -0.523       0.131      -0.052      -0.004
   full:        0.239      -0.091      -0.280      -0.000       0.000       0.041

           -------------------------------------------------
          |                Geometry Summary                 |
           -------------------------------------------------

      molecular mass/u    :       58.1223511
   center of mass at/Å    :       -2.3740738       1.7566327       1.6940604
Note: The following floating-point exceptions are signalling: IEEE_UNDERFLOW_FLAG IEEE_DENORMAL
normal termination of xtb
  moments of inertia/u·Å² :        0.3758111E+02   0.1056474E+03   0.1229030E+03
rotational constants/cm⁻¹ :        0.4485666E+00   0.1595650E+00   0.1371621E+00

 * 13 selected distances

     #   Z          #   Z                                           value/Å
     1   6 C        2   1 H                                       1.0867829
     1   6 C        3   1 H                                       1.0878214
     1   6 C        4   1 H                                       1.0881252
     1   6 C        5   6 C                                       1.5242378
     5   6 C        6   1 H                                       1.0928744
     5   6 C        7   1 H                                       1.0925558
     5   6 C        8   6 C                                       1.5291362 (max)
     8   6 C        9   1 H                                       1.0928508
     8   6 C       10   1 H                                       1.0925380
     8   6 C       11   6 C                                       1.5242638
    11   6 C       12   1 H                                       1.0881116
    11   6 C       13   1 H                                       1.0878242
    11   6 C       14   1 H                                       1.0867729 (min)

 * 2 distinct bonds (by element types)

   Z      Z             #   av. dist./Å        max./Å        min./Å
   1 H    6 C          10     1.0896257     1.0928744     1.0867729
   6 C    6 C           3     1.5258793     1.5291362     1.5242378


optimized geometry written to: xtbopt.xyz


           -------------------------------------------------
          | TOTAL ENERGY              -13.664176995858 Eh   |
          | GRADIENT NORM               0.000089166027 Eh/α |
          | HOMO-LUMO GAP              14.247904111239 eV   |
           -------------------------------------------------

------------------------------------------------------------------------
 * finished run on 2026/08/11 at 11:11:58.849     
------------------------------------------------------------------------
 total:
 * wall-time:     0 d,  0 h,  0 min,  0.360 sec
 *  cpu-time:     0 d,  0 h,  0 min,  1.381 sec
 * ratio c/w:     3.839 speedup
 SCF:
 * wall-time:     0 d,  0 h,  0 min,  0.086 sec
 *  cpu-time:     0 d,  0 h,  0 min,  0.338 sec
 * ratio c/w:     3.920 speedup
 ANC optimizer:
 * wall-time:     0 d,  0 h,  0 min,  0.230 sec
 *  cpu-time:     0 d,  0 h,  0 min,  0.879 sec
 * ratio c/w:     3.821 speedup

