14
 energy: -13.664176995858 gnorm: 0.000089166027 xtb: 6.7.1 (edcfbbe)
C           -2.94633382297168        0.20108760300190        1.89593780275041
H           -2.92799097084031        0.44156006437763        2.95562335907129
H           -2.67783416259658       -0.84699052815874        1.78282162066012
H           -3.96181614286858        0.33602963453524        1.52905556412238
C           -1.97708385093524        1.08240477421166        1.11674913057707
H           -1.96197840518456        0.75329723767617        0.07471544596489
H           -0.96866459596592        0.95505923805169        1.51743805275844
C           -2.34902307498777        2.56513124007363        1.15470514904521
H           -1.70551989658343        3.10371660654919        0.45459651260870
H           -3.38015032946955        2.68542951107836        0.81419974793763
C           -2.19721175975748        3.18639725285899        2.53830971323087
H           -1.18298965750234        3.04852413142442        2.90754029165883
H           -2.40489016472206        4.25345283889365        2.49801926630423
H           -2.88636649561455        2.73507123542611        3.24714375330993
