%mem=1GB
%nprocshared=4
%chk=5_qm.chk
#p nosymm geom=nocrowd opt=(modredundant,maxcycle=100) 
  PM6

Title

0 1
C  -0.536850 0.104174 0.014636
O  -1.636322 -0.676373 -0.068268
C  0.726013 -0.717700 0.105280
H  0.716994 -1.157121 1.114447
H  0.643380 -1.553795 -0.592281
N  1.889013 0.097733 -0.195097
H  1.748159 1.040807 0.145925
H  2.723536 -0.278432 0.231888
O  -0.586810 1.305633 0.046275
H  -2.405088 -0.088514 -0.077854

D 2 1 3 6 S 10 36.0

