 Entering Gaussian System, Link 0=/home/falbo/g16/g16
 Initial command:
 /home/falbo/g16/l1.exe "/home/falbo/scratch_g16/1210/Gau-1433675.inp" -scrdir="/home/falbo/scratch_g16/1210/"
 Entering Link 1 = /home/falbo/g16/l1.exe PID=   1433676.
  
 Copyright (c) 1988-2017, Gaussian, Inc.  All Rights Reserved.
  
 This is part of the Gaussian(R) 16 program.  It is based on
 the Gaussian(R) 09 system (copyright 2009, Gaussian, Inc.),
 the Gaussian(R) 03 system (copyright 2003, Gaussian, Inc.),
 the Gaussian(R) 98 system (copyright 1998, Gaussian, Inc.),
 the Gaussian(R) 94 system (copyright 1995, Gaussian, Inc.),
 the Gaussian 92(TM) system (copyright 1992, Gaussian, Inc.),
 the Gaussian 90(TM) system (copyright 1990, Gaussian, Inc.),
 the Gaussian 88(TM) system (copyright 1988, Gaussian, Inc.),
 the Gaussian 86(TM) system (copyright 1986, Carnegie Mellon
 University), and the Gaussian 82(TM) system (copyright 1983,
 Carnegie Mellon University). Gaussian is a federally registered
 trademark of Gaussian, Inc.
  
 This software contains proprietary and confidential information,
 including trade secrets, belonging to Gaussian, Inc.
  
 This software is provided under written license and may be
 used, copied, transmitted, or stored only in accord with that
 written license.
  
 The following legend is applicable only to US Government
 contracts under FAR:
  
                    RESTRICTED RIGHTS LEGEND
  
 Use, reproduction and disclosure by the US Government is
 subject to restrictions as set forth in subparagraphs (a)
 and (c) of the Commercial Computer Software - Restricted
 Rights clause in FAR 52.227-19.
  
 Gaussian, Inc.
 340 Quinnipiac St., Bldg. 40, Wallingford CT 06492
  
  
 ---------------------------------------------------------------
 Warning -- This program may not be used in any manner that
 competes with the business of Gaussian, Inc. or will provide
 assistance to any competitor of Gaussian, Inc.  The licensee
 of this program is prohibited from giving any competitor of
 Gaussian, Inc. access to this program.  By using this program,
 the user acknowledges that Gaussian, Inc. is engaged in the
 business of creating and licensing software in the field of
 computational chemistry and represents and warrants to the
 licensee that it is not a competitor of Gaussian, Inc. and that
 it will not use this program in any manner prohibited above.
 ---------------------------------------------------------------
  

 Cite this work as:
 Gaussian 16, Revision B.01,
 M. J. Frisch, G. W. Trucks, H. B. Schlegel, G. E. Scuseria, 
 M. A. Robb, J. R. Cheeseman, G. Scalmani, V. Barone, 
 G. A. Petersson, H. Nakatsuji, X. Li, M. Caricato, A. V. Marenich, 
 J. Bloino, B. G. Janesko, R. Gomperts, B. Mennucci, H. P. Hratchian, 
 J. V. Ortiz, A. F. Izmaylov, J. L. Sonnenberg, D. Williams-Young, 
 F. Ding, F. Lipparini, F. Egidi, J. Goings, B. Peng, A. Petrone, 
 T. Henderson, D. Ranasinghe, V. G. Zakrzewski, J. Gao, N. Rega, 
 G. Zheng, W. Liang, M. Hada, M. Ehara, K. Toyota, R. Fukuda, 
 J. Hasegawa, M. Ishida, T. Nakajima, Y. Honda, O. Kitao, H. Nakai, 
 T. Vreven, K. Throssell, J. A. Montgomery, Jr., J. E. Peralta, 
 F. Ogliaro, M. J. Bearpark, J. J. Heyd, E. N. Brothers, K. N. Kudin, 
 V. N. Staroverov, T. A. Keith, R. Kobayashi, J. Normand, 
 K. Raghavachari, A. P. Rendell, J. C. Burant, S. S. Iyengar, 
 J. Tomasi, M. Cossi, J. M. Millam, M. Klene, C. Adamo, R. Cammi, 
 J. W. Ochterski, R. L. Martin, K. Morokuma, O. Farkas, 
 J. B. Foresman, and D. J. Fox, Gaussian, Inc., Wallingford CT, 2016.
 
 ******************************************
 Gaussian 16:  ES64L-G16RevB.01 20-Dec-2017
                12-Aug-2026 
 ******************************************
 %mem=96GB
 %nprocshared=48
 Will use up to   48 processors via shared memory.
 %chk=01_conf_000.chk
 -------------------------------------------------------------
 #p m052x/6-31+G(d) opt(calcall,tight,maxstep=7) freq=intmodes
 -------------------------------------------------------------
 1/7=10,8=7,10=4,18=20,19=15,26=3,38=1/1,3;
 2/9=110,12=2,17=6,18=5,40=1/2;
 3/5=1,6=6,7=11,11=2,25=1,30=1,71=2,74=-38,140=1/1,2,3;
 4//1;
 5/5=2,38=5/2;
 8/6=4,10=90,11=11/1;
 11/6=1,8=1,9=11,15=111,16=1/1,2,10;
 10/6=1/2;
 6/7=2,8=2,9=2,10=2,18=1,28=1/1;
 7/10=1,25=1/1,2,3,16;
 1/7=10,8=7,10=4,18=20,19=15,26=3/3(3);
 2/9=110/2;
 7/8=21,9=1,25=1,44=-1/16;
 99//99;
 2/9=110/2;
 3/5=1,6=6,7=11,11=2,25=1,30=1,71=2,74=-38,140=1/1,2,3;
 4/5=5,16=3,69=1/1;
 5/5=2,38=5/2;
 8/6=4,10=90,11=11/1;
 11/6=1,8=1,9=11,15=111,16=1/1,2,10;
 10/6=1/2;
 7/10=1,25=1/1,2,3,16;
 1/7=10,8=7,10=4,18=20,19=15,26=3/3(-8);
 2/9=110/2;
 6/7=2,8=2,9=2,10=2,18=1,19=2,28=1/1;
 7/8=21,9=1,25=1,44=-1/16;
 99//99;
 Leave Link    1 at Wed Aug 12 19:06:02 2026, MaxMem= 12884901888 cpu:               1.6 elap:               0.0
 (Enter /home/falbo/g16/l101.exe)
 -----------------------------------------------------
 HessFit high-level Opt+Freq starting from 01_conf_000
 -----------------------------------------------------
 Symbolic Z-matrix:
 Charge =  0 Multiplicity = 1
 C                    -2.49257   0.36458  -0.00024 
 H                    -2.13425  -0.66231  -0.0073 
 H                    -2.14006   0.85733  -0.90399 
 H                    -3.58027   0.34871  -0.0226 
 C                    -1.99449   1.09978   1.23791 
 H                    -0.90206   1.0878    1.25216 
 H                    -2.34208   0.57925   2.13344 
 C                    -2.48149   2.54636   1.2769 
 H                    -2.13389   3.06689   0.38137 
 H                    -3.57392   2.55834   1.26265 
 C                    -1.9834    3.28156   2.51505 
 H                    -0.8957    3.29743   2.53741 
 H                    -2.34173   4.30845   2.52211 
 H                    -2.33592   2.78881   3.4188 
 
 ITRead=  0  0  0  0  0  0  0  0  0  0  0  0  0  0
 MicOpt= -1 -1 -1 -1 -1 -1 -1 -1 -1 -1 -1 -1 -1 -1
 NAtoms=     14 NQM=       14 NQMF=       0 NMMI=      0 NMMIF=      0
                NMic=       0 NMicF=      0.
                    Isotopes and Nuclear Properties:
 (Nuclear quadrupole moments (NQMom) in fm**2, nuclear magnetic moments (NMagM)
  in nuclear magnetons)

  Atom         1           2           3           4           5           6           7           8           9          10
 IAtWgt=          12           1           1           1          12           1           1          12           1           1
 AtmWgt=  12.0000000   1.0078250   1.0078250   1.0078250  12.0000000   1.0078250   1.0078250  12.0000000   1.0078250   1.0078250
 NucSpn=           0           1           1           1           0           1           1           0           1           1
 AtZEff=  -0.0000000  -0.0000000  -0.0000000  -0.0000000  -0.0000000  -0.0000000  -0.0000000  -0.0000000  -0.0000000  -0.0000000
 NQMom=    0.0000000   0.0000000   0.0000000   0.0000000   0.0000000   0.0000000   0.0000000   0.0000000   0.0000000   0.0000000
 NMagM=    0.0000000   2.7928460   2.7928460   2.7928460   0.0000000   2.7928460   2.7928460   0.0000000   2.7928460   2.7928460
 AtZNuc=   6.0000000   1.0000000   1.0000000   1.0000000   6.0000000   1.0000000   1.0000000   6.0000000   1.0000000   1.0000000

  Atom        11          12          13          14
 IAtWgt=          12           1           1           1
 AtmWgt=  12.0000000   1.0078250   1.0078250   1.0078250
 NucSpn=           0           1           1           1
 AtZEff=  -0.0000000  -0.0000000  -0.0000000  -0.0000000
 NQMom=    0.0000000   0.0000000   0.0000000   0.0000000
 NMagM=    0.0000000   2.7928460   2.7928460   2.7928460
 AtZNuc=   6.0000000   1.0000000   1.0000000   1.0000000
 Leave Link  101 at Wed Aug 12 19:06:03 2026, MaxMem= 12884901888 cpu:              15.6 elap:               0.4
 (Enter /home/falbo/g16/l103.exe)

 GradGradGradGradGradGradGradGradGradGradGradGradGradGradGradGradGradGrad
 Berny optimization.
 Initialization pass.
                           ----------------------------
                           !    Initial Parameters    !
                           ! (Angstroms and Degrees)  !
 --------------------------                            --------------------------
 ! Name  Definition              Value          Derivative Info.                !
 --------------------------------------------------------------------------------
 ! R1    R(1,2)                  1.0876         calculate D2E/DX2 analytically  !
 ! R2    R(1,3)                  1.088          calculate D2E/DX2 analytically  !
 ! R3    R(1,4)                  1.088          calculate D2E/DX2 analytically  !
 ! R4    R(1,5)                  1.5237         calculate D2E/DX2 analytically  !
 ! R5    R(5,6)                  1.0926         calculate D2E/DX2 analytically  !
 ! R6    R(5,7)                  1.0926         calculate D2E/DX2 analytically  !
 ! R7    R(5,8)                  1.5269         calculate D2E/DX2 analytically  !
 ! R8    R(8,9)                  1.0926         calculate D2E/DX2 analytically  !
 ! R9    R(8,10)                 1.0926         calculate D2E/DX2 analytically  !
 ! R10   R(8,11)                 1.5237         calculate D2E/DX2 analytically  !
 ! R11   R(11,12)                1.088          calculate D2E/DX2 analytically  !
 ! R12   R(11,13)                1.0876         calculate D2E/DX2 analytically  !
 ! R13   R(11,14)                1.088          calculate D2E/DX2 analytically  !
 ! A1    A(2,1,3)              108.3878         calculate D2E/DX2 analytically  !
 ! A2    A(2,1,4)              108.3878         calculate D2E/DX2 analytically  !
 ! A3    A(2,1,5)              110.6801         calculate D2E/DX2 analytically  !
 ! A4    A(3,1,4)              108.2654         calculate D2E/DX2 analytically  !
 ! A5    A(3,1,5)              110.5198         calculate D2E/DX2 analytically  !
 ! A6    A(4,1,5)              110.5198         calculate D2E/DX2 analytically  !
 ! A7    A(1,5,6)              109.3998         calculate D2E/DX2 analytically  !
 ! A8    A(1,5,7)              109.3998         calculate D2E/DX2 analytically  !
 ! A9    A(1,5,8)              111.9399         calculate D2E/DX2 analytically  !
 ! A10   A(6,5,7)              107.5886         calculate D2E/DX2 analytically  !
 ! A11   A(6,5,8)              109.2061         calculate D2E/DX2 analytically  !
 ! A12   A(7,5,8)              109.2061         calculate D2E/DX2 analytically  !
 ! A13   A(5,8,9)              109.2061         calculate D2E/DX2 analytically  !
 ! A14   A(5,8,10)             109.2061         calculate D2E/DX2 analytically  !
 ! A15   A(5,8,11)             111.9399         calculate D2E/DX2 analytically  !
 ! A16   A(9,8,10)             107.5886         calculate D2E/DX2 analytically  !
 ! A17   A(9,8,11)             109.3998         calculate D2E/DX2 analytically  !
 ! A18   A(10,8,11)            109.3998         calculate D2E/DX2 analytically  !
 ! A19   A(8,11,12)            110.5198         calculate D2E/DX2 analytically  !
 ! A20   A(8,11,13)            110.6801         calculate D2E/DX2 analytically  !
 ! A21   A(8,11,14)            110.5198         calculate D2E/DX2 analytically  !
 ! A22   A(12,11,13)           108.3878         calculate D2E/DX2 analytically  !
 ! A23   A(12,11,14)           108.2654         calculate D2E/DX2 analytically  !
 ! A24   A(13,11,14)           108.3878         calculate D2E/DX2 analytically  !
 ! D1    D(2,1,5,6)             58.8119         calculate D2E/DX2 analytically  !
 ! D2    D(2,1,5,7)            -58.8119         calculate D2E/DX2 analytically  !
 ! D3    D(2,1,5,8)            180.0            calculate D2E/DX2 analytically  !
 ! D4    D(3,1,5,6)            -61.2737         calculate D2E/DX2 analytically  !
 ! D5    D(3,1,5,7)           -178.8976         calculate D2E/DX2 analytically  !
 ! D6    D(3,1,5,8)             59.9144         calculate D2E/DX2 analytically  !
 ! D7    D(4,1,5,6)            178.8976         calculate D2E/DX2 analytically  !
 ! D8    D(4,1,5,7)             61.2737         calculate D2E/DX2 analytically  !
 ! D9    D(4,1,5,8)            -59.9144         calculate D2E/DX2 analytically  !
 ! D10   D(1,5,8,9)            -58.7001         calculate D2E/DX2 analytically  !
 ! D11   D(1,5,8,10)            58.7001         calculate D2E/DX2 analytically  !
 ! D12   D(1,5,8,11)           180.0            calculate D2E/DX2 analytically  !
 ! D13   D(6,5,8,9)             62.5998         calculate D2E/DX2 analytically  !
 ! D14   D(6,5,8,10)           180.0            calculate D2E/DX2 analytically  !
 ! D15   D(6,5,8,11)           -58.7001         calculate D2E/DX2 analytically  !
 ! D16   D(7,5,8,9)            180.0            calculate D2E/DX2 analytically  !
 ! D17   D(7,5,8,10)           -62.5999         calculate D2E/DX2 analytically  !
 ! D18   D(7,5,8,11)            58.7001         calculate D2E/DX2 analytically  !
 ! D19   D(5,8,11,12)           59.9144         calculate D2E/DX2 analytically  !
 ! D20   D(5,8,11,13)          180.0            calculate D2E/DX2 analytically  !
 ! D21   D(5,8,11,14)          -59.9144         calculate D2E/DX2 analytically  !
 ! D22   D(9,8,11,12)          -61.2737         calculate D2E/DX2 analytically  !
 ! D23   D(9,8,11,13)           58.8119         calculate D2E/DX2 analytically  !
 ! D24   D(9,8,11,14)          178.8976         calculate D2E/DX2 analytically  !
 ! D25   D(10,8,11,12)        -178.8976         calculate D2E/DX2 analytically  !
 ! D26   D(10,8,11,13)         -58.8119         calculate D2E/DX2 analytically  !
 ! D27   D(10,8,11,14)          61.2737         calculate D2E/DX2 analytically  !
 --------------------------------------------------------------------------------
 Trust Radius=7.00D-02 FncErr=1.00D-07 GrdErr=1.00D-06 EigMax=2.50D+02 EigMin=1.00D-04
 Number of steps in this run=     74 maximum allowed number of steps=    100.
 GradGradGradGradGradGradGradGradGradGradGradGradGradGradGradGradGradGrad

 Leave Link  103 at Wed Aug 12 19:06:03 2026, MaxMem= 12884901888 cpu:               0.4 elap:               0.0
 (Enter /home/falbo/g16/l202.exe)
                          Input orientation:                          
 ---------------------------------------------------------------------
 Center     Atomic      Atomic             Coordinates (Angstroms)
 Number     Number       Type             X           Y           Z
 ---------------------------------------------------------------------
      1          6           0       -2.492574    0.364578   -0.000235
      2          1           0       -2.134248   -0.662311   -0.007304
      3          1           0       -2.140060    0.857328   -0.903989
      4          1           0       -3.580272    0.348709   -0.022597
      5          6           0       -1.994486    1.099781    1.237908
      6          1           0       -0.902058    1.087802    1.252159
      7          1           0       -2.342082    0.579249    2.133436
      8          6           0       -2.481489    2.546358    1.276901
      9          1           0       -2.133893    3.066889    0.381374
     10          1           0       -3.573917    2.558336    1.262651
     11          6           0       -1.983401    3.281560    2.515045
     12          1           0       -0.895703    3.297429    2.537407
     13          1           0       -2.341727    4.308449    2.522114
     14          1           0       -2.335915    2.788810    3.418799
 ---------------------------------------------------------------------
                    Distance matrix (angstroms):
                    1          2          3          4          5
     1  C    0.000000
     2  H    1.087634   0.000000
     3  H    1.088044   1.764477   0.000000
     4  H    1.088044   1.764477   1.763450   0.000000
     5  C    1.523685   2.162187   2.160486   2.160486   0.000000
     6  H    2.149718   2.483432   2.496947   3.056811   1.092587
     7  H    2.149718   2.483432   3.056811   2.496947   1.092587
     8  C    2.528115   3.473516   2.779510   2.779510   1.526852
     9  H    2.752592   3.749400   2.556238   3.105432   2.150024
    10  H    2.752592   3.749400   3.105431   2.556238   2.150024
    11  C    3.885187   4.683921   4.194191   4.194191   2.528115
    12  H    4.194191   4.867143   4.398377   4.738721   2.779510
    13  H    4.683921   5.581169   4.867143   4.867143   3.473516
    14  H    4.194191   4.867143   4.738721   4.398377   2.779510
                    6          7          8          9         10
     6  H    0.000000
     7  H    1.763220   0.000000
     8  C    2.150024   2.150024   0.000000
     9  H    2.488467   3.049822   1.092587   0.000000
    10  H    3.049822   2.488468   1.092587   1.763220   0.000000
    11  C    2.752592   2.752592   1.523685   2.149718   2.149718
    12  H    2.556238   3.105431   2.160486   2.496947   3.056811
    13  H    3.749400   3.749400   2.162187   2.483432   2.483432
    14  H    3.105432   2.556238   2.160486   3.056811   2.496947
                   11         12         13         14
    11  C    0.000000
    12  H    1.088044   0.000000
    13  H    1.087634   1.764477   0.000000
    14  H    1.088044   1.763450   1.764477   0.000000
 Stoichiometry    C4H10
 Framework group  C2H[SGH(C4H2),X(H8)]
 Deg. of freedom    11
 Full point group                 C2H     NOp   4
 Largest Abelian subgroup         C2H     NOp   4
 Largest concise Abelian subgroup C2H     NOp   4
                         Standard orientation:                         
 ---------------------------------------------------------------------
 Center     Atomic      Atomic             Coordinates (Angstroms)
 Number     Number       Type             X           Y           Z
 ---------------------------------------------------------------------
      1          6           0       -0.708136    1.808926    0.000000
      2          1           0       -1.725690    2.193024   -0.000000
      3          1           0       -0.197313    2.190319   -0.881725
      4          1           0       -0.197313    2.190319    0.881725
      5          6           0       -0.708136    0.285241   -0.000000
      6          1           0       -1.241807   -0.077670   -0.881610
      7          1           0       -1.241807   -0.077670    0.881610
      8          6           0        0.708136   -0.285241   -0.000000
      9          1           0        1.241807    0.077670   -0.881610
     10          1           0        1.241807    0.077670    0.881610
     11          6           0        0.708136   -1.808926   -0.000000
     12          1           0        0.197313   -2.190319   -0.881725
     13          1           0        1.725690   -2.193024   -0.000000
     14          1           0        0.197313   -2.190319    0.881725
 ---------------------------------------------------------------------
 Rotational constants (GHZ):          23.3744434           3.6914819           3.4617281
 Leave Link  202 at Wed Aug 12 19:06:03 2026, MaxMem= 12884901888 cpu:               0.6 elap:               0.0
 (Enter /home/falbo/g16/l301.exe)
 Standard basis: 6-31+G(d) (6D, 7F)
 Ernie: Thresh=  0.10000D-02 Tol=  0.10000D-05 Strict=F.
 There are    34 symmetry adapted cartesian basis functions of AG  symmetry.
 There are    14 symmetry adapted cartesian basis functions of BG  symmetry.
 There are    14 symmetry adapted cartesian basis functions of AU  symmetry.
 There are    34 symmetry adapted cartesian basis functions of BU  symmetry.
 There are    34 symmetry adapted basis functions of AG  symmetry.
 There are    14 symmetry adapted basis functions of BG  symmetry.
 There are    14 symmetry adapted basis functions of AU  symmetry.
 There are    34 symmetry adapted basis functions of BU  symmetry.
    96 basis functions,   168 primitive gaussians,    96 cartesian basis functions
    17 alpha electrons       17 beta electrons
       nuclear repulsion energy       131.2498668059 Hartrees.
 IExCor= 3428 DFT=T Ex+Corr=M052X ExCW=0 ScaHFX=  0.560000
 ScaDFX=  0.440000  0.440000  1.000000  1.000000 ScalE2=  1.000000  1.000000
 IRadAn=      5 IRanWt=     -1 IRanGd=            0 ICorTp=0 IEmpDi=  4
 NAtoms=   14 NActive=   14 NUniq=    5 SFac= 4.00D+00 NAtFMM=   60 NAOKFM=F Big=F
 Integral buffers will be    131072 words long.
 Raffenetti 2 integral format.
 Two-electron integral symmetry is turned on.
 Leave Link  301 at Wed Aug 12 19:06:03 2026, MaxMem= 12884901888 cpu:               2.4 elap:               0.1
 (Enter /home/falbo/g16/l302.exe)
 NPDir=0 NMtPBC=     1 NCelOv=     1 NCel=       1 NClECP=     1 NCelD=      1
         NCelK=      1 NCelE2=     1 NClLst=     1 CellRange=     0.0.
 One-electron integrals computed using PRISM.
 One-electron integral symmetry used in STVInt
 NBasis=    96 RedAO= T EigKep=  4.35D-05  NBF=    34    14    14    34
 NBsUse=    96 1.00D-06 EigRej= -1.00D+00 NBFU=    34    14    14    34
 Precomputing XC quadrature grid using
 IXCGrd= 4 IRadAn=           5 IRanWt=          -1 IRanGd=           0 AccXCQ= 0.00D+00.
 Generated NRdTot=       0 NPtTot=           0 NUsed=           0 NTot=          32
 NSgBfM=    96    96    96    96    96 MxSgAt=    14 MxSgA2=    14.
 Leave Link  302 at Wed Aug 12 19:06:03 2026, MaxMem= 12884901888 cpu:               7.6 elap:               0.2
 (Enter /home/falbo/g16/l303.exe)
 DipDrv:  MaxL=1.
 Leave Link  303 at Wed Aug 12 19:06:03 2026, MaxMem= 12884901888 cpu:               1.2 elap:               0.0
 (Enter /home/falbo/g16/l401.exe)
 ExpMin= 4.38D-02 ExpMax= 3.05D+03 ExpMxC= 4.57D+02 IAcc=3 IRadAn=         5 AccDes= 0.00D+00
 Harris functional with IExCor= 1009 and IRadAn=       5 diagonalized for initial guess.
 HarFok:  IExCor= 1009 AccDes= 0.00D+00 IRadAn=         5 IDoV= 1 UseB2=F ITyADJ=14
 ICtDFT=  3500011 ScaDFX=  1.000000  1.000000  1.000000  1.000000
 FoFCou: FMM=F IPFlag=           0 FMFlag=      100000 FMFlg1=           0
         NFxFlg=           0 DoJE=T BraDBF=F KetDBF=T FulRan=T
         wScrn=  0.000000 ICntrl=       500 IOpCl=  0 I1Cent=   200000004 NGrid=           0
         NMat0=    1 NMatS0=      1 NMatT0=    0 NMatD0=    1 NMtDS0=    0 NMtDT0=    0
 Petite list used in FoFCou.
 Harris En= -158.381367740476    
 JPrj=0 DoOrth=F DoCkMO=F.
 Initial guess orbital symmetries:
       Occupied  (BU) (AG) (AG) (BU) (AG) (BU) (AG) (BU) (AU) (AG)
                 (BU) (BG) (BU) (AG) (AU) (AG) (BG)
       Virtual   (AG) (BU) (AU) (BU) (AG) (AG) (BU) (BG) (AG) (BG)
                 (BU) (BU) (AU) (AG) (BU) (AU) (BG) (AG) (BU) (AU)
                 (BU) (AG) (AG) (BU) (BG) (AG) (BU) (BU) (AG) (AG)
                 (BU) (AU) (AG) (BG) (AG) (BU) (AU) (BU) (BG) (BU)
                 (AG) (AU) (AG) (BG) (AU) (BU) (AG) (BG) (BU) (AG)
                 (BU) (AG) (AU) (BU) (BU) (AG) (AG) (BU) (BG) (AG)
                 (BU) (AU) (AG) (BU) (BG) (AG) (BG) (AU) (BU) (BG)
                 (AG) (AU) (BU) (AG) (BU) (AG) (BU) (AG) (BU)
 The electronic state of the initial guess is 1-AG.
 Leave Link  401 at Wed Aug 12 19:06:03 2026, MaxMem= 12884901888 cpu:               9.8 elap:               0.2
 (Enter /home/falbo/g16/l502.exe)
 Integral symmetry usage will be decided dynamically.
 Closed shell SCF:
 Using DIIS extrapolation, IDIIS=  1040.
 NGot= 12884901888 LenX= 12884876828 LenY= 12884867171
 Requested convergence on RMS density matrix=1.00D-08 within 128 cycles.
 Requested convergence on MAX density matrix=1.00D-06.
 Requested convergence on             energy=1.00D-06.
 No special actions if energy rises.
 Fock matrices will be formed incrementally for  20 cycles.

 Cycle   1  Pass 1  IDiag  1:
 FoFJK:  IHMeth= 1 ICntrl=       0 DoSepK=F KAlg= 0 I1Cent=           0 FoldK=F
 IRaf= 990000000 NMat=       1 IRICut=       1 DoRegI=T DoRafI=F ISym2E= 1 IDoP0=0 IntGTp=1.
 FoFCou: FMM=F IPFlag=           0 FMFlag=      100000 FMFlg1=           0
         NFxFlg=           0 DoJE=F BraDBF=F KetDBF=F FulRan=T
         wScrn=  0.000000 ICntrl=         0 IOpCl=  0 I1Cent=           0 NGrid=           0
         NMat0=    1 NMatS0=      1 NMatT0=    0 NMatD0=    1 NMtDS0=    0 NMtDT0=    0
 Petite list used in FoFCou.
 E= -158.219477042266    
 DIIS: error= 5.57D-02 at cycle   1 NSaved=   1.
 NSaved= 1 IEnMin= 1 EnMin= -158.219477042266     IErMin= 1 ErrMin= 5.57D-02
 ErrMax= 5.57D-02  0.00D+00 EMaxC= 1.00D-01 BMatC= 1.82D-01 BMatP= 1.82D-01
 IDIUse=3 WtCom= 4.43D-01 WtEn= 5.57D-01
 Coeff-Com:  0.100D+01
 Coeff-En:   0.100D+01
 Coeff:      0.100D+01
 Gap=     0.372 Goal=   None    Shift=    0.000
 GapD=    0.372 DampG=1.000 DampE=0.500 DampFc=0.5000 IDamp=-1.
 Damping current iteration by 5.00D-01
 RMSDP=1.51D-02 MaxDP=2.37D-01              OVMax= 1.52D-01

 Cycle   2  Pass 1  IDiag  1:
 RMSU=  7.53D-03    CP:  9.78D-01
 E= -158.323898709366     Delta-E=       -0.104421667100 Rises=F Damp=T
 DIIS: error= 1.02D-02 at cycle   2 NSaved=   2.
 NSaved= 2 IEnMin= 2 EnMin= -158.323898709366     IErMin= 2 ErrMin= 1.02D-02
 ErrMax= 1.02D-02  0.00D+00 EMaxC= 1.00D-01 BMatC= 7.32D-03 BMatP= 1.82D-01
 IDIUse=3 WtCom= 8.98D-01 WtEn= 1.02D-01
 Coeff-Com: -0.882D-01 0.109D+01
 Coeff-En:   0.000D+00 0.100D+01
 Coeff:     -0.791D-01 0.108D+01
 Gap=     0.447 Goal=   None    Shift=    0.000
 RMSDP=4.36D-03 MaxDP=1.23D-01 DE=-1.04D-01 OVMax= 7.09D-02

 Cycle   3  Pass 1  IDiag  1:
 RMSU=  3.24D-03    CP:  9.49D-01  6.29D-01
 E= -158.418167412793     Delta-E=       -0.094268703427 Rises=F Damp=F
 DIIS: error= 1.97D-03 at cycle   3 NSaved=   3.
 NSaved= 3 IEnMin= 3 EnMin= -158.418167412793     IErMin= 3 ErrMin= 1.97D-03
 ErrMax= 1.97D-03  0.00D+00 EMaxC= 1.00D-01 BMatC= 2.64D-04 BMatP= 7.32D-03
 IDIUse=3 WtCom= 9.80D-01 WtEn= 1.97D-02
 Coeff-Com: -0.894D-02 0.836D-01 0.925D+00
 Coeff-En:   0.000D+00 0.000D+00 0.100D+01
 Coeff:     -0.876D-02 0.820D-01 0.927D+00
 Gap=     0.440 Goal=   None    Shift=    0.000
 RMSDP=3.08D-04 MaxDP=4.00D-03 DE=-9.43D-02 OVMax= 5.47D-03

 Cycle   4  Pass 1  IDiag  1:
 RMSU=  3.07D-04    CP:  9.48D-01  6.28D-01  1.00D+00
 E= -158.418325706640     Delta-E=       -0.000158293847 Rises=F Damp=F
 DIIS: error= 1.09D-03 at cycle   4 NSaved=   4.
 NSaved= 4 IEnMin= 4 EnMin= -158.418325706640     IErMin= 4 ErrMin= 1.09D-03
 ErrMax= 1.09D-03  0.00D+00 EMaxC= 1.00D-01 BMatC= 9.24D-05 BMatP= 2.64D-04
 IDIUse=3 WtCom= 9.89D-01 WtEn= 1.09D-02
 Coeff-Com:  0.128D-02-0.183D-02 0.356D+00 0.645D+00
 Coeff-En:   0.000D+00 0.000D+00 0.155D+00 0.845D+00
 Coeff:      0.127D-02-0.181D-02 0.354D+00 0.647D+00
 Gap=     0.442 Goal=   None    Shift=    0.000
 RMSDP=1.72D-04 MaxDP=1.83D-03 DE=-1.58D-04 OVMax= 2.41D-03

 Cycle   5  Pass 1  IDiag  1:
 RMSU=  1.19D-04    CP:  9.48D-01  6.13D-01  1.01D+00  8.53D-01
 E= -158.418412173036     Delta-E=       -0.000086466396 Rises=F Damp=F
 DIIS: error= 1.75D-04 at cycle   5 NSaved=   5.
 NSaved= 5 IEnMin= 5 EnMin= -158.418412173036     IErMin= 5 ErrMin= 1.75D-04
 ErrMax= 1.75D-04  0.00D+00 EMaxC= 1.00D-01 BMatC= 3.28D-06 BMatP= 9.24D-05
 IDIUse=3 WtCom= 9.98D-01 WtEn= 1.75D-03
 Coeff-Com:  0.162D-02-0.652D-02 0.269D-01 0.177D+00 0.801D+00
 Coeff-En:   0.000D+00 0.000D+00 0.000D+00 0.000D+00 0.100D+01
 Coeff:      0.162D-02-0.651D-02 0.268D-01 0.176D+00 0.802D+00
 Gap=     0.442 Goal=   None    Shift=    0.000
 RMSDP=4.85D-05 MaxDP=8.13D-04 DE=-8.65D-05 OVMax= 4.28D-04

 Cycle   6  Pass 1  IDiag  1:
 RMSU=  2.18D-05    CP:  9.48D-01  6.08D-01  1.01D+00  9.07D-01  1.07D+00
 E= -158.418415418205     Delta-E=       -0.000003245169 Rises=F Damp=F
 DIIS: error= 1.62D-05 at cycle   6 NSaved=   6.
 NSaved= 6 IEnMin= 6 EnMin= -158.418415418205     IErMin= 6 ErrMin= 1.62D-05
 ErrMax= 1.62D-05  0.00D+00 EMaxC= 1.00D-01 BMatC= 2.50D-08 BMatP= 3.28D-06
 IDIUse=1 WtCom= 1.00D+00 WtEn= 0.00D+00
 Coeff-Com:  0.270D-04-0.191D-04-0.131D-01-0.215D-01-0.169D-02 0.104D+01
 Coeff:      0.270D-04-0.191D-04-0.131D-01-0.215D-01-0.169D-02 0.104D+01
 Gap=     0.442 Goal=   None    Shift=    0.000
 RMSDP=1.74D-05 MaxDP=2.79D-04 DE=-3.25D-06 OVMax= 9.27D-05

 Cycle   7  Pass 1  IDiag  1:
 RMSU=  3.79D-06    CP:  9.48D-01  6.06D-01  1.01D+00  9.23D-01  1.13D+00
                    CP:  1.15D+00
 E= -158.418415462263     Delta-E=       -0.000000044058 Rises=F Damp=F
 DIIS: error= 2.61D-06 at cycle   7 NSaved=   7.
 NSaved= 7 IEnMin= 7 EnMin= -158.418415462263     IErMin= 7 ErrMin= 2.61D-06
 ErrMax= 2.61D-06  0.00D+00 EMaxC= 1.00D-01 BMatC= 5.36D-10 BMatP= 2.50D-08
 IDIUse=1 WtCom= 1.00D+00 WtEn= 0.00D+00
 Coeff-Com: -0.333D-04 0.124D-03-0.215D-02-0.570D-02-0.134D-01 0.119D+00
 Coeff-Com:  0.903D+00
 Coeff:     -0.333D-04 0.124D-03-0.215D-02-0.570D-02-0.134D-01 0.119D+00
 Coeff:      0.903D+00
 Gap=     0.442 Goal=   None    Shift=    0.000
 RMSDP=2.00D-06 MaxDP=3.01D-05 DE=-4.41D-08 OVMax= 1.22D-05

 Cycle   8  Pass 1  IDiag  1:
 RMSU=  6.09D-07    CP:  9.48D-01  6.06D-01  1.01D+00  9.24D-01  1.14D+00
                    CP:  1.16D+00  1.09D+00
 E= -158.418415463113     Delta-E=       -0.000000000850 Rises=F Damp=F
 DIIS: error= 4.31D-07 at cycle   8 NSaved=   8.
 NSaved= 8 IEnMin= 8 EnMin= -158.418415463113     IErMin= 8 ErrMin= 4.31D-07
 ErrMax= 4.31D-07  0.00D+00 EMaxC= 1.00D-01 BMatC= 1.45D-11 BMatP= 5.36D-10
 IDIUse=1 WtCom= 1.00D+00 WtEn= 0.00D+00
 Coeff-Com: -0.403D-05 0.108D-04 0.313D-03 0.387D-03-0.496D-03-0.301D-01
 Coeff-Com:  0.509D-01 0.979D+00
 Coeff:     -0.403D-05 0.108D-04 0.313D-03 0.387D-03-0.496D-03-0.301D-01
 Coeff:      0.509D-01 0.979D+00
 Gap=     0.442 Goal=   None    Shift=    0.000
 RMSDP=4.97D-07 MaxDP=7.75D-06 DE=-8.50D-10 OVMax= 3.08D-06

 Cycle   9  Pass 1  IDiag  1:
 RMSU=  5.96D-08    CP:  9.48D-01  6.06D-01  1.01D+00  9.24D-01  1.14D+00
                    CP:  1.16D+00  1.14D+00  1.10D+00
 E= -158.418415463140     Delta-E=       -0.000000000027 Rises=F Damp=F
 DIIS: error= 5.95D-08 at cycle   9 NSaved=   9.
 NSaved= 9 IEnMin= 9 EnMin= -158.418415463140     IErMin= 9 ErrMin= 5.95D-08
 ErrMax= 5.95D-08  0.00D+00 EMaxC= 1.00D-01 BMatC= 2.23D-13 BMatP= 1.45D-11
 IDIUse=1 WtCom= 1.00D+00 WtEn= 0.00D+00
 Coeff-Com:  0.123D-05-0.274D-05 0.216D-05 0.263D-04 0.193D-03 0.350D-03
 Coeff-Com: -0.157D-01-0.504D-01 0.107D+01
 Coeff:      0.123D-05-0.274D-05 0.216D-05 0.263D-04 0.193D-03 0.350D-03
 Coeff:     -0.157D-01-0.504D-01 0.107D+01
 Gap=     0.442 Goal=   None    Shift=    0.000
 RMSDP=5.70D-08 MaxDP=9.39D-07 DE=-2.71D-11 OVMax= 4.32D-07

 Cycle  10  Pass 1  IDiag  1:
 RMSU=  6.50D-09    CP:  9.48D-01  6.06D-01  1.01D+00  9.24D-01  1.14D+00
                    CP:  1.16D+00  1.15D+00  1.13D+00  1.24D+00
 E= -158.418415463142     Delta-E=       -0.000000000002 Rises=F Damp=F
 DIIS: error= 1.05D-08 at cycle  10 NSaved=  10.
 NSaved=10 IEnMin=10 EnMin= -158.418415463142     IErMin=10 ErrMin= 1.05D-08
 ErrMax= 1.05D-08  0.00D+00 EMaxC= 1.00D-01 BMatC= 6.49D-15 BMatP= 2.23D-13
 IDIUse=1 WtCom= 1.00D+00 WtEn= 0.00D+00
 Coeff-Com:  0.227D-06-0.500D-06-0.756D-05-0.106D-04 0.277D-04 0.734D-03
 Coeff-Com: -0.215D-02-0.248D-01 0.518D-01 0.974D+00
 Coeff:      0.227D-06-0.500D-06-0.756D-05-0.106D-04 0.277D-04 0.734D-03
 Coeff:     -0.215D-02-0.248D-01 0.518D-01 0.974D+00
 Gap=     0.442 Goal=   None    Shift=    0.000
 RMSDP=5.27D-09 MaxDP=8.57D-08 DE=-1.99D-12 OVMax= 5.38D-08

 SCF Done:  E(RM052X) =  -158.418415463     A.U. after   10 cycles
            NFock= 10  Conv=0.53D-08     -V/T= 2.0095
 KE= 1.569273598817D+02 PE=-6.277752964595D+02 EE= 1.811796543088D+02
 Leave Link  502 at Wed Aug 12 19:06:05 2026, MaxMem= 12884901888 cpu:              74.3 elap:               1.6
 (Enter /home/falbo/g16/l801.exe)
 DoSCS=F DFT=T ScalE2(SS,OS)=  1.000000  1.000000
 Range of M.O.s used for correlation:     1    96
 NBasis=    96 NAE=    17 NBE=    17 NFC=     0 NFV=     0
 NROrb=     96 NOA=    17 NOB=    17 NVA=    79 NVB=    79

 **** Warning!!: The largest alpha MO coefficient is  0.55640424D+02

 Leave Link  801 at Wed Aug 12 19:06:05 2026, MaxMem= 12884901888 cpu:               0.9 elap:               0.0
 (Enter /home/falbo/g16/l1101.exe)
 Using compressed storage, NAtomX=    14.
 Will process     15 centers per pass.
 Leave Link 1101 at Wed Aug 12 19:06:05 2026, MaxMem= 12884901888 cpu:               7.7 elap:               0.3
 (Enter /home/falbo/g16/l1102.exe)
 Symmetrizing basis deriv contribution to polar:
 IMax=3 JMax=2 DiffMx= 0.00D+00
 Leave Link 1102 at Wed Aug 12 19:06:06 2026, MaxMem= 12884901888 cpu:               3.7 elap:               0.2
 (Enter /home/falbo/g16/l1110.exe)
 Forming Gx(P) for the SCF density, NAtomX=    14.
 Integral derivatives from FoFJK, PRISM(SPDF).
 Do as many integral derivatives as possible in FoFJK.
 G2DrvN: MDV=   12884900632.
 G2DrvN: will do    15 centers at a time, making    1 passes.
 Calling FoFCou, ICntrl=  3107 FMM=F I1Cent=   0 AccDes= 0.00D+00.
 FoFJK:  IHMeth= 1 ICntrl=    3107 DoSepK=F KAlg= 0 I1Cent=           0 FoldK=F
 IRaf=         0 NMat=       1 IRICut=       1 DoRegI=T DoRafI=F ISym2E= 1 IDoP0=0 IntGTp=1.
 FoFCou: FMM=F IPFlag=           0 FMFlag=      100000 FMFlg1=           0
         NFxFlg=           0 DoJE=F BraDBF=F KetDBF=F FulRan=T
         wScrn=  0.000000 ICntrl=      3107 IOpCl=  0 I1Cent=           0 NGrid=           0
         NMat0=    1 NMatS0=      1 NMatT0=    0 NMatD0=    1 NMtDS0=    0 NMtDT0=    0
 Petite list used in FoFCou.
 End of G2Drv F.D. properties file   721 does not exist.
 End of G2Drv F.D. properties file   722 does not exist.
 End of G2Drv F.D. properties file   788 does not exist.
 Leave Link 1110 at Wed Aug 12 19:06:08 2026, MaxMem= 12884901888 cpu:              98.7 elap:               2.2
 (Enter /home/falbo/g16/l1002.exe)
 Minotr:  Closed shell wavefunction.
          IDoAtm=11111111111111
          Direct CPHF calculation.
          Differentiating once with respect to electric field.
                with respect to dipole field.
          Differentiating once with respect to nuclear coordinates.
          Using symmetry in CPHF.
          Requested convergence is 1.0D-08 RMS, and 1.0D-07 maximum.
          Secondary convergence is 1.0D-12 RMS, and 1.0D-12 maximum.
          NewPWx=T KeepS1=F KeepF1=F KeepIn=T MapXYZ=F SortEE=F KeepMc=T.
         4285 words used for storage of precomputed grid.
 Keep R1 ints in memory in symmetry-blocked form, NReq=55015591.
 FoFCou: FMM=F IPFlag=           0 FMFlag=           0 FMFlg1=           0
         NFxFlg=           0 DoJE=F BraDBF=F KetDBF=F FulRan=T
         wScrn=  0.000000 ICntrl=       600 IOpCl=  0 I1Cent=           0 NGrid=           0
         NMat0=    1 NMatS0=   4656 NMatT0=    0 NMatD0=    1 NMtDS0=    0 NMtDT0=    0
 Petite list used in FoFCou.
          MDV=   12884901888 using IRadAn=       1.
          Solving linear equations simultaneously, MaxMat=       0.
          There are    18 degrees of freedom in the 1st order CPHF.  IDoFFX=4 NUNeed=    18.
     18 vectors produced by pass  0 Test12= 7.46D-15 5.56D-09 XBig12= 1.82D+01 1.58D+00.
 AX will form    18 AO Fock derivatives at one time.
     18 vectors produced by pass  1 Test12= 7.46D-15 5.56D-09 XBig12= 9.46D-01 2.35D-01.
     18 vectors produced by pass  2 Test12= 7.46D-15 5.56D-09 XBig12= 4.68D-02 3.65D-02.
     18 vectors produced by pass  3 Test12= 7.46D-15 5.56D-09 XBig12= 6.69D-04 4.84D-03.
     18 vectors produced by pass  4 Test12= 7.46D-15 5.56D-09 XBig12= 3.69D-06 3.32D-04.
     18 vectors produced by pass  5 Test12= 7.46D-15 5.56D-09 XBig12= 1.90D-08 2.70D-05.
     11 vectors produced by pass  6 Test12= 7.46D-15 5.56D-09 XBig12= 9.00D-11 1.41D-06.
      3 vectors produced by pass  7 Test12= 7.46D-15 5.56D-09 XBig12= 2.87D-13 9.17D-08.
 InvSVY:  IOpt=1 It=  1 EMax= 5.33D-15
 Solved reduced A of dimension   122 with    18 vectors.
 FullF1:  Do perturbations      1 to      18.
 Isotropic polarizability for W=    0.000000       47.00 Bohr**3.
 End of Minotr F.D. properties file   721 does not exist.
 End of Minotr F.D. properties file   722 does not exist.
 End of Minotr F.D. properties file   788 does not exist.
 Leave Link 1002 at Wed Aug 12 19:06:12 2026, MaxMem= 12884901888 cpu:             167.4 elap:               3.5
 (Enter /home/falbo/g16/l601.exe)
 Copying SCF densities to generalized density rwf, IOpCl= 0 IROHF=0.

 **********************************************************************

            Population analysis using the SCF Density.

 **********************************************************************

 Orbital symmetries:
       Occupied  (AG) (BU) (BU) (AG) (AG) (BU) (AG) (BU) (AU) (AG)
                 (BU) (BG) (BU) (AU) (AG) (BG) (AG)
       Virtual   (AG) (BU) (BU) (AU) (AG) (AG) (AG) (BG) (BU) (BG)
                 (BU) (AU) (BU) (AG) (AG) (BU) (AU) (BU) (BG) (AU)
                 (AG) (BU) (BG) (BU) (AG) (AG) (BU) (AG) (BU) (AG)
                 (BU) (AU) (AG) (BG) (BU) (AG) (AU) (BU) (BU) (BG)
                 (AG) (AU) (AG) (BG) (AU) (BU) (AG) (BG) (BU) (AG)
                 (BU) (AG) (BU) (AG) (AU) (BU) (AG) (BU) (BG) (AG)
                 (BU) (AU) (AG) (BU) (BG) (AG) (BG) (AU) (BU) (AG)
                 (BG) (AU) (BU) (AG) (BU) (AG) (BU) (AG) (BU)
 The electronic state is 1-AG.
 Alpha  occ. eigenvalues --  -10.56307 -10.56269 -10.55484 -10.55484  -0.90574
 Alpha  occ. eigenvalues --   -0.82829  -0.72394  -0.66613  -0.55117  -0.50123
 Alpha  occ. eigenvalues --   -0.49043  -0.48611  -0.43590  -0.41859  -0.39486
 Alpha  occ. eigenvalues --   -0.38944  -0.38076
 Alpha virt. eigenvalues --    0.06145   0.06562   0.07504   0.08219   0.09492
 Alpha virt. eigenvalues --    0.11215   0.11756   0.11806   0.12669   0.12787
 Alpha virt. eigenvalues --    0.15183   0.15694   0.17542   0.19261   0.20899
 Alpha virt. eigenvalues --    0.23445   0.24717   0.26521   0.27145   0.27683
 Alpha virt. eigenvalues --    0.28787   0.32139   0.33583   0.33867   0.34716
 Alpha virt. eigenvalues --    0.38251   0.40958   0.41287   0.42032   0.67019
 Alpha virt. eigenvalues --    0.68256   0.70098   0.71085   0.72448   0.76607
 Alpha virt. eigenvalues --    0.77632   0.78177   0.80228   0.88535   0.88941
 Alpha virt. eigenvalues --    0.93433   1.00704   1.04300   1.05267   1.07175
 Alpha virt. eigenvalues --    1.08909   1.10153   1.17331   1.19793   1.21376
 Alpha virt. eigenvalues --    1.23786   1.24083   1.44014   1.51770   1.51840
 Alpha virt. eigenvalues --    1.54784   1.72198   1.73633   1.93079   1.98621
 Alpha virt. eigenvalues --    2.00848   2.06587   2.08653   2.12290   2.16892
 Alpha virt. eigenvalues --    2.29026   2.35115   2.40034   2.42067   2.50655
 Alpha virt. eigenvalues --    2.51150   2.51428   2.66328   2.76227   2.83069
 Alpha virt. eigenvalues --    4.24253   4.35188   4.43427   4.58908
          Condensed to atoms (all electrons):
               1          2          3          4          5          6
     1  C    5.721171   0.421358   0.432063   0.432063  -0.087976  -0.033747
     2  H    0.421358   0.495434  -0.026283  -0.026283  -0.091245  -0.002886
     3  H    0.432063  -0.026283   0.497795  -0.031190  -0.078441  -0.004859
     4  H    0.432063  -0.026283  -0.031190   0.497795  -0.078441   0.004372
     5  C   -0.087976  -0.091245  -0.078441  -0.078441   5.915065   0.399906
     6  H   -0.033747  -0.002886  -0.004859   0.004372   0.399906   0.517556
     7  H   -0.033747  -0.002886   0.004372  -0.004859   0.399906  -0.033814
     8  C    0.001824   0.025385  -0.003426  -0.003426  -0.031177  -0.045031
     9  H   -0.010373  -0.000017   0.002976  -0.000424  -0.045031  -0.005501
    10  H   -0.010373  -0.000017  -0.000424   0.002976  -0.045031   0.004617
    11  C   -0.054335  -0.002500  -0.003525  -0.003525   0.001824  -0.010373
    12  H   -0.003525  -0.000000   0.000002  -0.000000  -0.003426   0.002976
    13  H   -0.002500   0.000002  -0.000000  -0.000000   0.025385  -0.000017
    14  H   -0.003525  -0.000000  -0.000000   0.000002  -0.003426  -0.000424
               7          8          9         10         11         12
     1  C   -0.033747   0.001824  -0.010373  -0.010373  -0.054335  -0.003525
     2  H   -0.002886   0.025385  -0.000017  -0.000017  -0.002500  -0.000000
     3  H    0.004372  -0.003426   0.002976  -0.000424  -0.003525   0.000002
     4  H   -0.004859  -0.003426  -0.000424   0.002976  -0.003525  -0.000000
     5  C    0.399906  -0.031177  -0.045031  -0.045031   0.001824  -0.003426
     6  H   -0.033814  -0.045031  -0.005501   0.004617  -0.010373   0.002976
     7  H    0.517556  -0.045031   0.004617  -0.005501  -0.010373  -0.000424
     8  C   -0.045031   5.915065   0.399906   0.399906  -0.087976  -0.078441
     9  H    0.004617   0.399906   0.517556  -0.033814  -0.033747  -0.004859
    10  H   -0.005501   0.399906  -0.033814   0.517556  -0.033747   0.004372
    11  C   -0.010373  -0.087976  -0.033747  -0.033747   5.721171   0.432063
    12  H   -0.000424  -0.078441  -0.004859   0.004372   0.432063   0.497795
    13  H   -0.000017  -0.091245  -0.002886  -0.002886   0.421358  -0.026283
    14  H    0.002976  -0.078441   0.004372  -0.004859   0.432063  -0.031190
              13         14
     1  C   -0.002500  -0.003525
     2  H    0.000002  -0.000000
     3  H   -0.000000  -0.000000
     4  H   -0.000000   0.000002
     5  C    0.025385  -0.003426
     6  H   -0.000017  -0.000424
     7  H   -0.000017   0.002976
     8  C   -0.091245  -0.078441
     9  H   -0.002886   0.004372
    10  H   -0.002886  -0.004859
    11  C    0.421358   0.432063
    12  H   -0.026283  -0.031190
    13  H    0.495434  -0.026283
    14  H   -0.026283   0.497795
 Mulliken charges:
               1
     1  C   -0.768379
     2  H    0.209939
     3  H    0.210941
     4  H    0.210941
     5  C   -0.277892
     6  H    0.207224
     7  H    0.207224
     8  C   -0.277892
     9  H    0.207224
    10  H    0.207224
    11  C   -0.768379
    12  H    0.210941
    13  H    0.209939
    14  H    0.210941
 Sum of Mulliken charges =  -0.00000
 Mulliken charges with hydrogens summed into heavy atoms:
               1
     1  C   -0.136557
     5  C    0.136557
     8  C    0.136557
    11  C   -0.136557
 APT charges:
               1
     1  C    0.059297
     2  H   -0.029236
     3  H   -0.020031
     4  H   -0.020031
     5  C    0.104725
     6  H   -0.047362
     7  H   -0.047362
     8  C    0.104725
     9  H   -0.047362
    10  H   -0.047362
    11  C    0.059297
    12  H   -0.020031
    13  H   -0.029236
    14  H   -0.020031
 Sum of APT charges =   0.00000
 APT charges with hydrogens summed into heavy atoms:
               1
     1  C   -0.010002
     5  C    0.010002
     8  C    0.010002
    11  C   -0.010002
 Electronic spatial extent (au):  <R**2>=            419.8562
 Charge=              0.0000 electrons
 Dipole moment (field-independent basis, Debye):
    X=              0.0000    Y=             -0.0000    Z=              0.0000  Tot=              0.0000
 Quadrupole moment (field-independent basis, Debye-Ang):
   XX=            -28.6028   YY=            -29.7070   ZZ=            -27.9664
   XY=              0.0160   XZ=             -0.0000   YZ=              0.0000
 Traceless Quadrupole moment (field-independent basis, Debye-Ang):
   XX=              0.1559   YY=             -0.9483   ZZ=              0.7924
   XY=              0.0160   XZ=             -0.0000   YZ=              0.0000
 Octapole moment (field-independent basis, Debye-Ang**2):
  XXX=             -0.0000  YYY=              0.0000  ZZZ=              0.0000  XYY=             -0.0000
  XXY=              0.0000  XXZ=              0.0000  XZZ=             -0.0000  YZZ=              0.0000
  YYZ=              0.0000  XYZ=              0.0000
 Hexadecapole moment (field-independent basis, Debye-Ang**3):
 XXXX=           -150.4923 YYYY=           -398.3485 ZZZZ=            -58.9480 XXXY=             63.0911
 XXXZ=             -0.0000 YYYX=             69.9493 YYYZ=              0.0000 ZZZX=              0.0000
 ZZZY=             -0.0000 XXYY=            -88.0339 XXZZ=            -35.2998 YYZZ=            -72.0104
 XXYZ=             -0.0000 YYXZ=             -0.0000 ZZXY=             24.8252
 N-N= 1.312498668059D+02 E-N=-6.277752968367D+02  KE= 1.569273598817D+02
 Symmetry AG   KE= 7.600695216314D+01
 Symmetry BG   KE= 4.013886588448D+00
 Symmetry AU   KE= 3.817967747762D+00
 Symmetry BU   KE= 7.308855338234D+01
  Exact polarizability:  46.304  -2.581  51.336  -0.000  -0.000  43.355
 Approx polarizability:  49.495   0.452  48.804  -0.000   0.000  49.454
 No NMR shielding tensors so no spin-rotation constants.
 Leave Link  601 at Wed Aug 12 19:06:12 2026, MaxMem= 12884901888 cpu:               5.5 elap:               0.2
 (Enter /home/falbo/g16/l701.exe)
 ... and contract with generalized density number  0.
 Compute integral second derivatives.
 Leave Link  701 at Wed Aug 12 19:06:12 2026, MaxMem= 12884901888 cpu:               9.8 elap:               0.2
 (Enter /home/falbo/g16/l702.exe)
 L702 exits ... SP integral derivatives will be done elsewhere.
 Leave Link  702 at Wed Aug 12 19:06:12 2026, MaxMem= 12884901888 cpu:               0.8 elap:               0.0
 (Enter /home/falbo/g16/l703.exe)
 Integral derivatives from FoFJK, PRISM(SPDF).
 Compute integral second derivatives, UseDBF=F ICtDFT=           0.
 Calling FoFJK, ICntrl=    100127 FMM=F ISym2X=1 I1Cent= 0 IOpClX= 0 NMat=1 NMatS=1 NMatT=0.
 FoFJK:  IHMeth= 1 ICntrl=  100127 DoSepK=F KAlg= 0 I1Cent=           0 FoldK=F
 IRaf=         0 NMat=       1 IRICut=       1 DoRegI=T DoRafI=F ISym2E= 1 IDoP0=0 IntGTp=1.
 FoFCou: FMM=F IPFlag=           0 FMFlag=      100000 FMFlg1=         800
         NFxFlg=           0 DoJE=F BraDBF=F KetDBF=F FulRan=T
         wScrn=  0.000000 ICntrl=    100127 IOpCl=  0 I1Cent=           0 NGrid=           0
         NMat0=    1 NMatS0=      1 NMatT0=    0 NMatD0=    1 NMtDS0=    0 NMtDT0=    0
 Petite list used in FoFCou.
 Leave Link  703 at Wed Aug 12 19:06:14 2026, MaxMem= 12884901888 cpu:              75.1 elap:               1.6
 (Enter /home/falbo/g16/l716.exe)
 Dipole        =-1.04083409D-16-4.40203429D-14 1.36002321D-15
 Polarizability= 4.63038119D+01-2.58089371D+00 5.13357693D+01
                -2.63228899D-08-1.55932639D-09 4.33551949D+01
 ***** Axes restored to original set *****
 -------------------------------------------------------------------
 Center     Atomic                   Forces (Hartrees/Bohr)
 Number     Number              X              Y              Z
 -------------------------------------------------------------------
      1        6           0.001869285   -0.000626391    0.002692982
      2        1           0.000118746   -0.003161552   -0.001630381
      3        1           0.000551861    0.000911629   -0.003224788
      4        1          -0.003246495   -0.000429781   -0.000900241
      5        6          -0.002396703    0.002090788   -0.002709744
      6        1           0.001491289   -0.000246412    0.001597485
      7        1           0.000922169   -0.000447400    0.001945780
      8        6           0.002396703   -0.002090788    0.002709744
      9        1          -0.000922169    0.000447400   -0.001945780
     10        1          -0.001491289    0.000246412   -0.001597485
     11        6          -0.001869285    0.000626391   -0.002692982
     12        1           0.003246495    0.000429781    0.000900241
     13        1          -0.000118746    0.003161552    0.001630381
     14        1          -0.000551861   -0.000911629    0.003224788
 -------------------------------------------------------------------
 Cartesian Forces:  Max     0.003246495 RMS     0.001877279
 FormGI is forming the generalized inverse of G from B-inverse, IUseBI=4.
 Leave Link  716 at Wed Aug 12 19:06:14 2026, MaxMem= 12884901888 cpu:               8.0 elap:               0.2
 (Enter /home/falbo/g16/l103.exe)

 GradGradGradGradGradGradGradGradGradGradGradGradGradGradGradGradGradGrad
 Berny optimization.
 Red2BG is reusing G-inverse.
 Internal  Forces:  Max     0.004315225 RMS     0.001522854
 Search for a local minimum.
 Step number   1 out of a maximum of   74
 All quantities printed in internal units (Hartrees-Bohrs-Radians)
 RMS Force = .15229D-02 SwitMx=.10000D-02 MixMth= 1
 Mixed Optimization -- RFO/linear search
 Second derivative matrix not updated -- analytic derivatives used.
 ITU=  0
     Eigenvalues ---    0.00202   0.00252   0.00312   0.03440   0.04028
     Eigenvalues ---    0.04076   0.04104   0.04784   0.04814   0.04817
     Eigenvalues ---    0.04874   0.06911   0.07309   0.09860   0.12262
     Eigenvalues ---    0.12970   0.12990   0.13516   0.14236   0.16391
     Eigenvalues ---    0.16489   0.18512   0.23601   0.30246   0.31552
     Eigenvalues ---    0.32955   0.34257   0.34471   0.35224   0.35676
     Eigenvalues ---    0.35736   0.35792   0.35880   0.35926   0.36862
     Eigenvalues ---    0.36944
 RFO step:  Lambda=-6.11132084D-04 EMin= 2.02395889D-03
 Linear search not attempted -- first point.
 Iteration  1 RMS(Cart)=  0.01171390 RMS(Int)=  0.00004903
 Iteration  2 RMS(Cart)=  0.00005265 RMS(Int)=  0.00002871
 Iteration  3 RMS(Cart)=  0.00000000 RMS(Int)=  0.00002871
 ITry= 1 IFail=0 DXMaxC= 2.82D-02 DCOld= 1.00D+10 DXMaxT= 7.00D-02 DXLimC= 3.00D+00 Rises=F
 ClnCor:  largest displacement from symmetrization is 7.96D-08 for atom     4.
 Variable       Old X    -DE/DX   Delta X   Delta X   Delta X     New X
                                 (Linear)    (Quad)   (Total)
    R1        2.05533   0.00303   0.00000   0.00794   0.00794   2.06327
    R2        2.05610   0.00327   0.00000   0.00944   0.00944   2.06555
    R3        2.05610   0.00327   0.00000   0.00944   0.00944   2.06555
    R4        2.87935   0.00432   0.00000   0.00788   0.00788   2.88723
    R5        2.06469   0.00151   0.00000   0.00491   0.00491   2.06960
    R6        2.06469   0.00151   0.00000   0.00491   0.00491   2.06960
    R7        2.88533   0.00164   0.00000   0.00250   0.00250   2.88783
    R8        2.06469   0.00151   0.00000   0.00491   0.00491   2.06960
    R9        2.06469   0.00151   0.00000   0.00491   0.00491   2.06960
   R10        2.87935   0.00432   0.00000   0.00788   0.00788   2.88723
   R11        2.05610   0.00327   0.00000   0.00944   0.00944   2.06555
   R12        2.05533   0.00303   0.00000   0.00794   0.00794   2.06327
   R13        2.05610   0.00327   0.00000   0.00944   0.00944   2.06555
    A1        1.89172  -0.00141   0.00000  -0.00761  -0.00766   1.88406
    A2        1.89172  -0.00141   0.00000  -0.00761  -0.00766   1.88406
    A3        1.93173   0.00235   0.00000   0.01537   0.01531   1.94704
    A4        1.88959  -0.00096   0.00000  -0.00928  -0.00928   1.88031
    A5        1.92893   0.00064   0.00000   0.00409   0.00406   1.93300
    A6        1.92893   0.00064   0.00000   0.00409   0.00406   1.93300
    A7        1.90939   0.00004   0.00000   0.00566   0.00565   1.91504
    A8        1.90939   0.00004   0.00000   0.00566   0.00565   1.91504
    A9        1.95372   0.00169   0.00000   0.00917   0.00912   1.96284
   A10        1.87778  -0.00054   0.00000  -0.01859  -0.01860   1.85918
   A11        1.90601  -0.00067   0.00000  -0.00153  -0.00160   1.90441
   A12        1.90601  -0.00067   0.00000  -0.00153  -0.00160   1.90441
   A13        1.90601  -0.00067   0.00000  -0.00153  -0.00160   1.90441
   A14        1.90601  -0.00067   0.00000  -0.00153  -0.00160   1.90441
   A15        1.95372   0.00169   0.00000   0.00917   0.00912   1.96284
   A16        1.87778  -0.00054   0.00000  -0.01859  -0.01860   1.85918
   A17        1.90939   0.00004   0.00000   0.00566   0.00565   1.91504
   A18        1.90939   0.00004   0.00000   0.00566   0.00565   1.91504
   A19        1.92893   0.00064   0.00000   0.00409   0.00406   1.93300
   A20        1.93173   0.00235   0.00000   0.01537   0.01531   1.94704
   A21        1.92893   0.00064   0.00000   0.00409   0.00406   1.93300
   A22        1.89172  -0.00141   0.00000  -0.00761  -0.00766   1.88406
   A23        1.88959  -0.00096   0.00000  -0.00928  -0.00928   1.88031
   A24        1.89172  -0.00141   0.00000  -0.00761  -0.00766   1.88406
    D1        1.02646  -0.00030   0.00000  -0.00795  -0.00797   1.01849
    D2       -1.02646   0.00030   0.00000   0.00795   0.00797  -1.01849
    D3        3.14159   0.00000   0.00000  -0.00000   0.00000   3.14159
    D4       -1.06943  -0.00048   0.00000  -0.01110  -0.01114  -1.08056
    D5       -3.12235   0.00012   0.00000   0.00480   0.00480  -3.11755
    D6        1.04570  -0.00018   0.00000  -0.00315  -0.00317   1.04254
    D7        3.12235  -0.00012   0.00000  -0.00480  -0.00480   3.11755
    D8        1.06943   0.00048   0.00000   0.01110   0.01114   1.08056
    D9       -1.04570   0.00018   0.00000   0.00315   0.00317  -1.04254
   D10       -1.02451   0.00071   0.00000   0.01207   0.01206  -1.01245
   D11        1.02451  -0.00071   0.00000  -0.01207  -0.01206   1.01245
   D12        3.14159   0.00000   0.00000  -0.00000  -0.00000   3.14159
   D13        1.09257   0.00141   0.00000   0.02414   0.02411   1.11668
   D14        3.14159   0.00000   0.00000  -0.00000   0.00000   3.14159
   D15       -1.02451   0.00071   0.00000   0.01207   0.01206  -1.01245
   D16       -3.14159   0.00000   0.00000  -0.00000  -0.00000   3.14159
   D17       -1.09257  -0.00141   0.00000  -0.02414  -0.02411  -1.11668
   D18        1.02451  -0.00071   0.00000  -0.01207  -0.01206   1.01245
   D19        1.04570  -0.00018   0.00000  -0.00315  -0.00317   1.04254
   D20        3.14159   0.00000   0.00000  -0.00000   0.00000   3.14159
   D21       -1.04570   0.00018   0.00000   0.00315   0.00317  -1.04254
   D22       -1.06943  -0.00048   0.00000  -0.01110  -0.01114  -1.08056
   D23        1.02646  -0.00030   0.00000  -0.00795  -0.00797   1.01849
   D24        3.12235  -0.00012   0.00000  -0.00480  -0.00480   3.11755
   D25       -3.12235   0.00012   0.00000   0.00480   0.00480  -3.11755
   D26       -1.02646   0.00030   0.00000   0.00795   0.00797  -1.01849
   D27        1.06943   0.00048   0.00000   0.01110   0.01114   1.08056
         Item               Value     Threshold  Converged?
 Maximum Force            0.004315     0.000015     NO 
 RMS     Force            0.001523     0.000010     NO 
 Maximum Displacement     0.028210     0.000060     NO 
 RMS     Displacement     0.011689     0.000040     NO 
 Predicted change in Energy=-3.071775D-04
 Lowest energy point so far.  Saving SCF results.
 GradGradGradGradGradGradGradGradGradGradGradGradGradGradGradGradGradGrad

 Leave Link  103 at Wed Aug 12 19:06:14 2026, MaxMem= 12884901888 cpu:               2.6 elap:               0.1
 (Enter /home/falbo/g16/l202.exe)
                          Input orientation:                          
 ---------------------------------------------------------------------
 Center     Atomic      Atomic             Coordinates (Angstroms)
 Number     Number       Type             X           Y           Z
 ---------------------------------------------------------------------
      1          6           0       -2.492306    0.355940   -0.004782
      2          1           0       -2.138281   -0.676760   -0.022232
      3          1           0       -2.142852    0.847271   -0.916491
      4          1           0       -3.584809    0.338036   -0.034032
      5          6           0       -1.996027    1.098658    1.234743
      6          1           0       -0.901217    1.085280    1.259999
      7          1           0       -2.334775    0.579011    2.137318
      8          6           0       -2.479948    2.547480    1.280067
      9          1           0       -2.141201    3.067127    0.377492
     10          1           0       -3.574758    2.560858    1.254811
     11          6           0       -1.983669    3.290198    2.519592
     12          1           0       -0.891167    3.308102    2.548842
     13          1           0       -2.337694    4.322898    2.537042
     14          1           0       -2.333123    2.798867    3.431301
 ---------------------------------------------------------------------
                    Distance matrix (angstroms):
                    1          2          3          4          5
     1  C    0.000000
     2  H    1.091836   0.000000
     3  H    1.093041   1.767029   0.000000
     4  H    1.093041   1.767029   1.765586   0.000000
     5  C    1.527856   2.179984   2.170843   2.170843   0.000000
     6  H    2.159437   2.505838   2.517025   3.071571   1.095183
     7  H    2.159437   2.505838   3.071571   2.517025   1.095183
     8  C    2.540440   3.494058   2.798073   2.798073   1.528175
     9  H    2.760424   3.765166   2.569466   3.114690   2.151935
    10  H    2.760424   3.765166   3.114690   2.569466   2.151935
    11  C    3.903978   4.713971   4.218993   4.218993   2.540440
    12  H    4.218993   4.903553   4.430681   4.769510   2.798073
    13  H    4.713971   5.620162   4.903553   4.903553   3.494058
    14  H    4.218993   4.903553   4.769510   4.430681   2.798073
                    6          7          8          9         10
     6  H    0.000000
     7  H    1.755302   0.000000
     8  C    2.151935   2.151935   0.000000
     9  H    2.498819   3.053716   1.095183   0.000000
    10  H    3.053716   2.498819   1.095183   1.755302   0.000000
    11  C    2.760424   2.760424   1.527856   2.159437   2.159437
    12  H    2.569466   3.114690   2.170843   2.517025   3.071571
    13  H    3.765166   3.765166   2.179984   2.505838   2.505838
    14  H    3.114690   2.569466   2.170843   3.071571   2.517025
                   11         12         13         14
    11  C    0.000000
    12  H    1.093041   0.000000
    13  H    1.091836   1.767029   0.000000
    14  H    1.093041   1.765586   1.767029   0.000000
 Stoichiometry    C4H10
 Framework group  C2H[SGH(C4H2),X(H8)]
 Deg. of freedom    11
 Full point group                 C2H     NOp   4
 RotChk:  IX=2 Diff= 6.17D-03
 Largest Abelian subgroup         C2H     NOp   4
 Largest concise Abelian subgroup C2H     NOp   4
                         Standard orientation:                         
 ---------------------------------------------------------------------
 Center     Atomic      Atomic             Coordinates (Angstroms)
 Number     Number       Type             X           Y           Z
 ---------------------------------------------------------------------
      1          6           0       -0.706117    1.819797    0.000000
      2          1           0       -1.721579    2.220973   -0.000000
      3          1           0       -0.190934    2.207097   -0.882793
      4          1           0       -0.190934    2.207097    0.882793
      5          6           0       -0.706117    0.291941   -0.000000
      6          1           0       -1.246993   -0.077662   -0.877651
      7          1           0       -1.246993   -0.077662    0.877651
      8          6           0        0.706117   -0.291941   -0.000000
      9          1           0        1.246993    0.077662   -0.877651
     10          1           0        1.246993    0.077662    0.877651
     11          6           0        0.706117   -1.819797    0.000000
     12          1           0        0.190934   -2.207097   -0.882793
     13          1           0        1.721579   -2.220973    0.000000
     14          1           0        0.190934   -2.207097    0.882793
 ---------------------------------------------------------------------
 Rotational constants (GHZ):          23.3869278           3.6532538           3.4274048
 Leave Link  202 at Wed Aug 12 19:06:14 2026, MaxMem= 12884901888 cpu:               0.2 elap:               0.0
 (Enter /home/falbo/g16/l301.exe)
 Standard basis: 6-31+G(d) (6D, 7F)
 Ernie: Thresh=  0.10000D-02 Tol=  0.10000D-05 Strict=F.
 There are    34 symmetry adapted cartesian basis functions of AG  symmetry.
 There are    14 symmetry adapted cartesian basis functions of BG  symmetry.
 There are    14 symmetry adapted cartesian basis functions of AU  symmetry.
 There are    34 symmetry adapted cartesian basis functions of BU  symmetry.
 There are    34 symmetry adapted basis functions of AG  symmetry.
 There are    14 symmetry adapted basis functions of BG  symmetry.
 There are    14 symmetry adapted basis functions of AU  symmetry.
 There are    34 symmetry adapted basis functions of BU  symmetry.
    96 basis functions,   168 primitive gaussians,    96 cartesian basis functions
    17 alpha electrons       17 beta electrons
       nuclear repulsion energy       130.7708203091 Hartrees.
 IExCor= 3428 DFT=T Ex+Corr=M052X ExCW=0 ScaHFX=  0.560000
 ScaDFX=  0.440000  0.440000  1.000000  1.000000 ScalE2=  1.000000  1.000000
 IRadAn=      5 IRanWt=     -1 IRanGd=            0 ICorTp=0 IEmpDi=  4
 NAtoms=   14 NActive=   14 NUniq=    5 SFac= 4.00D+00 NAtFMM=   60 NAOKFM=F Big=F
 Integral buffers will be    131072 words long.
 Raffenetti 2 integral format.
 Two-electron integral symmetry is turned on.
 Leave Link  301 at Wed Aug 12 19:06:14 2026, MaxMem= 12884901888 cpu:               2.3 elap:               0.1
 (Enter /home/falbo/g16/l302.exe)
 NPDir=0 NMtPBC=     1 NCelOv=     1 NCel=       1 NClECP=     1 NCelD=      1
         NCelK=      1 NCelE2=     1 NClLst=     1 CellRange=     0.0.
 One-electron integrals computed using PRISM.
 One-electron integral symmetry used in STVInt
 NBasis=    96 RedAO= T EigKep=  4.44D-05  NBF=    34    14    14    34
 NBsUse=    96 1.00D-06 EigRej= -1.00D+00 NBFU=    34    14    14    34
 Precomputing XC quadrature grid using
 IXCGrd= 4 IRadAn=           5 IRanWt=          -1 IRanGd=           0 AccXCQ= 0.00D+00.
 Generated NRdTot=       0 NPtTot=           0 NUsed=           0 NTot=          32
 NSgBfM=    96    96    96    96    96 MxSgAt=    14 MxSgA2=    14.
 Leave Link  302 at Wed Aug 12 19:06:15 2026, MaxMem= 12884901888 cpu:               6.4 elap:               0.2
 (Enter /home/falbo/g16/l303.exe)
 DipDrv:  MaxL=1.
 Leave Link  303 at Wed Aug 12 19:06:15 2026, MaxMem= 12884901888 cpu:               1.0 elap:               0.0
 (Enter /home/falbo/g16/l401.exe)
 Initial guess from the checkpoint file:  "01_conf_000.chk"
 B after Tr=     0.000000    0.000000   -0.000000
         Rot=    0.999998   -0.000000    0.000000    0.002052 Ang=   0.24 deg.
 Guess basis will be translated and rotated to current coordinates.
 JPrj=2 DoOrth=T DoCkMO=T.
 Initial guess orbital symmetries:
       Occupied  (AG) (BU) (BU) (AG) (AG) (BU) (AG) (BU) (AU) (AG)
                 (BU) (BG) (BU) (AU) (AG) (BG) (AG)
       Virtual   (AG) (BU) (BU) (AU) (AG) (AG) (AG) (BG) (BU) (BG)
                 (BU) (AU) (BU) (AG) (AG) (BU) (AU) (BU) (BG) (AU)
                 (AG) (BU) (BG) (BU) (AG) (AG) (BU) (AG) (BU) (AG)
                 (BU) (AU) (AG) (BG) (BU) (AG) (AU) (BU) (BU) (BG)
                 (AG) (AU) (AG) (BG) (AU) (BU) (AG) (BG) (BU) (AG)
                 (BU) (AG) (BU) (AG) (AU) (BU) (AG) (BU) (BG) (AG)
                 (BU) (AU) (AG) (BU) (BG) (AG) (BG) (AU) (BU) (AG)
                 (BG) (AU) (BU) (AG) (BU) (AG) (BU) (AG) (BU)
 The electronic state of the initial guess is 1-AG.
 Generating alternative initial guess.
 ExpMin= 4.38D-02 ExpMax= 3.05D+03 ExpMxC= 4.57D+02 IAcc=3 IRadAn=         5 AccDes= 0.00D+00
 Harris functional with IExCor= 1009 and IRadAn=       5 diagonalized for initial guess.
 HarFok:  IExCor= 1009 AccDes= 0.00D+00 IRadAn=         5 IDoV= 1 UseB2=F ITyADJ=14
 ICtDFT=  3500011 ScaDFX=  1.000000  1.000000  1.000000  1.000000
 FoFCou: FMM=F IPFlag=           0 FMFlag=      100000 FMFlg1=           0
         NFxFlg=           0 DoJE=T BraDBF=F KetDBF=T FulRan=T
         wScrn=  0.000000 ICntrl=       500 IOpCl=  0 I1Cent=   200000004 NGrid=           0
         NMat0=    1 NMatS0=      1 NMatT0=    0 NMatD0=    1 NMtDS0=    0 NMtDT0=    0
 Petite list used in FoFCou.
 Harris En= -158.378490823878    
 Leave Link  401 at Wed Aug 12 19:06:15 2026, MaxMem= 12884901888 cpu:              12.2 elap:               0.3
 (Enter /home/falbo/g16/l502.exe)
 Integral symmetry usage will be decided dynamically.
 Closed shell SCF:
 Using DIIS extrapolation, IDIIS=  1040.
 NGot= 12884901888 LenX= 12884876828 LenY= 12884867171
 Requested convergence on RMS density matrix=1.00D-08 within 128 cycles.
 Requested convergence on MAX density matrix=1.00D-06.
 Requested convergence on             energy=1.00D-06.
 No special actions if energy rises.
 Fock matrices will be formed incrementally for  20 cycles.

 Cycle   1  Pass 1  IDiag  1:
 FoFJK:  IHMeth= 1 ICntrl=       0 DoSepK=F KAlg= 0 I1Cent=           0 FoldK=F
 IRaf= 990000000 NMat=       1 IRICut=       1 DoRegI=T DoRafI=F ISym2E= 1 IDoP0=0 IntGTp=1.
 FoFCou: FMM=F IPFlag=           0 FMFlag=      100000 FMFlg1=           0
         NFxFlg=           0 DoJE=F BraDBF=F KetDBF=F FulRan=T
         wScrn=  0.000000 ICntrl=         0 IOpCl=  0 I1Cent=           0 NGrid=           0
         NMat0=    1 NMatS0=      1 NMatT0=    0 NMatD0=    1 NMtDS0=    0 NMtDT0=    0
 Petite list used in FoFCou.
 E= -158.418657282701    
 DIIS: error= 7.67D-04 at cycle   1 NSaved=   1.
 NSaved= 1 IEnMin= 1 EnMin= -158.418657282701     IErMin= 1 ErrMin= 7.67D-04
 ErrMax= 7.67D-04  0.00D+00 EMaxC= 1.00D-01 BMatC= 5.40D-05 BMatP= 5.40D-05
 IDIUse=3 WtCom= 9.92D-01 WtEn= 7.67D-03
 Coeff-Com:  0.100D+01
 Coeff-En:   0.100D+01
 Coeff:      0.100D+01
 Gap=     0.443 Goal=   None    Shift=    0.000
 RMSDP=1.43D-04 MaxDP=1.39D-03              OVMax= 2.10D-03

 Cycle   2  Pass 1  IDiag  1:
 RMSU=  1.42D-04    CP:  9.99D-01
 E= -158.418714409889     Delta-E=       -0.000057127188 Rises=F Damp=F
 DIIS: error= 3.50D-04 at cycle   2 NSaved=   2.
 NSaved= 2 IEnMin= 2 EnMin= -158.418714409889     IErMin= 2 ErrMin= 3.50D-04
 ErrMax= 3.50D-04  0.00D+00 EMaxC= 1.00D-01 BMatC= 1.01D-05 BMatP= 5.40D-05
 IDIUse=3 WtCom= 9.96D-01 WtEn= 3.50D-03
 Coeff-Com:  0.225D+00 0.775D+00
 Coeff-En:   0.000D+00 0.100D+01
 Coeff:      0.225D+00 0.775D+00
 Gap=     0.444 Goal=   None    Shift=    0.000
 RMSDP=8.66D-05 MaxDP=1.19D-03 DE=-5.71D-05 OVMax= 8.62D-04

 Cycle   3  Pass 1  IDiag  1:
 RMSU=  8.58D-05    CP:  9.99D-01  9.34D-01
 E= -158.418723031471     Delta-E=       -0.000008621583 Rises=F Damp=F
 DIIS: error= 1.72D-04 at cycle   3 NSaved=   3.
 NSaved= 3 IEnMin= 3 EnMin= -158.418723031471     IErMin= 3 ErrMin= 1.72D-04
 ErrMax= 1.72D-04  0.00D+00 EMaxC= 1.00D-01 BMatC= 1.85D-06 BMatP= 1.01D-05
 IDIUse=3 WtCom= 9.98D-01 WtEn= 1.72D-03
 Coeff-Com: -0.380D-01 0.277D+00 0.762D+00
 Coeff-En:   0.000D+00 0.111D-01 0.989D+00
 Coeff:     -0.380D-01 0.276D+00 0.762D+00
 Gap=     0.444 Goal=   None    Shift=    0.000
 RMSDP=1.87D-05 MaxDP=2.48D-04 DE=-8.62D-06 OVMax= 2.80D-04

 Cycle   4  Pass 1  IDiag  1:
 RMSU=  1.13D-05    CP:  9.99D-01  9.92D-01  8.55D-01
 E= -158.418724933605     Delta-E=       -0.000001902133 Rises=F Damp=F
 DIIS: error= 9.08D-06 at cycle   4 NSaved=   4.
 NSaved= 4 IEnMin= 4 EnMin= -158.418724933605     IErMin= 4 ErrMin= 9.08D-06
 ErrMax= 9.08D-06  0.00D+00 EMaxC= 1.00D-01 BMatC= 8.59D-09 BMatP= 1.85D-06
 IDIUse=1 WtCom= 1.00D+00 WtEn= 0.00D+00
 Coeff-Com: -0.952D-02 0.224D-01 0.961D-01 0.891D+00
 Coeff:     -0.952D-02 0.224D-01 0.961D-01 0.891D+00
 Gap=     0.444 Goal=   None    Shift=    0.000
 RMSDP=3.76D-06 MaxDP=5.66D-05 DE=-1.90D-06 OVMax= 3.58D-05

 Cycle   5  Pass 1  IDiag  1:
 RMSU=  2.65D-06    CP:  9.99D-01  9.97D-01  8.77D-01  1.16D+00
 E= -158.418724943031     Delta-E=       -0.000000009427 Rises=F Damp=F
 DIIS: error= 4.69D-06 at cycle   5 NSaved=   5.
 NSaved= 5 IEnMin= 5 EnMin= -158.418724943031     IErMin= 5 ErrMin= 4.69D-06
 ErrMax= 4.69D-06  0.00D+00 EMaxC= 1.00D-01 BMatC= 1.45D-09 BMatP= 8.59D-09
 IDIUse=1 WtCom= 1.00D+00 WtEn= 0.00D+00
 Coeff-Com: -0.142D-02-0.475D-02-0.302D-02 0.283D+00 0.726D+00
 Coeff:     -0.142D-02-0.475D-02-0.302D-02 0.283D+00 0.726D+00
 Gap=     0.444 Goal=   None    Shift=    0.000
 RMSDP=8.62D-07 MaxDP=1.40D-05 DE=-9.43D-09 OVMax= 1.06D-05

 Cycle   6  Pass 1  IDiag  1:
 RMSU=  4.94D-07    CP:  9.99D-01  9.98D-01  8.78D-01  1.21D+00  1.02D+00
 E= -158.418724944444     Delta-E=       -0.000000001413 Rises=F Damp=F
 DIIS: error= 1.17D-06 at cycle   6 NSaved=   6.
 NSaved= 6 IEnMin= 6 EnMin= -158.418724944444     IErMin= 6 ErrMin= 1.17D-06
 ErrMax= 1.17D-06  0.00D+00 EMaxC= 1.00D-01 BMatC= 1.29D-10 BMatP= 1.45D-09
 IDIUse=1 WtCom= 1.00D+00 WtEn= 0.00D+00
 Coeff-Com:  0.522D-03-0.365D-02-0.105D-01 0.326D-02 0.240D+00 0.770D+00
 Coeff:      0.522D-03-0.365D-02-0.105D-01 0.326D-02 0.240D+00 0.770D+00
 Gap=     0.444 Goal=   None    Shift=    0.000
 RMSDP=3.12D-07 MaxDP=4.18D-06 DE=-1.41D-09 OVMax= 3.12D-06

 Cycle   7  Pass 1  IDiag  1:
 RMSU=  1.35D-07    CP:  9.99D-01  9.98D-01  8.80D-01  1.23D+00  1.07D+00
                    CP:  9.41D-01
 E= -158.418724944584     Delta-E=       -0.000000000140 Rises=F Damp=F
 DIIS: error= 1.33D-07 at cycle   7 NSaved=   7.
 NSaved= 7 IEnMin= 7 EnMin= -158.418724944584     IErMin= 7 ErrMin= 1.33D-07
 ErrMax= 1.33D-07  0.00D+00 EMaxC= 1.00D-01 BMatC= 1.09D-12 BMatP= 1.29D-10
 IDIUse=1 WtCom= 1.00D+00 WtEn= 0.00D+00
 Coeff-Com:  0.661D-04-0.345D-04-0.307D-03-0.842D-02-0.143D-01 0.336D-01
 Coeff-Com:  0.989D+00
 Coeff:      0.661D-04-0.345D-04-0.307D-03-0.842D-02-0.143D-01 0.336D-01
 Coeff:      0.989D+00
 Gap=     0.444 Goal=   None    Shift=    0.000
 RMSDP=7.34D-08 MaxDP=1.41D-06 DE=-1.40D-10 OVMax= 6.44D-07

 Cycle   8  Pass 1  IDiag  1:
 RMSU=  2.59D-08    CP:  9.99D-01  9.99D-01  8.80D-01  1.23D+00  1.08D+00
                    CP:  9.94D-01  1.17D+00
 E= -158.418724944590     Delta-E=       -0.000000000006 Rises=F Damp=F
 DIIS: error= 1.79D-08 at cycle   8 NSaved=   8.
 NSaved= 8 IEnMin= 8 EnMin= -158.418724944590     IErMin= 8 ErrMin= 1.79D-08
 ErrMax= 1.79D-08  0.00D+00 EMaxC= 1.00D-01 BMatC= 3.52D-14 BMatP= 1.09D-12
 IDIUse=1 WtCom= 1.00D+00 WtEn= 0.00D+00
 Coeff-Com: -0.126D-04 0.124D-03 0.358D-03-0.998D-03-0.109D-01-0.265D-01
 Coeff-Com:  0.991D-01 0.939D+00
 Coeff:     -0.126D-04 0.124D-03 0.358D-03-0.998D-03-0.109D-01-0.265D-01
 Coeff:      0.991D-01 0.939D+00
 Gap=     0.444 Goal=   None    Shift=    0.000
 RMSDP=1.33D-08 MaxDP=2.63D-07 DE=-6.20D-12 OVMax= 1.01D-07

 Cycle   9  Pass 1  IDiag  1:
 RMSU=  4.32D-09    CP:  9.99D-01  9.99D-01  8.80D-01  1.23D+00  1.09D+00
                    CP:  1.00D+00  1.22D+00  1.21D+00
 E= -158.418724944589     Delta-E=        0.000000000001 Rises=F Damp=F
 DIIS: error= 2.37D-09 at cycle   9 NSaved=   9.
 NSaved= 9 IEnMin= 8 EnMin= -158.418724944590     IErMin= 9 ErrMin= 2.37D-09
 ErrMax= 2.37D-09  0.00D+00 EMaxC= 1.00D-01 BMatC= 4.99D-16 BMatP= 3.52D-14
 IDIUse=1 WtCom= 1.00D+00 WtEn= 0.00D+00
 Coeff-Com: -0.115D-06-0.862D-05-0.234D-04 0.262D-03 0.114D-02 0.129D-02
 Coeff-Com: -0.279D-01-0.656D-01 0.109D+01
 Coeff:     -0.115D-06-0.862D-05-0.234D-04 0.262D-03 0.114D-02 0.129D-02
 Coeff:     -0.279D-01-0.656D-01 0.109D+01
 Gap=     0.444 Goal=   None    Shift=    0.000
 RMSDP=2.14D-09 MaxDP=3.72D-08 DE= 1.42D-12 OVMax= 1.34D-08

 SCF Done:  E(RM052X) =  -158.418724945     A.U. after    9 cycles
            NFock=  9  Conv=0.21D-08     -V/T= 2.0100
 KE= 1.568500977584D+02 PE=-6.267518218091D+02 EE= 1.807121787971D+02
 Leave Link  502 at Wed Aug 12 19:06:16 2026, MaxMem= 12884901888 cpu:              64.9 elap:               1.4
 (Enter /home/falbo/g16/l801.exe)
 DoSCS=F DFT=T ScalE2(SS,OS)=  1.000000  1.000000
 Range of M.O.s used for correlation:     1    96
 NBasis=    96 NAE=    17 NBE=    17 NFC=     0 NFV=     0
 NROrb=     96 NOA=    17 NOB=    17 NVA=    79 NVB=    79

 **** Warning!!: The largest alpha MO coefficient is  0.55400261D+02

 Leave Link  801 at Wed Aug 12 19:06:16 2026, MaxMem= 12884901888 cpu:               0.8 elap:               0.0
 (Enter /home/falbo/g16/l1101.exe)
 Using compressed storage, NAtomX=    14.
 Will process     15 centers per pass.
 Leave Link 1101 at Wed Aug 12 19:06:17 2026, MaxMem= 12884901888 cpu:               6.8 elap:               0.2
 (Enter /home/falbo/g16/l1102.exe)
 Symmetrizing basis deriv contribution to polar:
 IMax=3 JMax=2 DiffMx= 0.00D+00
 Leave Link 1102 at Wed Aug 12 19:06:17 2026, MaxMem= 12884901888 cpu:               1.0 elap:               0.0
 (Enter /home/falbo/g16/l1110.exe)
 Forming Gx(P) for the SCF density, NAtomX=    14.
 Integral derivatives from FoFJK, PRISM(SPDF).
 Do as many integral derivatives as possible in FoFJK.
 G2DrvN: MDV=   12884900632.
 G2DrvN: will do    15 centers at a time, making    1 passes.
 Calling FoFCou, ICntrl=  3107 FMM=F I1Cent=   0 AccDes= 0.00D+00.
 FoFJK:  IHMeth= 1 ICntrl=    3107 DoSepK=F KAlg= 0 I1Cent=           0 FoldK=F
 IRaf=         0 NMat=       1 IRICut=       1 DoRegI=T DoRafI=F ISym2E= 1 IDoP0=0 IntGTp=1.
 FoFCou: FMM=F IPFlag=           0 FMFlag=      100000 FMFlg1=           0
         NFxFlg=           0 DoJE=F BraDBF=F KetDBF=F FulRan=T
         wScrn=  0.000000 ICntrl=      3107 IOpCl=  0 I1Cent=           0 NGrid=           0
         NMat0=    1 NMatS0=      1 NMatT0=    0 NMatD0=    1 NMtDS0=    0 NMtDT0=    0
 Petite list used in FoFCou.
 End of G2Drv F.D. properties file   721 does not exist.
 End of G2Drv F.D. properties file   722 does not exist.
 End of G2Drv F.D. properties file   788 does not exist.
 Leave Link 1110 at Wed Aug 12 19:06:19 2026, MaxMem= 12884901888 cpu:              92.4 elap:               2.0
 (Enter /home/falbo/g16/l1002.exe)
 Minotr:  Closed shell wavefunction.
          IDoAtm=11111111111111
          Direct CPHF calculation.
          Differentiating once with respect to electric field.
                with respect to dipole field.
          Differentiating once with respect to nuclear coordinates.
          Using symmetry in CPHF.
          Requested convergence is 1.0D-08 RMS, and 1.0D-07 maximum.
          Secondary convergence is 1.0D-12 RMS, and 1.0D-12 maximum.
          NewPWx=T KeepS1=F KeepF1=F KeepIn=T MapXYZ=F SortEE=F KeepMc=T.
         4285 words used for storage of precomputed grid.
 Keep R1 ints in memory in symmetry-blocked form, NReq=55015591.
 FoFCou: FMM=F IPFlag=           0 FMFlag=           0 FMFlg1=           0
         NFxFlg=           0 DoJE=F BraDBF=F KetDBF=F FulRan=T
         wScrn=  0.000000 ICntrl=       600 IOpCl=  0 I1Cent=           0 NGrid=           0
         NMat0=    1 NMatS0=   4656 NMatT0=    0 NMatD0=    1 NMtDS0=    0 NMtDT0=    0
 Petite list used in FoFCou.
          MDV=   12884901888 using IRadAn=       1.
          Solving linear equations simultaneously, MaxMat=       0.
          There are    18 degrees of freedom in the 1st order CPHF.  IDoFFX=4 NUNeed=    18.
     18 vectors produced by pass  0 Test12= 7.46D-15 5.56D-09 XBig12= 1.85D+01 1.55D+00.
 AX will form    18 AO Fock derivatives at one time.
     18 vectors produced by pass  1 Test12= 7.46D-15 5.56D-09 XBig12= 9.52D-01 2.36D-01.
     18 vectors produced by pass  2 Test12= 7.46D-15 5.56D-09 XBig12= 4.56D-02 3.58D-02.
     18 vectors produced by pass  3 Test12= 7.46D-15 5.56D-09 XBig12= 6.80D-04 4.69D-03.
     18 vectors produced by pass  4 Test12= 7.46D-15 5.56D-09 XBig12= 3.71D-06 3.26D-04.
     18 vectors produced by pass  5 Test12= 7.46D-15 5.56D-09 XBig12= 1.89D-08 2.61D-05.
     11 vectors produced by pass  6 Test12= 7.46D-15 5.56D-09 XBig12= 8.98D-11 1.39D-06.
      3 vectors produced by pass  7 Test12= 7.46D-15 5.56D-09 XBig12= 2.87D-13 8.75D-08.
 InvSVY:  IOpt=1 It=  1 EMax= 3.55D-15
 Solved reduced A of dimension   122 with    18 vectors.
 FullF1:  Do perturbations      1 to      18.
 Isotropic polarizability for W=    0.000000       47.36 Bohr**3.
 End of Minotr F.D. properties file   721 does not exist.
 End of Minotr F.D. properties file   722 does not exist.
 End of Minotr F.D. properties file   788 does not exist.
 Leave Link 1002 at Wed Aug 12 19:06:22 2026, MaxMem= 12884901888 cpu:             169.5 elap:               3.6
 (Enter /home/falbo/g16/l701.exe)
 ... and contract with generalized density number  0.
 Compute integral second derivatives.
 Leave Link  701 at Wed Aug 12 19:06:23 2026, MaxMem= 12884901888 cpu:               8.9 elap:               0.2
 (Enter /home/falbo/g16/l702.exe)
 L702 exits ... SP integral derivatives will be done elsewhere.
 Leave Link  702 at Wed Aug 12 19:06:23 2026, MaxMem= 12884901888 cpu:               0.8 elap:               0.0
 (Enter /home/falbo/g16/l703.exe)
 Integral derivatives from FoFJK, PRISM(SPDF).
 Compute integral second derivatives, UseDBF=F ICtDFT=           0.
 Calling FoFJK, ICntrl=    100127 FMM=F ISym2X=1 I1Cent= 0 IOpClX= 0 NMat=1 NMatS=1 NMatT=0.
 FoFJK:  IHMeth= 1 ICntrl=  100127 DoSepK=F KAlg= 0 I1Cent=           0 FoldK=F
 IRaf=         0 NMat=       1 IRICut=       1 DoRegI=T DoRafI=F ISym2E= 1 IDoP0=0 IntGTp=1.
 FoFCou: FMM=F IPFlag=           0 FMFlag=      100000 FMFlg1=         800
         NFxFlg=           0 DoJE=F BraDBF=F KetDBF=F FulRan=T
         wScrn=  0.000000 ICntrl=    100127 IOpCl=  0 I1Cent=           0 NGrid=           0
         NMat0=    1 NMatS0=      1 NMatT0=    0 NMatD0=    1 NMtDS0=    0 NMtDT0=    0
 Petite list used in FoFCou.
 Leave Link  703 at Wed Aug 12 19:06:24 2026, MaxMem= 12884901888 cpu:              74.9 elap:               1.6
 (Enter /home/falbo/g16/l716.exe)
 Dipole        =-5.89112092D-15 4.44089210D-15-2.05391260D-15
 Polarizability= 4.65842671D+01-2.56769796D+00 5.18962787D+01
                -2.72700391D-08 4.89948864D-09 4.35928229D+01
 ***** Axes restored to original set *****
 -------------------------------------------------------------------
 Center     Atomic                   Forces (Hartrees/Bohr)
 Number     Number              X              Y              Z
 -------------------------------------------------------------------
      1        6           0.000050660   -0.000039495    0.000059988
      2        1          -0.000002239   -0.000046410   -0.000030440
      3        1           0.000004436    0.000016014   -0.000052375
      4        1          -0.000051785   -0.000003840   -0.000017969
      5        6          -0.000051572    0.000066876   -0.000045678
      6        1           0.000018200   -0.000016288    0.000022103
      7        1           0.000019640   -0.000015780    0.000021222
      8        6           0.000051572   -0.000066876    0.000045678
      9        1          -0.000019640    0.000015780   -0.000021222
     10        1          -0.000018200    0.000016288   -0.000022103
     11        6          -0.000050660    0.000039495   -0.000059988
     12        1           0.000051785    0.000003840    0.000017969
     13        1           0.000002239    0.000046410    0.000030440
     14        1          -0.000004436   -0.000016014    0.000052375
 -------------------------------------------------------------------
 Cartesian Forces:  Max     0.000066876 RMS     0.000036669
 FormGI is forming the generalized inverse of G from B-inverse, IUseBI=4.
 Leave Link  716 at Wed Aug 12 19:06:24 2026, MaxMem= 12884901888 cpu:               1.1 elap:               0.0
 (Enter /home/falbo/g16/l103.exe)

 GradGradGradGradGradGradGradGradGradGradGradGradGradGradGradGradGradGrad
 Berny optimization.
 Using GEDIIS/GDIIS optimizer.
 Red2BG is reusing G-inverse.
 Internal  Forces:  Max     0.000069638 RMS     0.000026148
 Search for a local minimum.
 Step number   2 out of a maximum of   74
 All quantities printed in internal units (Hartrees-Bohrs-Radians)
 RMS Force = .26148D-04 SwitMx=.10000D-02 MixMth= 2
 Mixed Optimization -- En-DIIS/RFO-DIIS
 Second derivative matrix not updated -- analytic derivatives used.
 DE= -3.09D-04 DEPred=-3.07D-04 R= 1.01D+00
 TightC=F SS=  1.41D+00  RLast= 7.26D-02 DXNew= 1.1773D-01 2.1786D-01
 Trust test= 1.01D+00 RLast= 7.26D-02 DXMaxT set to 1.18D-01
 ITU=  1  0
 Use linear search instead of GDIIS.
     Eigenvalues ---    0.00198   0.00240   0.00305   0.03312   0.03891
     Eigenvalues ---    0.04049   0.04073   0.04745   0.04759   0.04792
     Eigenvalues ---    0.04804   0.07004   0.07390   0.09854   0.12255
     Eigenvalues ---    0.12715   0.12731   0.13314   0.14059   0.16220
     Eigenvalues ---    0.16348   0.18175   0.23265   0.29866   0.30742
     Eigenvalues ---    0.32108   0.33685   0.33889   0.34685   0.34698
     Eigenvalues ---    0.34753   0.34961   0.34963   0.35156   0.35944
     Eigenvalues ---    0.36045
 RFO step:  Lambda=-2.38213084D-08 EMin= 1.97775824D-03
 Quintic linear search produced a step of  0.01770.
 Iteration  1 RMS(Cart)=  0.00023969 RMS(Int)=  0.00000051
 Iteration  2 RMS(Cart)=  0.00000002 RMS(Int)=  0.00000051
 ITry= 1 IFail=0 DXMaxC= 5.58D-04 DCOld= 1.00D+10 DXMaxT= 1.18D-01 DXLimC= 3.00D+00 Rises=F
 ClnCor:  largest displacement from symmetrization is 1.50D-08 for atom     9.
 Variable       Old X    -DE/DX   Delta X   Delta X   Delta X     New X
                                 (Linear)    (Quad)   (Total)
    R1        2.06327   0.00004   0.00014  -0.00003   0.00011   2.06338
    R2        2.06555   0.00005   0.00017  -0.00001   0.00016   2.06571
    R3        2.06555   0.00005   0.00017  -0.00001   0.00016   2.06571
    R4        2.88723   0.00007   0.00014  -0.00000   0.00014   2.88737
    R5        2.06960   0.00002   0.00009  -0.00002   0.00007   2.06966
    R6        2.06960   0.00002   0.00009  -0.00002   0.00007   2.06966
    R7        2.88783   0.00003   0.00004  -0.00005  -0.00001   2.88782
    R8        2.06960   0.00002   0.00009  -0.00002   0.00007   2.06966
    R9        2.06960   0.00002   0.00009  -0.00002   0.00007   2.06966
   R10        2.88723   0.00007   0.00014  -0.00000   0.00014   2.88737
   R11        2.06555   0.00005   0.00017  -0.00001   0.00016   2.06571
   R12        2.06327   0.00004   0.00014  -0.00003   0.00011   2.06338
   R13        2.06555   0.00005   0.00017  -0.00001   0.00016   2.06571
    A1        1.88406  -0.00002  -0.00014   0.00002  -0.00011   1.88395
    A2        1.88406  -0.00002  -0.00014   0.00002  -0.00011   1.88395
    A3        1.94704   0.00005   0.00027   0.00003   0.00030   1.94734
    A4        1.88031  -0.00002  -0.00016  -0.00007  -0.00024   1.88007
    A5        1.93300   0.00001   0.00007  -0.00000   0.00007   1.93306
    A6        1.93300   0.00001   0.00007  -0.00000   0.00007   1.93306
    A7        1.91504  -0.00001   0.00010  -0.00012  -0.00002   1.91501
    A8        1.91504  -0.00001   0.00010  -0.00012  -0.00002   1.91501
    A9        1.96284   0.00005   0.00016   0.00011   0.00027   1.96311
   A10        1.85918  -0.00001  -0.00033  -0.00004  -0.00037   1.85880
   A11        1.90441  -0.00001  -0.00003   0.00009   0.00006   1.90446
   A12        1.90441  -0.00001  -0.00003   0.00009   0.00006   1.90446
   A13        1.90441  -0.00001  -0.00003   0.00009   0.00006   1.90446
   A14        1.90441  -0.00001  -0.00003   0.00009   0.00006   1.90446
   A15        1.96284   0.00005   0.00016   0.00011   0.00027   1.96311
   A16        1.85918  -0.00001  -0.00033  -0.00004  -0.00037   1.85880
   A17        1.91504  -0.00001   0.00010  -0.00012  -0.00002   1.91501
   A18        1.91504  -0.00001   0.00010  -0.00012  -0.00002   1.91501
   A19        1.93300   0.00001   0.00007  -0.00000   0.00007   1.93306
   A20        1.94704   0.00005   0.00027   0.00003   0.00030   1.94734
   A21        1.93300   0.00001   0.00007  -0.00000   0.00007   1.93306
   A22        1.88406  -0.00002  -0.00014   0.00002  -0.00011   1.88395
   A23        1.88031  -0.00002  -0.00016  -0.00007  -0.00024   1.88007
   A24        1.88406  -0.00002  -0.00014   0.00002  -0.00011   1.88395
    D1        1.01849  -0.00001  -0.00014  -0.00010  -0.00024   1.01825
    D2       -1.01849   0.00001   0.00014   0.00010   0.00024  -1.01825
    D3        3.14159  -0.00000   0.00000  -0.00000   0.00000   3.14159
    D4       -1.08056  -0.00002  -0.00020  -0.00015  -0.00034  -1.08091
    D5       -3.11755   0.00001   0.00008   0.00005   0.00014  -3.11741
    D6        1.04254  -0.00001  -0.00006  -0.00005  -0.00010   1.04243
    D7        3.11755  -0.00001  -0.00008  -0.00005  -0.00014   3.11741
    D8        1.08056   0.00002   0.00020   0.00015   0.00034   1.08091
    D9       -1.04254   0.00001   0.00006   0.00005   0.00010  -1.04243
   D10       -1.01245   0.00001   0.00021  -0.00002   0.00019  -1.01226
   D11        1.01245  -0.00001  -0.00021   0.00002  -0.00019   1.01226
   D12        3.14159  -0.00000   0.00000  -0.00000   0.00000   3.14159
   D13        1.11668   0.00002   0.00043  -0.00004   0.00038   1.11707
   D14        3.14159  -0.00000   0.00000  -0.00000   0.00000   3.14159
   D15       -1.01245   0.00001   0.00021  -0.00002   0.00019  -1.01226
   D16        3.14159   0.00000  -0.00000  -0.00000   0.00000   3.14159
   D17       -1.11668  -0.00002  -0.00043   0.00004  -0.00038  -1.11707
   D18        1.01245  -0.00001  -0.00021   0.00002  -0.00019   1.01226
   D19        1.04254  -0.00001  -0.00006  -0.00005  -0.00010   1.04243
   D20        3.14159   0.00000   0.00000  -0.00000   0.00000   3.14159
   D21       -1.04254   0.00001   0.00006   0.00005   0.00010  -1.04243
   D22       -1.08056  -0.00002  -0.00020  -0.00015  -0.00034  -1.08091
   D23        1.01849  -0.00001  -0.00014  -0.00010  -0.00024   1.01825
   D24        3.11755  -0.00001  -0.00008  -0.00005  -0.00014   3.11741
   D25       -3.11755   0.00001   0.00008   0.00005   0.00014  -3.11741
   D26       -1.01849   0.00001   0.00014   0.00010   0.00024  -1.01825
   D27        1.08056   0.00002   0.00020   0.00015   0.00034   1.08091
         Item               Value     Threshold  Converged?
 Maximum Force            0.000070     0.000015     NO 
 RMS     Force            0.000026     0.000010     NO 
 Maximum Displacement     0.000558     0.000060     NO 
 RMS     Displacement     0.000240     0.000040     NO 
 Predicted change in Energy=-1.049300D-07
 Lowest energy point so far.  Saving SCF results.
 GradGradGradGradGradGradGradGradGradGradGradGradGradGradGradGradGradGrad

 Leave Link  103 at Wed Aug 12 19:06:24 2026, MaxMem= 12884901888 cpu:               1.8 elap:               0.1
 (Enter /home/falbo/g16/l202.exe)
                          Input orientation:                          
 ---------------------------------------------------------------------
 Center     Atomic      Atomic             Coordinates (Angstroms)
 Number     Number       Type             X           Y           Z
 ---------------------------------------------------------------------
      1          6           0       -2.492283    0.355725   -0.004868
      2          1           0       -2.138326   -0.677055   -0.022475
      3          1           0       -2.142921    0.847028   -0.916730
      4          1           0       -3.584866    0.337797   -0.034277
      5          6           0       -1.996078    1.098647    1.234653
      6          1           0       -0.901237    1.085120    1.260060
      7          1           0       -2.334642    0.578905    2.137287
      8          6           0       -2.479897    2.547491    1.280157
      9          1           0       -2.141333    3.067233    0.377523
     10          1           0       -3.574738    2.561018    1.254750
     11          6           0       -1.983692    3.290413    2.519678
     12          1           0       -0.891109    3.308341    2.549087
     13          1           0       -2.337649    4.323193    2.537285
     14          1           0       -2.333055    2.799110    3.431540
 ---------------------------------------------------------------------
                    Distance matrix (angstroms):
                    1          2          3          4          5
     1  C    0.000000
     2  H    1.091893   0.000000
     3  H    1.093126   1.767071   0.000000
     4  H    1.093126   1.767071   1.765572   0.000000
     5  C    1.527928   2.180303   2.171019   2.171019   0.000000
     6  H    2.159511   2.506102   2.517316   3.071753   1.095219
     7  H    2.159511   2.506102   3.071753   2.517316   1.095219
     8  C    2.540724   3.494456   2.798471   2.798471   1.528170
     9  H    2.760736   3.765595   2.569904   3.114994   2.152000
    10  H    2.760736   3.765595   3.114994   2.569904   2.152000
    11  C    3.904406   4.714579   4.219524   4.219524   2.540724
    12  H    4.219524   4.904270   4.431364   4.770139   2.798471
    13  H    4.714579   5.620906   4.904270   4.904270   3.494456
    14  H    4.219524   4.904270   4.770139   4.431364   2.798471
                    6          7          8          9         10
     6  H    0.000000
     7  H    1.755116   0.000000
     8  C    2.152000   2.152000   0.000000
     9  H    2.499097   3.053836   1.095219   0.000000
    10  H    3.053836   2.499097   1.095219   1.755116   0.000000
    11  C    2.760736   2.760736   1.527928   2.159511   2.159511
    12  H    2.569904   3.114994   2.171019   2.517316   3.071753
    13  H    3.765595   3.765595   2.180303   2.506102   2.506102
    14  H    3.114994   2.569904   2.171019   3.071753   2.517316
                   11         12         13         14
    11  C    0.000000
    12  H    1.093126   0.000000
    13  H    1.091893   1.767071   0.000000
    14  H    1.093126   1.765572   1.767071   0.000000
 Stoichiometry    C4H10
 Framework group  C2H[SGH(C4H2),X(H8)]
 Deg. of freedom    11
 Full point group                 C2H     NOp   4
 RotChk:  IX=2 Diff= 1.89D-04
 Largest Abelian subgroup         C2H     NOp   4
 Largest concise Abelian subgroup C2H     NOp   4
                         Standard orientation:                         
 ---------------------------------------------------------------------
 Center     Atomic      Atomic             Coordinates (Angstroms)
 Number     Number       Type             X           Y           Z
 ---------------------------------------------------------------------
      1          6           0       -0.706035    1.820058    0.000000
      2          1           0       -1.721430    2.221559    0.000000
      3          1           0       -0.190734    2.207457   -0.882786
      4          1           0       -0.190734    2.207457    0.882786
      5          6           0       -0.706035    0.292130    0.000000
      6          1           0       -1.247145   -0.077461   -0.877558
      7          1           0       -1.247145   -0.077461    0.877558
      8          6           0        0.706035   -0.292130    0.000000
      9          1           0        1.247145    0.077461   -0.877558
     10          1           0        1.247145    0.077461    0.877558
     11          6           0        0.706035   -1.820058    0.000000
     12          1           0        0.190734   -2.207457   -0.882786
     13          1           0        1.721430   -2.221559    0.000000
     14          1           0        0.190734   -2.207457    0.882786
 ---------------------------------------------------------------------
 Rotational constants (GHZ):          23.3888494           3.6524086           3.4266691
 Leave Link  202 at Wed Aug 12 19:06:24 2026, MaxMem= 12884901888 cpu:               0.2 elap:               0.0
 (Enter /home/falbo/g16/l301.exe)
 Standard basis: 6-31+G(d) (6D, 7F)
 Ernie: Thresh=  0.10000D-02 Tol=  0.10000D-05 Strict=F.
 There are    34 symmetry adapted cartesian basis functions of AG  symmetry.
 There are    14 symmetry adapted cartesian basis functions of BG  symmetry.
 There are    14 symmetry adapted cartesian basis functions of AU  symmetry.
 There are    34 symmetry adapted cartesian basis functions of BU  symmetry.
 There are    34 symmetry adapted basis functions of AG  symmetry.
 There are    14 symmetry adapted basis functions of BG  symmetry.
 There are    14 symmetry adapted basis functions of AU  symmetry.
 There are    34 symmetry adapted basis functions of BU  symmetry.
    96 basis functions,   168 primitive gaussians,    96 cartesian basis functions
    17 alpha electrons       17 beta electrons
       nuclear repulsion energy       130.7620299794 Hartrees.
 IExCor= 3428 DFT=T Ex+Corr=M052X ExCW=0 ScaHFX=  0.560000
 ScaDFX=  0.440000  0.440000  1.000000  1.000000 ScalE2=  1.000000  1.000000
 IRadAn=      5 IRanWt=     -1 IRanGd=            0 ICorTp=0 IEmpDi=  4
 NAtoms=   14 NActive=   14 NUniq=    5 SFac= 4.00D+00 NAtFMM=   60 NAOKFM=F Big=F
 Integral buffers will be    131072 words long.
 Raffenetti 2 integral format.
 Two-electron integral symmetry is turned on.
 Leave Link  301 at Wed Aug 12 19:06:25 2026, MaxMem= 12884901888 cpu:               2.3 elap:               0.1
 (Enter /home/falbo/g16/l302.exe)
 NPDir=0 NMtPBC=     1 NCelOv=     1 NCel=       1 NClECP=     1 NCelD=      1
         NCelK=      1 NCelE2=     1 NClLst=     1 CellRange=     0.0.
 One-electron integrals computed using PRISM.
 One-electron integral symmetry used in STVInt
 NBasis=    96 RedAO= T EigKep=  4.45D-05  NBF=    34    14    14    34
 NBsUse=    96 1.00D-06 EigRej= -1.00D+00 NBFU=    34    14    14    34
 Precomputing XC quadrature grid using
 IXCGrd= 4 IRadAn=           5 IRanWt=          -1 IRanGd=           0 AccXCQ= 0.00D+00.
 Generated NRdTot=       0 NPtTot=           0 NUsed=           0 NTot=          32
 NSgBfM=    96    96    96    96    96 MxSgAt=    14 MxSgA2=    14.
 Leave Link  302 at Wed Aug 12 19:06:25 2026, MaxMem= 12884901888 cpu:               6.3 elap:               0.2
 (Enter /home/falbo/g16/l303.exe)
 DipDrv:  MaxL=1.
 Leave Link  303 at Wed Aug 12 19:06:25 2026, MaxMem= 12884901888 cpu:               1.0 elap:               0.0
 (Enter /home/falbo/g16/l401.exe)
 Initial guess from the checkpoint file:  "01_conf_000.chk"
 B after Tr=     0.000000   -0.000000    0.000000
         Rot=    1.000000   -0.000000    0.000000    0.000062 Ang=   0.01 deg.
 Guess basis will be translated and rotated to current coordinates.
 JPrj=2 DoOrth=T DoCkMO=T.
 Initial guess orbital symmetries:
       Occupied  (AG) (BU) (BU) (AG) (AG) (BU) (AG) (BU) (AU) (AG)
                 (BU) (BG) (BU) (AU) (AG) (BG) (AG)
       Virtual   (AG) (BU) (BU) (AU) (AG) (AG) (BG) (AG) (BU) (BG)
                 (BU) (AU) (BU) (AG) (AG) (BU) (AU) (BU) (BG) (AU)
                 (AG) (BU) (BG) (BU) (AG) (AG) (BU) (AG) (BU) (AG)
                 (BU) (AU) (AG) (BG) (BU) (AG) (AU) (BU) (BU) (BG)
                 (AG) (AU) (AG) (BG) (AU) (BU) (AG) (BG) (BU) (AG)
                 (BU) (AG) (BU) (AG) (AU) (BU) (AG) (BU) (BG) (AG)
                 (BU) (AU) (AG) (BU) (BG) (AG) (BG) (AU) (BU) (AG)
                 (BG) (AU) (BU) (AG) (BU) (AG) (BU) (AG) (BU)
 The electronic state of the initial guess is 1-AG.
 Leave Link  401 at Wed Aug 12 19:06:25 2026, MaxMem= 12884901888 cpu:               4.4 elap:               0.1
 (Enter /home/falbo/g16/l502.exe)
 Integral symmetry usage will be decided dynamically.
 Closed shell SCF:
 Using DIIS extrapolation, IDIIS=  1040.
 NGot= 12884901888 LenX= 12884876828 LenY= 12884867171
 Requested convergence on RMS density matrix=1.00D-08 within 128 cycles.
 Requested convergence on MAX density matrix=1.00D-06.
 Requested convergence on             energy=1.00D-06.
 No special actions if energy rises.
 Fock matrices will be formed incrementally for  20 cycles.

 Cycle   1  Pass 1  IDiag  1:
 FoFJK:  IHMeth= 1 ICntrl=       0 DoSepK=F KAlg= 0 I1Cent=           0 FoldK=F
 IRaf= 990000000 NMat=       1 IRICut=       1 DoRegI=T DoRafI=F ISym2E= 1 IDoP0=0 IntGTp=1.
 FoFCou: FMM=F IPFlag=           0 FMFlag=      100000 FMFlg1=           0
         NFxFlg=           0 DoJE=F BraDBF=F KetDBF=F FulRan=T
         wScrn=  0.000000 ICntrl=         0 IOpCl=  0 I1Cent=           0 NGrid=           0
         NMat0=    1 NMatS0=      1 NMatT0=    0 NMatD0=    1 NMtDS0=    0 NMtDT0=    0
 Petite list used in FoFCou.
 E= -158.418725016608    
 DIIS: error= 1.45D-05 at cycle   1 NSaved=   1.
 NSaved= 1 IEnMin= 1 EnMin= -158.418725016608     IErMin= 1 ErrMin= 1.45D-05
 ErrMax= 1.45D-05  0.00D+00 EMaxC= 1.00D-01 BMatC= 2.12D-08 BMatP= 2.12D-08
 IDIUse=1 WtCom= 1.00D+00 WtEn= 0.00D+00
 Coeff-Com:  0.100D+01
 Coeff:      0.100D+01
 Gap=     0.444 Goal=   None    Shift=    0.000
 RMSDP=3.00D-06 MaxDP=2.95D-05              OVMax= 4.16D-05

 Cycle   2  Pass 1  IDiag  1:
 RMSU=  3.00D-06    CP:  1.00D+00
 E= -158.418725041693     Delta-E=       -0.000000025085 Rises=F Damp=F
 DIIS: error= 5.37D-06 at cycle   2 NSaved=   2.
 NSaved= 2 IEnMin= 2 EnMin= -158.418725041693     IErMin= 2 ErrMin= 5.37D-06
 ErrMax= 5.37D-06  0.00D+00 EMaxC= 1.00D-01 BMatC= 2.74D-09 BMatP= 2.12D-08
 IDIUse=1 WtCom= 1.00D+00 WtEn= 0.00D+00
 Coeff-Com:  0.155D+00 0.845D+00
 Coeff:      0.155D+00 0.845D+00
 Gap=     0.444 Goal=   None    Shift=    0.000
 RMSDP=1.53D-06 MaxDP=2.18D-05 DE=-2.51D-08 OVMax= 1.84D-05

 Cycle   3  Pass 1  IDiag  1:
 RMSU=  1.49D-06    CP:  1.00D+00  8.91D-01
 E= -158.418725043915     Delta-E=       -0.000000002222 Rises=F Damp=F
 DIIS: error= 3.57D-06 at cycle   3 NSaved=   3.
 NSaved= 3 IEnMin= 3 EnMin= -158.418725043915     IErMin= 3 ErrMin= 3.57D-06
 ErrMax= 3.57D-06  0.00D+00 EMaxC= 1.00D-01 BMatC= 8.08D-10 BMatP= 2.74D-09
 IDIUse=1 WtCom= 1.00D+00 WtEn= 0.00D+00
 Coeff-Com: -0.444D-01 0.334D+00 0.711D+00
 Coeff:     -0.444D-01 0.334D+00 0.711D+00
 Gap=     0.444 Goal=   None    Shift=    0.000
 RMSDP=4.49D-07 MaxDP=5.19D-06 DE=-2.22D-09 OVMax= 6.03D-06

 Cycle   4  Pass 1  IDiag  1:
 RMSU=  2.85D-07    CP:  1.00D+00  9.68D-01  8.26D-01
 E= -158.418725044745     Delta-E=       -0.000000000830 Rises=F Damp=F
 DIIS: error= 1.64D-07 at cycle   4 NSaved=   4.
 NSaved= 4 IEnMin= 4 EnMin= -158.418725044745     IErMin= 4 ErrMin= 1.64D-07
 ErrMax= 1.64D-07  0.00D+00 EMaxC= 1.00D-01 BMatC= 3.33D-12 BMatP= 8.08D-10
 IDIUse=1 WtCom= 1.00D+00 WtEn= 0.00D+00
 Coeff-Com: -0.874D-02 0.125D-01 0.621D-01 0.934D+00
 Coeff:     -0.874D-02 0.125D-01 0.621D-01 0.934D+00
 Gap=     0.444 Goal=   None    Shift=    0.000
 RMSDP=7.73D-08 MaxDP=1.26D-06 DE=-8.30D-10 OVMax= 8.84D-07

 Cycle   5  Pass 1  IDiag  1:
 RMSU=  4.18D-08    CP:  1.00D+00  9.72D-01  8.51D-01  1.18D+00
 E= -158.418725044752     Delta-E=       -0.000000000008 Rises=F Damp=F
 DIIS: error= 9.57D-08 at cycle   5 NSaved=   5.
 NSaved= 5 IEnMin= 5 EnMin= -158.418725044752     IErMin= 5 ErrMin= 9.57D-08
 ErrMax= 9.57D-08  0.00D+00 EMaxC= 1.00D-01 BMatC= 5.37D-13 BMatP= 3.33D-12
 IDIUse=1 WtCom= 1.00D+00 WtEn= 0.00D+00
 Coeff-Com: -0.867D-03-0.907D-02-0.101D-01 0.270D+00 0.750D+00
 Coeff:     -0.867D-03-0.907D-02-0.101D-01 0.270D+00 0.750D+00
 Gap=     0.444 Goal=   None    Shift=    0.000
 RMSDP=2.05D-08 MaxDP=3.14D-07 DE=-7.96D-12 OVMax= 2.29D-07

 Cycle   6  Pass 1  IDiag  1:
 RMSU=  1.06D-08    CP:  1.00D+00  9.74D-01  8.52D-01  1.23D+00  1.06D+00
 E= -158.418725044749     Delta-E=        0.000000000004 Rises=F Damp=F
 DIIS: error= 2.57D-08 at cycle   6 NSaved=   6.
 NSaved= 6 IEnMin= 5 EnMin= -158.418725044752     IErMin= 6 ErrMin= 2.57D-08
 ErrMax= 2.57D-08  0.00D+00 EMaxC= 1.00D-01 BMatC= 6.72D-14 BMatP= 5.37D-13
 IDIUse=1 WtCom= 1.00D+00 WtEn= 0.00D+00
 Coeff-Com:  0.739D-03-0.420D-02-0.103D-01-0.159D-01 0.263D+00 0.767D+00
 Coeff:      0.739D-03-0.420D-02-0.103D-01-0.159D-01 0.263D+00 0.767D+00
 Gap=     0.444 Goal=   None    Shift=    0.000
 RMSDP=6.48D-09 MaxDP=9.49D-08 DE= 3.64D-12 OVMax= 7.55D-08

 SCF Done:  E(RM052X) =  -158.418725045     A.U. after    6 cycles
            NFock=  6  Conv=0.65D-08     -V/T= 2.0100
 KE= 1.568488887895D+02 PE=-6.267331750116D+02 EE= 1.807035311980D+02
 Leave Link  502 at Wed Aug 12 19:06:26 2026, MaxMem= 12884901888 cpu:              44.1 elap:               0.9
 (Enter /home/falbo/g16/l801.exe)
 DoSCS=F DFT=T ScalE2(SS,OS)=  1.000000  1.000000
 Range of M.O.s used for correlation:     1    96
 NBasis=    96 NAE=    17 NBE=    17 NFC=     0 NFV=     0
 NROrb=     96 NOA=    17 NOB=    17 NVA=    79 NVB=    79

 **** Warning!!: The largest alpha MO coefficient is  0.55397672D+02

 Leave Link  801 at Wed Aug 12 19:06:26 2026, MaxMem= 12884901888 cpu:               0.9 elap:               0.0
 (Enter /home/falbo/g16/l1101.exe)
 Using compressed storage, NAtomX=    14.
 Will process     15 centers per pass.
 Leave Link 1101 at Wed Aug 12 19:06:26 2026, MaxMem= 12884901888 cpu:               6.3 elap:               0.2
 (Enter /home/falbo/g16/l1102.exe)
 Symmetrizing basis deriv contribution to polar:
 IMax=3 JMax=2 DiffMx= 0.00D+00
 Leave Link 1102 at Wed Aug 12 19:06:26 2026, MaxMem= 12884901888 cpu:               0.9 elap:               0.0
 (Enter /home/falbo/g16/l1110.exe)
 Forming Gx(P) for the SCF density, NAtomX=    14.
 Integral derivatives from FoFJK, PRISM(SPDF).
 Do as many integral derivatives as possible in FoFJK.
 G2DrvN: MDV=   12884900632.
 G2DrvN: will do    15 centers at a time, making    1 passes.
 Calling FoFCou, ICntrl=  3107 FMM=F I1Cent=   0 AccDes= 0.00D+00.
 FoFJK:  IHMeth= 1 ICntrl=    3107 DoSepK=F KAlg= 0 I1Cent=           0 FoldK=F
 IRaf=         0 NMat=       1 IRICut=       1 DoRegI=T DoRafI=F ISym2E= 1 IDoP0=0 IntGTp=1.
 FoFCou: FMM=F IPFlag=           0 FMFlag=      100000 FMFlg1=           0
         NFxFlg=           0 DoJE=F BraDBF=F KetDBF=F FulRan=T
         wScrn=  0.000000 ICntrl=      3107 IOpCl=  0 I1Cent=           0 NGrid=           0
         NMat0=    1 NMatS0=      1 NMatT0=    0 NMatD0=    1 NMtDS0=    0 NMtDT0=    0
 Petite list used in FoFCou.
 End of G2Drv F.D. properties file   721 does not exist.
 End of G2Drv F.D. properties file   722 does not exist.
 End of G2Drv F.D. properties file   788 does not exist.
 Leave Link 1110 at Wed Aug 12 19:06:28 2026, MaxMem= 12884901888 cpu:              92.9 elap:               2.0
 (Enter /home/falbo/g16/l1002.exe)
 Minotr:  Closed shell wavefunction.
          IDoAtm=11111111111111
          Direct CPHF calculation.
          Differentiating once with respect to electric field.
                with respect to dipole field.
          Differentiating once with respect to nuclear coordinates.
          Using symmetry in CPHF.
          Requested convergence is 1.0D-08 RMS, and 1.0D-07 maximum.
          Secondary convergence is 1.0D-12 RMS, and 1.0D-12 maximum.
          NewPWx=T KeepS1=F KeepF1=F KeepIn=T MapXYZ=F SortEE=F KeepMc=T.
         4285 words used for storage of precomputed grid.
 Keep R1 ints in memory in symmetry-blocked form, NReq=55015591.
 FoFCou: FMM=F IPFlag=           0 FMFlag=           0 FMFlg1=           0
         NFxFlg=           0 DoJE=F BraDBF=F KetDBF=F FulRan=T
         wScrn=  0.000000 ICntrl=       600 IOpCl=  0 I1Cent=           0 NGrid=           0
         NMat0=    1 NMatS0=   4656 NMatT0=    0 NMatD0=    1 NMtDS0=    0 NMtDT0=    0
 Petite list used in FoFCou.
          MDV=   12884901888 using IRadAn=       1.
          Solving linear equations simultaneously, MaxMat=       0.
          There are    18 degrees of freedom in the 1st order CPHF.  IDoFFX=4 NUNeed=    18.
     18 vectors produced by pass  0 Test12= 7.46D-15 5.56D-09 XBig12= 1.85D+01 1.55D+00.
 AX will form    18 AO Fock derivatives at one time.
     18 vectors produced by pass  1 Test12= 7.46D-15 5.56D-09 XBig12= 9.52D-01 2.36D-01.
     18 vectors produced by pass  2 Test12= 7.46D-15 5.56D-09 XBig12= 4.55D-02 3.58D-02.
     18 vectors produced by pass  3 Test12= 7.46D-15 5.56D-09 XBig12= 6.80D-04 4.69D-03.
     18 vectors produced by pass  4 Test12= 7.46D-15 5.56D-09 XBig12= 3.71D-06 3.26D-04.
     18 vectors produced by pass  5 Test12= 7.46D-15 5.56D-09 XBig12= 1.89D-08 2.60D-05.
     11 vectors produced by pass  6 Test12= 7.46D-15 5.56D-09 XBig12= 8.98D-11 1.40D-06.
      3 vectors produced by pass  7 Test12= 7.46D-15 5.56D-09 XBig12= 2.87D-13 8.74D-08.
 InvSVY:  IOpt=1 It=  1 EMax= 4.44D-15
 Solved reduced A of dimension   122 with    18 vectors.
 FullF1:  Do perturbations      1 to      18.
 Isotropic polarizability for W=    0.000000       47.36 Bohr**3.
 End of Minotr F.D. properties file   721 does not exist.
 End of Minotr F.D. properties file   722 does not exist.
 End of Minotr F.D. properties file   788 does not exist.
 Leave Link 1002 at Wed Aug 12 19:06:32 2026, MaxMem= 12884901888 cpu:             169.6 elap:               3.6
 (Enter /home/falbo/g16/l701.exe)
 ... and contract with generalized density number  0.
 Compute integral second derivatives.
 Leave Link  701 at Wed Aug 12 19:06:32 2026, MaxMem= 12884901888 cpu:               8.6 elap:               0.2
 (Enter /home/falbo/g16/l702.exe)
 L702 exits ... SP integral derivatives will be done elsewhere.
 Leave Link  702 at Wed Aug 12 19:06:32 2026, MaxMem= 12884901888 cpu:               2.6 elap:               0.1
 (Enter /home/falbo/g16/l703.exe)
 Integral derivatives from FoFJK, PRISM(SPDF).
 Compute integral second derivatives, UseDBF=F ICtDFT=           0.
 Calling FoFJK, ICntrl=    100127 FMM=F ISym2X=1 I1Cent= 0 IOpClX= 0 NMat=1 NMatS=1 NMatT=0.
 FoFJK:  IHMeth= 1 ICntrl=  100127 DoSepK=F KAlg= 0 I1Cent=           0 FoldK=F
 IRaf=         0 NMat=       1 IRICut=       1 DoRegI=T DoRafI=F ISym2E= 1 IDoP0=0 IntGTp=1.
 FoFCou: FMM=F IPFlag=           0 FMFlag=      100000 FMFlg1=         800
         NFxFlg=           0 DoJE=F BraDBF=F KetDBF=F FulRan=T
         wScrn=  0.000000 ICntrl=    100127 IOpCl=  0 I1Cent=           0 NGrid=           0
         NMat0=    1 NMatS0=      1 NMatT0=    0 NMatD0=    1 NMtDS0=    0 NMtDT0=    0
 Petite list used in FoFCou.
 Leave Link  703 at Wed Aug 12 19:06:34 2026, MaxMem= 12884901888 cpu:              76.5 elap:               1.6
 (Enter /home/falbo/g16/l716.exe)
 Dipole        = 1.47035162D-14-6.55031585D-14 2.83106871D-15
 Polarizability= 4.65887144D+01-2.56717922D+00 5.19057410D+01
                -2.72842414D-08 4.97019373D-09 4.35963924D+01
 ***** Axes restored to original set *****
 -------------------------------------------------------------------
 Center     Atomic                   Forces (Hartrees/Bohr)
 Number     Number              X              Y              Z
 -------------------------------------------------------------------
      1        6           0.000000606   -0.000000828    0.000000512
      2        1           0.000000645   -0.000000848    0.000000564
      3        1           0.000000652   -0.000000452   -0.000000218
      4        1          -0.000000183   -0.000000747    0.000000292
      5        6           0.000001046    0.000000344    0.000001907
      6        1           0.000000324    0.000000447   -0.000000505
      7        1          -0.000000731    0.000000074    0.000000141
      8        6          -0.000001046   -0.000000344   -0.000001907
      9        1           0.000000731   -0.000000074   -0.000000141
     10        1          -0.000000324   -0.000000447    0.000000505
     11        6          -0.000000606    0.000000828   -0.000000512
     12        1           0.000000183    0.000000747   -0.000000292
     13        1          -0.000000645    0.000000848   -0.000000564
     14        1          -0.000000652    0.000000452    0.000000218
 -------------------------------------------------------------------
 Cartesian Forces:  Max     0.000001907 RMS     0.000000693
 FormGI is forming the generalized inverse of G from B-inverse, IUseBI=4.
 Leave Link  716 at Wed Aug 12 19:06:34 2026, MaxMem= 12884901888 cpu:               1.4 elap:               0.1
 (Enter /home/falbo/g16/l103.exe)

 GradGradGradGradGradGradGradGradGradGradGradGradGradGradGradGradGradGrad
 Berny optimization.
 Using GEDIIS/GDIIS optimizer.
 Red2BG is reusing G-inverse.
 Internal  Forces:  Max     0.000000956 RMS     0.000000334
 Search for a local minimum.
 Step number   3 out of a maximum of   74
 All quantities printed in internal units (Hartrees-Bohrs-Radians)
 RMS Force = .33450D-06 SwitMx=.10000D-02 MixMth= 2
 Mixed Optimization -- En-DIIS/RFO-DIIS
 Swapping is turned off.
 Second derivative matrix not updated -- analytic derivatives used.
 DE= -1.00D-07 DEPred=-1.05D-07 R= 9.55D-01
 Trust test= 9.55D-01 RLast= 1.50D-03 DXMaxT set to 1.18D-01
 ITU=  0  1  0
     Eigenvalues ---    0.00198   0.00240   0.00304   0.03309   0.03888
     Eigenvalues ---    0.04048   0.04072   0.04744   0.04758   0.04792
     Eigenvalues ---    0.04802   0.07007   0.07393   0.09855   0.12255
     Eigenvalues ---    0.12710   0.12726   0.13309   0.14055   0.16217
     Eigenvalues ---    0.16346   0.18168   0.23258   0.29862   0.30729
     Eigenvalues ---    0.32092   0.33677   0.33880   0.34667   0.34691
     Eigenvalues ---    0.34736   0.34948   0.34948   0.35149   0.35930
     Eigenvalues ---    0.36032
 En-DIIS/RFO-DIIS/Sim-DIIS IScMMF=       -3 using points:     3    2
 RFO step:  Lambda=-3.42550035D-11.
 NNeg= 0 NGDIIS= 2 SimSw=  2.50D-03 Rises=F DC= -1.00D-07 SmlDif=  1.00D-05
 NRisDI= 0 DoIntr=F SqrtH=F CThrHd= 10.0 CDAdj=  3.0
 RMS Error=  0.3950727288D-05 NUsed= 2 OKEnD=F EnDIS=F
 InvSVX:  RCond= 2.52D-06 Info=           0 Equed=N FErr=  9.00D-16 BErr=  2.62D-17
 DidBck=F Rises=F RFO-DIIS coefs:    0.98699    0.01301
 Iteration  1 RMS(Cart)=  0.00000328 RMS(Int)=  0.00000000
 Iteration  2 RMS(Cart)=  0.00000000 RMS(Int)=  0.00000000
 ITry= 1 IFail=0 DXMaxC= 1.03D-05 DCOld= 1.00D+10 DXMaxT= 1.18D-01 DXLimC= 3.00D+00 Rises=F
 ClnCor:  largest displacement from symmetrization is 2.55D-10 for atom     9.
 Variable       Old X    -DE/DX   Delta X   Delta X   Delta X     New X
                                 (Linear)    (Quad)   (Total)
    R1        2.06338   0.00000  -0.00000   0.00000   0.00000   2.06338
    R2        2.06571   0.00000  -0.00000   0.00000   0.00000   2.06571
    R3        2.06571   0.00000  -0.00000   0.00000   0.00000   2.06571
    R4        2.88737   0.00000  -0.00000   0.00001   0.00000   2.88737
    R5        2.06966   0.00000  -0.00000   0.00000  -0.00000   2.06966
    R6        2.06966   0.00000  -0.00000   0.00000  -0.00000   2.06966
    R7        2.88782   0.00000   0.00000   0.00000   0.00000   2.88782
    R8        2.06966   0.00000  -0.00000   0.00000  -0.00000   2.06966
    R9        2.06966   0.00000  -0.00000   0.00000  -0.00000   2.06966
   R10        2.88737   0.00000  -0.00000   0.00001   0.00000   2.88737
   R11        2.06571   0.00000  -0.00000   0.00000   0.00000   2.06571
   R12        2.06338   0.00000  -0.00000   0.00000   0.00000   2.06338
   R13        2.06571   0.00000  -0.00000   0.00000   0.00000   2.06571
    A1        1.88395  -0.00000   0.00000  -0.00000  -0.00000   1.88395
    A2        1.88395  -0.00000   0.00000  -0.00000  -0.00000   1.88395
    A3        1.94734   0.00000  -0.00000   0.00001   0.00000   1.94734
    A4        1.88007   0.00000   0.00000  -0.00000   0.00000   1.88007
    A5        1.93306   0.00000  -0.00000   0.00000   0.00000   1.93306
    A6        1.93306   0.00000  -0.00000   0.00000   0.00000   1.93306
    A7        1.91501  -0.00000   0.00000  -0.00001  -0.00000   1.91501
    A8        1.91501  -0.00000   0.00000  -0.00001  -0.00000   1.91501
    A9        1.96311   0.00000  -0.00000   0.00000  -0.00000   1.96311
   A10        1.85880   0.00000   0.00000   0.00001   0.00001   1.85881
   A11        1.90446  -0.00000  -0.00000   0.00000   0.00000   1.90446
   A12        1.90446  -0.00000  -0.00000   0.00000   0.00000   1.90446
   A13        1.90446  -0.00000  -0.00000   0.00000   0.00000   1.90446
   A14        1.90446  -0.00000  -0.00000   0.00000   0.00000   1.90446
   A15        1.96311   0.00000  -0.00000   0.00000  -0.00000   1.96311
   A16        1.85880   0.00000   0.00000   0.00001   0.00001   1.85881
   A17        1.91501  -0.00000   0.00000  -0.00001  -0.00000   1.91501
   A18        1.91501  -0.00000   0.00000  -0.00001  -0.00000   1.91501
   A19        1.93306   0.00000  -0.00000   0.00000   0.00000   1.93306
   A20        1.94734   0.00000  -0.00000   0.00001   0.00000   1.94734
   A21        1.93306   0.00000  -0.00000   0.00000   0.00000   1.93306
   A22        1.88395  -0.00000   0.00000  -0.00000  -0.00000   1.88395
   A23        1.88007   0.00000   0.00000  -0.00000   0.00000   1.88007
   A24        1.88395  -0.00000   0.00000  -0.00000  -0.00000   1.88395
    D1        1.01825   0.00000   0.00000   0.00000   0.00000   1.01826
    D2       -1.01825  -0.00000  -0.00000  -0.00000  -0.00000  -1.01826
    D3        3.14159   0.00000   0.00000  -0.00000   0.00000   3.14159
    D4       -1.08091   0.00000   0.00000  -0.00000   0.00000  -1.08090
    D5       -3.11741  -0.00000  -0.00000  -0.00000  -0.00000  -3.11742
    D6        1.04243   0.00000   0.00000  -0.00000   0.00000   1.04243
    D7        3.11741   0.00000   0.00000   0.00000   0.00000   3.11742
    D8        1.08091  -0.00000  -0.00000   0.00000  -0.00000   1.08090
    D9       -1.04243  -0.00000  -0.00000   0.00000  -0.00000  -1.04243
   D10       -1.01226  -0.00000  -0.00000  -0.00000  -0.00001  -1.01227
   D11        1.01226   0.00000   0.00000   0.00000   0.00001   1.01227
   D12        3.14159  -0.00000   0.00000  -0.00000  -0.00000   3.14159
   D13        1.11707  -0.00000  -0.00000  -0.00001  -0.00001   1.11705
   D14        3.14159  -0.00000   0.00000  -0.00000   0.00000   3.14159
   D15       -1.01226  -0.00000  -0.00000  -0.00000  -0.00001  -1.01227
   D16       -3.14159   0.00000  -0.00000  -0.00000  -0.00000   3.14159
   D17       -1.11707   0.00000   0.00000   0.00001   0.00001  -1.11705
   D18        1.01226   0.00000   0.00000   0.00000   0.00001   1.01227
   D19        1.04243   0.00000   0.00000  -0.00000   0.00000   1.04243
   D20        3.14159   0.00000   0.00000  -0.00000   0.00000  -3.14159
   D21       -1.04243  -0.00000  -0.00000   0.00000  -0.00000  -1.04243
   D22       -1.08091   0.00000   0.00000  -0.00000   0.00000  -1.08090
   D23        1.01825   0.00000   0.00000   0.00000   0.00000   1.01826
   D24        3.11741   0.00000   0.00000   0.00000   0.00000   3.11742
   D25       -3.11741  -0.00000  -0.00000  -0.00000  -0.00000  -3.11742
   D26       -1.01825  -0.00000  -0.00000  -0.00000  -0.00000  -1.01826
   D27        1.08091  -0.00000  -0.00000   0.00000  -0.00000   1.08090
         Item               Value     Threshold  Converged?
 Maximum Force            0.000001     0.000015     YES
 RMS     Force            0.000000     0.000010     YES
 Maximum Displacement     0.000010     0.000060     YES
 RMS     Displacement     0.000003     0.000040     YES
 Predicted change in Energy=-2.898174D-11
 Optimization completed.
    -- Stationary point found.
                           ----------------------------
                           !   Optimized Parameters   !
                           ! (Angstroms and Degrees)  !
 --------------------------                            --------------------------
 ! Name  Definition              Value          Derivative Info.                !
 --------------------------------------------------------------------------------
 ! R1    R(1,2)                  1.0919         -DE/DX =    0.0                 !
 ! R2    R(1,3)                  1.0931         -DE/DX =    0.0                 !
 ! R3    R(1,4)                  1.0931         -DE/DX =    0.0                 !
 ! R4    R(1,5)                  1.5279         -DE/DX =    0.0                 !
 ! R5    R(5,6)                  1.0952         -DE/DX =    0.0                 !
 ! R6    R(5,7)                  1.0952         -DE/DX =    0.0                 !
 ! R7    R(5,8)                  1.5282         -DE/DX =    0.0                 !
 ! R8    R(8,9)                  1.0952         -DE/DX =    0.0                 !
 ! R9    R(8,10)                 1.0952         -DE/DX =    0.0                 !
 ! R10   R(8,11)                 1.5279         -DE/DX =    0.0                 !
 ! R11   R(11,12)                1.0931         -DE/DX =    0.0                 !
 ! R12   R(11,13)                1.0919         -DE/DX =    0.0                 !
 ! R13   R(11,14)                1.0931         -DE/DX =    0.0                 !
 ! A1    A(2,1,3)              107.9424         -DE/DX =    0.0                 !
 ! A2    A(2,1,4)              107.9424         -DE/DX =    0.0                 !
 ! A3    A(2,1,5)              111.5745         -DE/DX =    0.0                 !
 ! A4    A(3,1,4)              107.7202         -DE/DX =    0.0                 !
 ! A5    A(3,1,5)              110.7564         -DE/DX =    0.0                 !
 ! A6    A(4,1,5)              110.7564         -DE/DX =    0.0                 !
 ! A7    A(1,5,6)              109.7221         -DE/DX =    0.0                 !
 ! A8    A(1,5,7)              109.7221         -DE/DX =    0.0                 !
 ! A9    A(1,5,8)              112.4779         -DE/DX =    0.0                 !
 ! A10   A(6,5,7)              106.5016         -DE/DX =    0.0                 !
 ! A11   A(6,5,8)              109.1177         -DE/DX =    0.0                 !
 ! A12   A(7,5,8)              109.1177         -DE/DX =    0.0                 !
 ! A13   A(5,8,9)              109.1177         -DE/DX =    0.0                 !
 ! A14   A(5,8,10)             109.1177         -DE/DX =    0.0                 !
 ! A15   A(5,8,11)             112.4779         -DE/DX =    0.0                 !
 ! A16   A(9,8,10)             106.5016         -DE/DX =    0.0                 !
 ! A17   A(9,8,11)             109.7221         -DE/DX =    0.0                 !
 ! A18   A(10,8,11)            109.7221         -DE/DX =    0.0                 !
 ! A19   A(8,11,12)            110.7564         -DE/DX =    0.0                 !
 ! A20   A(8,11,13)            111.5745         -DE/DX =    0.0                 !
 ! A21   A(8,11,14)            110.7564         -DE/DX =    0.0                 !
 ! A22   A(12,11,13)           107.9424         -DE/DX =    0.0                 !
 ! A23   A(12,11,14)           107.7202         -DE/DX =    0.0                 !
 ! A24   A(13,11,14)           107.9424         -DE/DX =    0.0                 !
 ! D1    D(2,1,5,6)             58.3417         -DE/DX =    0.0                 !
 ! D2    D(2,1,5,7)            -58.3417         -DE/DX =    0.0                 !
 ! D3    D(2,1,5,8)            180.0            -DE/DX =    0.0                 !
 ! D4    D(3,1,5,6)            -61.9314         -DE/DX =    0.0                 !
 ! D5    D(3,1,5,7)           -178.6147         -DE/DX =    0.0                 !
 ! D6    D(3,1,5,8)             59.727          -DE/DX =    0.0                 !
 ! D7    D(4,1,5,6)            178.6147         -DE/DX =    0.0                 !
 ! D8    D(4,1,5,7)             61.9314         -DE/DX =    0.0                 !
 ! D9    D(4,1,5,8)            -59.727          -DE/DX =    0.0                 !
 ! D10   D(1,5,8,9)            -57.9984         -DE/DX =    0.0                 !
 ! D11   D(1,5,8,10)            57.9984         -DE/DX =    0.0                 !
 ! D12   D(1,5,8,11)           180.0            -DE/DX =    0.0                 !
 ! D13   D(6,5,8,9)             64.0032         -DE/DX =    0.0                 !
 ! D14   D(6,5,8,10)           180.0            -DE/DX =    0.0                 !
 ! D15   D(6,5,8,11)           -57.9984         -DE/DX =    0.0                 !
 ! D16   D(7,5,8,9)            180.0            -DE/DX =    0.0                 !
 ! D17   D(7,5,8,10)           -64.0032         -DE/DX =    0.0                 !
 ! D18   D(7,5,8,11)            57.9984         -DE/DX =    0.0                 !
 ! D19   D(5,8,11,12)           59.727          -DE/DX =    0.0                 !
 ! D20   D(5,8,11,13)         -180.0            -DE/DX =    0.0                 !
 ! D21   D(5,8,11,14)          -59.727          -DE/DX =    0.0                 !
 ! D22   D(9,8,11,12)          -61.9314         -DE/DX =    0.0                 !
 ! D23   D(9,8,11,13)           58.3417         -DE/DX =    0.0                 !
 ! D24   D(9,8,11,14)          178.6147         -DE/DX =    0.0                 !
 ! D25   D(10,8,11,12)        -178.6147         -DE/DX =    0.0                 !
 ! D26   D(10,8,11,13)         -58.3417         -DE/DX =    0.0                 !
 ! D27   D(10,8,11,14)          61.9314         -DE/DX =    0.0                 !
 --------------------------------------------------------------------------------
 Lowest energy point so far.  Saving SCF results.
 Largest change from initial coordinates is atom   13       0.018 Angstoms.
 GradGradGradGradGradGradGradGradGradGradGradGradGradGradGradGradGradGrad

 Leave Link  103 at Wed Aug 12 19:06:34 2026, MaxMem= 12884901888 cpu:               1.8 elap:               0.1
 (Enter /home/falbo/g16/l202.exe)
                          Input orientation:                          
 ---------------------------------------------------------------------
 Center     Atomic      Atomic             Coordinates (Angstroms)
 Number     Number       Type             X           Y           Z
 ---------------------------------------------------------------------
      1          6           0       -2.492283    0.355725   -0.004868
      2          1           0       -2.138326   -0.677055   -0.022475
      3          1           0       -2.142921    0.847028   -0.916730
      4          1           0       -3.584866    0.337797   -0.034277
      5          6           0       -1.996078    1.098647    1.234653
      6          1           0       -0.901237    1.085120    1.260060
      7          1           0       -2.334642    0.578905    2.137287
      8          6           0       -2.479897    2.547491    1.280157
      9          1           0       -2.141333    3.067233    0.377523
     10          1           0       -3.574738    2.561018    1.254750
     11          6           0       -1.983692    3.290413    2.519678
     12          1           0       -0.891109    3.308341    2.549087
     13          1           0       -2.337649    4.323193    2.537285
     14          1           0       -2.333055    2.799110    3.431540
 ---------------------------------------------------------------------
                    Distance matrix (angstroms):
                    1          2          3          4          5
     1  C    0.000000
     2  H    1.091893   0.000000
     3  H    1.093126   1.767071   0.000000
     4  H    1.093126   1.767071   1.765572   0.000000
     5  C    1.527928   2.180303   2.171019   2.171019   0.000000
     6  H    2.159511   2.506102   2.517316   3.071753   1.095219
     7  H    2.159511   2.506102   3.071753   2.517316   1.095219
     8  C    2.540724   3.494456   2.798471   2.798471   1.528170
     9  H    2.760736   3.765595   2.569904   3.114994   2.152000
    10  H    2.760736   3.765595   3.114994   2.569904   2.152000
    11  C    3.904406   4.714579   4.219524   4.219524   2.540724
    12  H    4.219524   4.904270   4.431364   4.770139   2.798471
    13  H    4.714579   5.620906   4.904270   4.904270   3.494456
    14  H    4.219524   4.904270   4.770139   4.431364   2.798471
                    6          7          8          9         10
     6  H    0.000000
     7  H    1.755116   0.000000
     8  C    2.152000   2.152000   0.000000
     9  H    2.499097   3.053836   1.095219   0.000000
    10  H    3.053836   2.499097   1.095219   1.755116   0.000000
    11  C    2.760736   2.760736   1.527928   2.159511   2.159511
    12  H    2.569904   3.114994   2.171019   2.517316   3.071753
    13  H    3.765595   3.765595   2.180303   2.506102   2.506102
    14  H    3.114994   2.569904   2.171019   3.071753   2.517316
                   11         12         13         14
    11  C    0.000000
    12  H    1.093126   0.000000
    13  H    1.091893   1.767071   0.000000
    14  H    1.093126   1.765572   1.767071   0.000000
 Stoichiometry    C4H10
 Framework group  C2H[SGH(C4H2),X(H8)]
 Deg. of freedom    11
 Full point group                 C2H     NOp   4
 RotChk:  IX=2 Diff= 2.05D-15
 Largest Abelian subgroup         C2H     NOp   4
 Largest concise Abelian subgroup C2H     NOp   4
                         Standard orientation:                         
 ---------------------------------------------------------------------
 Center     Atomic      Atomic             Coordinates (Angstroms)
 Number     Number       Type             X           Y           Z
 ---------------------------------------------------------------------
      1          6           0       -0.706035    1.820058    0.000000
      2          1           0       -1.721430    2.221559    0.000000
      3          1           0       -0.190734    2.207457   -0.882786
      4          1           0       -0.190734    2.207457    0.882786
      5          6           0       -0.706035    0.292130    0.000000
      6          1           0       -1.247145   -0.077461   -0.877558
      7          1           0       -1.247145   -0.077461    0.877558
      8          6           0        0.706035   -0.292130    0.000000
      9          1           0        1.247145    0.077461   -0.877558
     10          1           0        1.247145    0.077461    0.877558
     11          6           0        0.706035   -1.820058    0.000000
     12          1           0        0.190734   -2.207457   -0.882786
     13          1           0        1.721430   -2.221559    0.000000
     14          1           0        0.190734   -2.207457    0.882786
 ---------------------------------------------------------------------
 Rotational constants (GHZ):          23.3888494           3.6524086           3.4266691
 Leave Link  202 at Wed Aug 12 19:06:34 2026, MaxMem= 12884901888 cpu:               0.3 elap:               0.0
 (Enter /home/falbo/g16/l601.exe)
 Copying SCF densities to generalized density rwf, IOpCl= 0 IROHF=0.

 **********************************************************************

            Population analysis using the SCF Density.

 **********************************************************************

 Orbital symmetries:
       Occupied  (AG) (BU) (BU) (AG) (AG) (BU) (AG) (BU) (AU) (AG)
                 (BU) (BG) (BU) (AU) (AG) (BG) (AG)
       Virtual   (AG) (BU) (BU) (AU) (AG) (AG) (BG) (AG) (BU) (BG)
                 (BU) (AU) (BU) (AG) (AG) (BU) (AU) (BU) (BG) (AU)
                 (AG) (BU) (BG) (BU) (AG) (AG) (BU) (AG) (BU) (AG)
                 (BU) (AU) (AG) (BG) (BU) (AG) (AU) (BU) (BU) (BG)
                 (AG) (AU) (AG) (BG) (AU) (BU) (AG) (BG) (BU) (AG)
                 (BU) (AG) (BU) (AG) (AU) (BU) (AG) (BU) (BG) (AG)
                 (BU) (AU) (AG) (BU) (BG) (AG) (BG) (AU) (BU) (AG)
                 (BG) (AU) (BU) (AG) (BU) (AG) (BU) (AG) (BU)
 The electronic state is 1-AG.
 Alpha  occ. eigenvalues --  -10.56476 -10.56439 -10.55734 -10.55733  -0.90383
 Alpha  occ. eigenvalues --   -0.82651  -0.72437  -0.66617  -0.54818  -0.49944
 Alpha  occ. eigenvalues --   -0.49104  -0.48375  -0.43551  -0.41739  -0.39573
 Alpha  occ. eigenvalues --   -0.38740  -0.38286
 Alpha virt. eigenvalues --    0.06110   0.06513   0.07519   0.08256   0.09439
 Alpha virt. eigenvalues --    0.11216   0.11802   0.11819   0.12605   0.12827
 Alpha virt. eigenvalues --    0.15123   0.15683   0.17552   0.19162   0.20815
 Alpha virt. eigenvalues --    0.23553   0.24528   0.26182   0.26761   0.27483
 Alpha virt. eigenvalues --    0.28799   0.32124   0.33421   0.33841   0.34627
 Alpha virt. eigenvalues --    0.38287   0.40809   0.41107   0.41679   0.67265
 Alpha virt. eigenvalues --    0.68362   0.70065   0.71152   0.72570   0.76619
 Alpha virt. eigenvalues --    0.77206   0.78269   0.80209   0.88497   0.88611
 Alpha virt. eigenvalues --    0.93921   1.00334   1.04066   1.04928   1.06698
 Alpha virt. eigenvalues --    1.08632   1.09915   1.16615   1.19552   1.21073
 Alpha virt. eigenvalues --    1.23376   1.23699   1.43447   1.51498   1.51727
 Alpha virt. eigenvalues --    1.55522   1.71948   1.72603   1.92519   1.98354
 Alpha virt. eigenvalues --    1.99969   2.05755   2.07971   2.11328   2.16614
 Alpha virt. eigenvalues --    2.27318   2.34821   2.39374   2.41408   2.50173
 Alpha virt. eigenvalues --    2.50442   2.51345   2.66110   2.76020   2.82386
 Alpha virt. eigenvalues --    4.23456   4.34635   4.43326   4.58607
          Condensed to atoms (all electrons):
               1          2          3          4          5          6
     1  C    5.721113   0.418740   0.431053   0.431053  -0.084235  -0.032881
     2  H    0.418740   0.494706  -0.026452  -0.026452  -0.087552  -0.002718
     3  H    0.431053  -0.026452   0.498843  -0.031553  -0.078035  -0.004708
     4  H    0.431053  -0.026452  -0.031553   0.498843  -0.078035   0.004222
     5  C   -0.084235  -0.087552  -0.078035  -0.078035   5.901334   0.399676
     6  H   -0.032881  -0.002718  -0.004708   0.004222   0.399676   0.518473
     7  H   -0.032881  -0.002718   0.004222  -0.004708   0.399676  -0.035214
     8  C    0.002654   0.024421  -0.003203  -0.003203  -0.026101  -0.045492
     9  H   -0.010249  -0.000019   0.002915  -0.000414  -0.045492  -0.005539
    10  H   -0.010249  -0.000019  -0.000414   0.002915  -0.045492   0.004625
    11  C   -0.054533  -0.002316  -0.003499  -0.003499   0.002654  -0.010249
    12  H   -0.003499  -0.000000   0.000002  -0.000000  -0.003203   0.002915
    13  H   -0.002316   0.000001  -0.000000  -0.000000   0.024421  -0.000019
    14  H   -0.003499  -0.000000  -0.000000   0.000002  -0.003203  -0.000414
               7          8          9         10         11         12
     1  C   -0.032881   0.002654  -0.010249  -0.010249  -0.054533  -0.003499
     2  H   -0.002718   0.024421  -0.000019  -0.000019  -0.002316  -0.000000
     3  H    0.004222  -0.003203   0.002915  -0.000414  -0.003499   0.000002
     4  H   -0.004708  -0.003203  -0.000414   0.002915  -0.003499  -0.000000
     5  C    0.399676  -0.026101  -0.045492  -0.045492   0.002654  -0.003203
     6  H   -0.035214  -0.045492  -0.005539   0.004625  -0.010249   0.002915
     7  H    0.518473  -0.045492   0.004625  -0.005539  -0.010249  -0.000414
     8  C   -0.045492   5.901334   0.399676   0.399676  -0.084235  -0.078035
     9  H    0.004625   0.399676   0.518473  -0.035214  -0.032881  -0.004708
    10  H   -0.005539   0.399676  -0.035214   0.518473  -0.032881   0.004222
    11  C   -0.010249  -0.084235  -0.032881  -0.032881   5.721113   0.431053
    12  H   -0.000414  -0.078035  -0.004708   0.004222   0.431053   0.498843
    13  H   -0.000019  -0.087552  -0.002718  -0.002718   0.418740  -0.026452
    14  H    0.002915  -0.078035   0.004222  -0.004708   0.431053  -0.031553
              13         14
     1  C   -0.002316  -0.003499
     2  H    0.000001  -0.000000
     3  H   -0.000000  -0.000000
     4  H   -0.000000   0.000002
     5  C    0.024421  -0.003203
     6  H   -0.000019  -0.000414
     7  H   -0.000019   0.002915
     8  C   -0.087552  -0.078035
     9  H   -0.002718   0.004222
    10  H   -0.002718  -0.004708
    11  C    0.418740   0.431053
    12  H   -0.026452  -0.031553
    13  H    0.494706  -0.026452
    14  H   -0.026452   0.498843
 Mulliken charges:
               1
     1  C   -0.770273
     2  H    0.210377
     3  H    0.210830
     4  H    0.210830
     5  C   -0.276411
     6  H    0.207323
     7  H    0.207323
     8  C   -0.276411
     9  H    0.207323
    10  H    0.207323
    11  C   -0.770273
    12  H    0.210830
    13  H    0.210377
    14  H    0.210830
 Sum of Mulliken charges =  -0.00000
 Mulliken charges with hydrogens summed into heavy atoms:
               1
     1  C   -0.138236
     5  C    0.138236
     8  C    0.138236
    11  C   -0.138236
 APT charges:
               1
     1  C    0.064487
     2  H   -0.029788
     3  H   -0.022194
     4  H   -0.022194
     5  C    0.107303
     6  H   -0.048807
     7  H   -0.048807
     8  C    0.107303
     9  H   -0.048807
    10  H   -0.048807
    11  C    0.064487
    12  H   -0.022194
    13  H   -0.029788
    14  H   -0.022194
 Sum of APT charges =   0.00000
 APT charges with hydrogens summed into heavy atoms:
               1
     1  C   -0.009689
     5  C    0.009689
     8  C    0.009689
    11  C   -0.009689
 Electronic spatial extent (au):  <R**2>=            423.4391
 Charge=             -0.0000 electrons
 Dipole moment (field-independent basis, Debye):
    X=             -0.0000    Y=              0.0000    Z=              0.0000  Tot=              0.0000
 Quadrupole moment (field-independent basis, Debye-Ang):
   XX=            -28.6264   YY=            -29.5320   ZZ=            -28.1001
   XY=             -0.0185   XZ=              0.0000   YZ=             -0.0000
 Traceless Quadrupole moment (field-independent basis, Debye-Ang):
   XX=              0.1264   YY=             -0.7791   ZZ=              0.6527
   XY=             -0.0185   XZ=              0.0000   YZ=             -0.0000
 Octapole moment (field-independent basis, Debye-Ang**2):
  XXX=             -0.0000  YYY=              0.0000  ZZZ=             -0.0000  XYY=             -0.0000
  XXY=              0.0000  XXZ=             -0.0000  XZZ=             -0.0000  YZZ=              0.0000
  YYZ=             -0.0000  XYZ=              0.0000
 Hexadecapole moment (field-independent basis, Debye-Ang**3):
 XXXX=           -150.4773 YYYY=           -402.4049 ZZZZ=            -59.2725 XXXY=             63.4489
 XXXZ=              0.0000 YYYX=             69.4488 YYYZ=             -0.0000 ZZZX=              0.0000
 ZZZY=             -0.0000 XXYY=            -88.5554 XXZZ=            -35.3846 YYZZ=            -73.0662
 XXYZ=              0.0000 YYXZ=              0.0000 ZZXY=             25.0587
 N-N= 1.307620299794D+02 E-N=-6.267331758809D+02  KE= 1.568488887895D+02
 Symmetry AG   KE= 7.597606309835D+01
 Symmetry BG   KE= 4.003706076783D+00
 Symmetry AU   KE= 3.807552617946D+00
 Symmetry BU   KE= 7.306156699645D+01
  Exact polarizability:  46.589  -2.567  51.906  -0.000   0.000  43.596
 Approx polarizability:  49.813   0.482  49.324  -0.000   0.000  49.670
 No NMR shielding tensors so no spin-rotation constants.
 Leave Link  601 at Wed Aug 12 19:06:34 2026, MaxMem= 12884901888 cpu:               4.8 elap:               0.1
 (Enter /home/falbo/g16/l716.exe)
 Rotating derivatives to standard orientation.
 Dipole        = 1.47035162D-14-6.55031585D-14 2.83106871D-15
 Polarizability= 4.65887144D+01-2.56717922D+00 5.19057410D+01
                -2.72842406D-08 4.97019670D-09 4.35963924D+01
 Full mass-weighted force constant matrix:
 Low frequencies ---  -21.9288  -15.0644    0.0006    0.0009    0.0009   12.8424
 Low frequencies ---  119.1625  223.0630  258.7479
 Diagonal vibrational polarizability:
        0.6806121       0.4554860       0.8490637
 Harmonic frequencies (cm**-1), IR intensities (KM/Mole), Raman scattering
 activities (A**4/AMU), depolarization ratios for plane and unpolarized
 incident light, reduced masses (AMU), force constants (mDyne/A),
 and normal coordinates:
                      1                      2                      3
                     AU                     AU                     BU
 Frequencies --    119.1625               223.0630               258.7479
 Red. masses --      1.8792                 1.0741                 2.2521
 Frc consts  --      0.0157                 0.0315                 0.0888
 IR Inten    --      0.0175                 0.0005                 0.0057
  Atom  AN      X      Y      Z        X      Y      Z        X      Y      Z
     1   6     0.00  -0.00  -0.13     0.00  -0.00   0.03    -0.15   0.00   0.00
     2   1     0.00  -0.00  -0.03     0.00  -0.00   0.46    -0.27  -0.28  -0.00
     3   1    -0.16  -0.17  -0.30    -0.34   0.06  -0.14    -0.27   0.15  -0.00
     4   1     0.16   0.17  -0.30     0.34  -0.06  -0.14    -0.27   0.15   0.00
     5   6    -0.00  -0.00   0.15    -0.00  -0.00  -0.04     0.18   0.01   0.00
     6   1    -0.06  -0.15   0.24    -0.02   0.03  -0.04     0.22  -0.07   0.01
     7   1     0.06   0.15   0.24     0.02  -0.03  -0.04     0.22  -0.07  -0.01
     8   6     0.00   0.00   0.15     0.00   0.00  -0.04     0.18   0.01  -0.00
     9   1     0.06   0.15   0.24     0.02  -0.03  -0.04     0.22  -0.07  -0.01
    10   1    -0.06  -0.15   0.24    -0.02   0.03  -0.04     0.22  -0.07   0.01
    11   6    -0.00   0.00  -0.13    -0.00   0.00   0.03    -0.15   0.00  -0.00
    12   1     0.16   0.17  -0.30     0.34  -0.06  -0.14    -0.27   0.15   0.00
    13   1    -0.00   0.00  -0.03    -0.00   0.00   0.46    -0.27  -0.28   0.00
    14   1    -0.16  -0.17  -0.30    -0.34   0.06  -0.14    -0.27   0.15  -0.00
                      4                      5                      6
                     BG                     AG                     AU
 Frequencies --    259.4534               429.1567               743.2327
 Red. masses --      1.1212                 2.7184                 1.0701
 Frc consts  --      0.0445                 0.2950                 0.3483
 IR Inten    --      0.0000                 0.0000                 3.2785
  Atom  AN      X      Y      Z        X      Y      Z        X      Y      Z
     1   6    -0.00   0.00  -0.00    -0.11   0.21  -0.00     0.00  -0.00   0.01
     2   1    -0.00  -0.00   0.39    -0.20  -0.02   0.00    -0.00  -0.00  -0.06
     3   1    -0.32   0.05  -0.17    -0.21   0.33  -0.01    -0.04  -0.17  -0.09
     4   1     0.32  -0.05  -0.17    -0.21   0.33   0.01     0.04   0.17  -0.09
     5   6     0.00   0.00  -0.07     0.03   0.15   0.00    -0.00   0.00   0.05
     6   1     0.10   0.04  -0.15    -0.02   0.20   0.01     0.35   0.17  -0.24
     7   1    -0.10  -0.04  -0.15    -0.02   0.20  -0.01    -0.35  -0.17  -0.24
     8   6     0.00   0.00   0.07    -0.03  -0.15   0.00     0.00  -0.00   0.05
     9   1     0.10   0.04   0.15     0.02  -0.20   0.01    -0.35  -0.17  -0.24
    10   1    -0.10  -0.04   0.15     0.02  -0.20  -0.01     0.35   0.17  -0.24
    11   6    -0.00   0.00   0.00     0.11  -0.21  -0.00    -0.00   0.00   0.01
    12   1    -0.32   0.05   0.17     0.21  -0.33  -0.01     0.04   0.17  -0.09
    13   1    -0.00  -0.00  -0.39     0.20   0.02   0.00     0.00   0.00  -0.06
    14   1     0.32  -0.05   0.17     0.21  -0.33   0.01    -0.04  -0.17  -0.09
                      7                      8                      9
                     BG                     AG                     AU
 Frequencies --    822.6375               863.5322               972.8085
 Red. masses --      1.1232                 1.9206                 1.1148
 Frc consts  --      0.4478                 0.8438                 0.6216
 IR Inten    --      0.0000                 0.0000                 1.1826
  Atom  AN      X      Y      Z        X      Y      Z        X      Y      Z
     1   6     0.00  -0.00  -0.04    -0.07   0.10  -0.00    -0.00  -0.00  -0.06
     2   1    -0.00  -0.00   0.16     0.12   0.58   0.00    -0.00  -0.00   0.16
     3   1     0.03   0.33   0.13     0.14  -0.12   0.03     0.03   0.31   0.10
     4   1    -0.03  -0.33   0.13     0.14  -0.12  -0.03    -0.03  -0.31   0.10
     5   6    -0.00   0.00  -0.06    -0.16  -0.04   0.00     0.00   0.00   0.04
     6   1    -0.12  -0.28   0.13    -0.10  -0.11  -0.01     0.27  -0.23  -0.03
     7   1     0.12   0.28   0.13    -0.10  -0.11   0.01    -0.27   0.23  -0.03
     8   6    -0.00   0.00   0.06     0.16   0.04   0.00    -0.00  -0.00   0.04
     9   1    -0.12  -0.28  -0.13     0.10   0.11  -0.01    -0.27   0.23  -0.03
    10   1     0.12   0.28  -0.13     0.10   0.11   0.01     0.27  -0.23  -0.03
    11   6     0.00  -0.00   0.04     0.07  -0.10  -0.00     0.00   0.00  -0.06
    12   1     0.03   0.33  -0.13    -0.14   0.12   0.03    -0.03  -0.31   0.10
    13   1    -0.00  -0.00  -0.16    -0.12  -0.58   0.00     0.00   0.00   0.16
    14   1    -0.03  -0.33  -0.13    -0.14   0.12  -0.03     0.03   0.31   0.10
                     10                     11                     12
                     BU                     BU                     AG
 Frequencies --    993.0023              1047.7855              1093.6199
 Red. masses --      1.2468                 3.0700                 2.1788
 Frc consts  --      0.7244                 1.9858                 1.5354
 IR Inten    --      8.0601                 0.1617                 0.0000
  Atom  AN      X      Y      Z        X      Y      Z        X      Y      Z
     1   6    -0.08   0.06  -0.00    -0.06  -0.19  -0.00    -0.04  -0.12  -0.00
     2   1     0.10   0.49   0.00     0.05   0.07   0.00    -0.00  -0.04   0.00
     3   1     0.14  -0.15   0.04     0.11  -0.39   0.02     0.02  -0.21  -0.00
     4   1     0.14  -0.15  -0.04     0.11  -0.39  -0.02     0.02  -0.21   0.00
     5   6     0.02  -0.03  -0.00     0.03   0.23   0.00    -0.10   0.16   0.00
     6   1     0.15  -0.23   0.00     0.09   0.15  -0.00    -0.23   0.35   0.01
     7   1     0.15  -0.23  -0.00     0.09   0.15   0.00    -0.23   0.35  -0.01
     8   6     0.02  -0.03   0.00     0.03   0.23  -0.00     0.10  -0.16   0.00
     9   1     0.15  -0.23  -0.00     0.09   0.15   0.00     0.23  -0.35   0.01
    10   1     0.15  -0.23   0.00     0.09   0.15  -0.00     0.23  -0.35  -0.01
    11   6    -0.08   0.06   0.00    -0.06  -0.19   0.00     0.04   0.12  -0.00
    12   1     0.14  -0.15  -0.04     0.11  -0.39  -0.02    -0.02   0.21  -0.00
    13   1     0.10   0.49  -0.00     0.05   0.07  -0.00     0.00   0.04   0.00
    14   1     0.14  -0.15   0.04     0.11  -0.39   0.02    -0.02   0.21   0.00
                     13                     14                     15
                     AG                     BG                     AU
 Frequencies --   1191.9185              1228.2530              1306.9441
 Red. masses --      2.0615                 1.7396                 1.2485
 Frc consts  --      1.7255                 1.5462                 1.2565
 IR Inten    --      0.0000                 0.0000                 0.3696
  Atom  AN      X      Y      Z        X      Y      Z        X      Y      Z
     1   6    -0.11  -0.02  -0.00     0.00   0.00  -0.10     0.00   0.00  -0.08
     2   1     0.05   0.36   0.00    -0.00  -0.00   0.19    -0.00  -0.00   0.15
     3   1     0.18  -0.26   0.06     0.06   0.32   0.08     0.06   0.21   0.05
     4   1     0.18  -0.26  -0.06    -0.06  -0.32   0.08    -0.06  -0.21   0.05
     5   6     0.17   0.08   0.00     0.00  -0.00   0.15    -0.00  -0.00   0.06
     6   1     0.23  -0.04   0.01     0.25   0.19  -0.09    -0.13   0.41  -0.02
     7   1     0.23  -0.04  -0.01    -0.25  -0.19  -0.09     0.13  -0.41  -0.02
     8   6    -0.17  -0.08   0.00     0.00  -0.00  -0.15     0.00   0.00   0.06
     9   1    -0.23   0.04   0.01     0.25   0.19   0.09     0.13  -0.41  -0.02
    10   1    -0.23   0.04  -0.01    -0.25  -0.19   0.09    -0.13   0.41  -0.02
    11   6     0.11   0.02  -0.00     0.00   0.00   0.10    -0.00  -0.00  -0.08
    12   1    -0.18   0.26   0.06     0.06   0.32  -0.08    -0.06  -0.21   0.05
    13   1    -0.05  -0.36   0.00    -0.00  -0.00  -0.19     0.00   0.00   0.15
    14   1    -0.18   0.26  -0.06    -0.06  -0.32  -0.08     0.06   0.21   0.05
                     16                     17                     18
                     BU                     BG                     AG
 Frequencies --   1339.0843              1347.6011              1423.5222
 Red. masses --      1.3556                 1.0708                 1.5632
 Frc consts  --      1.4322                 1.1458                 1.8664
 IR Inten    --      0.8160                 0.0000                 0.0000
  Atom  AN      X      Y      Z        X      Y      Z        X      Y      Z
     1   6    -0.06  -0.01   0.00    -0.00  -0.00  -0.03     0.03   0.01   0.00
     2   1     0.04   0.24  -0.00     0.00   0.00   0.02    -0.05  -0.20  -0.00
     3   1     0.07  -0.01   0.07     0.01   0.10   0.01    -0.06  -0.11  -0.10
     4   1     0.07  -0.01  -0.07    -0.01  -0.10   0.01    -0.06  -0.11   0.10
     5   6     0.08  -0.07  -0.00     0.00  -0.00  -0.04    -0.08   0.13   0.00
     6   1    -0.24   0.38   0.01    -0.33   0.36   0.01     0.23  -0.37   0.02
     7   1    -0.24   0.38  -0.01     0.33  -0.36   0.01     0.23  -0.37  -0.02
     8   6     0.08  -0.07   0.00     0.00  -0.00   0.04     0.08  -0.13   0.00
     9   1    -0.24   0.38  -0.01    -0.33   0.36  -0.01    -0.23   0.37   0.02
    10   1    -0.24   0.38   0.01     0.33  -0.36  -0.01    -0.23   0.37  -0.02
    11   6    -0.06  -0.01  -0.00    -0.00  -0.00   0.03    -0.03  -0.01   0.00
    12   1     0.07  -0.01  -0.07     0.01   0.10  -0.01     0.06   0.11  -0.10
    13   1     0.04   0.24   0.00     0.00   0.00  -0.02     0.05   0.20  -0.00
    14   1     0.07  -0.01   0.07    -0.01  -0.10  -0.01     0.06   0.11   0.10
                     19                     20                     21
                     AG                     BU                     AG
 Frequencies --   1445.4317              1447.7290              1526.5994
 Red. masses --      1.3090                 1.2605                 1.0712
 Frc consts  --      1.6113                 1.5565                 1.4709
 IR Inten    --      0.0000                10.5515                 0.0000
  Atom  AN      X      Y      Z        X      Y      Z        X      Y      Z
     1   6    -0.00   0.11   0.00     0.01  -0.10   0.00     0.01   0.01   0.00
     2   1    -0.17  -0.35   0.00     0.17   0.35  -0.00     0.01   0.03  -0.00
     3   1     0.10  -0.35  -0.13    -0.11   0.37   0.13    -0.07  -0.05  -0.07
     4   1     0.10  -0.35   0.13    -0.11   0.37  -0.13    -0.07  -0.05   0.07
     5   6     0.02  -0.05  -0.00    -0.01   0.02  -0.00    -0.05  -0.03   0.00
     6   1    -0.10   0.07   0.02     0.04  -0.05  -0.01     0.31   0.21  -0.30
     7   1    -0.10   0.07  -0.02     0.04  -0.05   0.01     0.31   0.21   0.30
     8   6    -0.02   0.05  -0.00    -0.01   0.02   0.00     0.05   0.03   0.00
     9   1     0.10  -0.07   0.02     0.04  -0.05   0.01    -0.31  -0.21  -0.30
    10   1     0.10  -0.07  -0.02     0.04  -0.05  -0.01    -0.31  -0.21   0.30
    11   6     0.00  -0.11   0.00     0.01  -0.10  -0.00    -0.01  -0.01   0.00
    12   1    -0.10   0.35  -0.13    -0.11   0.37  -0.13     0.07   0.05  -0.07
    13   1     0.17   0.35   0.00     0.17   0.35   0.00    -0.01  -0.03  -0.00
    14   1    -0.10   0.35   0.13    -0.11   0.37   0.13     0.07   0.05   0.07
                     22                     23                     24
                     BU                     BG                     AU
 Frequencies --   1530.0511              1540.2640              1541.5874
 Red. masses --      1.0591                 1.0448                 1.0372
 Frc consts  --      1.4609                 1.4604                 1.4523
 IR Inten    --      2.1483                 0.0000                19.5388
  Atom  AN      X      Y      Z        X      Y      Z        X      Y      Z
     1   6    -0.02  -0.00  -0.00    -0.00   0.00  -0.04     0.00   0.00  -0.03
     2   1    -0.07  -0.16   0.00    -0.00  -0.00   0.50     0.00   0.00   0.50
     3   1     0.24   0.09   0.19     0.27  -0.22   0.04     0.26  -0.23   0.04
     4   1     0.24   0.09  -0.19    -0.27   0.22   0.04    -0.26   0.23   0.04
     5   6     0.03   0.03  -0.00    -0.00  -0.00  -0.02    -0.00  -0.00  -0.01
     6   1    -0.22  -0.18   0.23    -0.02  -0.01   0.00     0.01  -0.05  -0.00
     7   1    -0.22  -0.18  -0.23     0.02   0.01   0.00    -0.01   0.05  -0.00
     8   6     0.03   0.03   0.00    -0.00  -0.00   0.02     0.00   0.00  -0.01
     9   1    -0.22  -0.18  -0.23    -0.02  -0.01  -0.00    -0.01   0.05  -0.00
    10   1    -0.22  -0.18   0.23     0.02   0.01  -0.00     0.01  -0.05  -0.00
    11   6    -0.02  -0.00   0.00    -0.00   0.00   0.04    -0.00  -0.00  -0.03
    12   1     0.24   0.09  -0.19     0.27  -0.22  -0.04    -0.26   0.23   0.04
    13   1    -0.07  -0.16  -0.00    -0.00  -0.00  -0.50    -0.00  -0.00   0.50
    14   1     0.24   0.09   0.19    -0.27   0.22  -0.04     0.26  -0.23   0.04
                     25                     26                     27
                     AG                     BU                     AG
 Frequencies --   1545.0450              1548.6803              3083.9702
 Red. masses --      1.0612                 1.0808                 1.0589
 Frc consts  --      1.4926                 1.5272                 5.9339
 IR Inten    --      0.0000                12.7744                 0.0000
  Atom  AN      X      Y      Z        X      Y      Z        X      Y      Z
     1   6    -0.03  -0.00  -0.00    -0.03   0.00   0.00     0.00  -0.00   0.00
     2   1    -0.12  -0.25   0.00    -0.09  -0.17  -0.00    -0.07   0.02   0.00
     3   1     0.34   0.12   0.26     0.26   0.10   0.20     0.01   0.00  -0.01
     4   1     0.34   0.12  -0.26     0.26   0.10  -0.20     0.01   0.00   0.01
     5   6    -0.03   0.01  -0.00    -0.04  -0.02   0.00    -0.04  -0.03  -0.00
     6   1     0.08  -0.00  -0.06     0.22   0.13  -0.21     0.24   0.16   0.41
     7   1     0.08  -0.00   0.06     0.22   0.13   0.21     0.24   0.16  -0.41
     8   6     0.03  -0.01  -0.00    -0.04  -0.02  -0.00     0.04   0.03  -0.00
     9   1    -0.08   0.00  -0.06     0.22   0.13   0.21    -0.24  -0.16   0.41
    10   1    -0.08   0.00   0.06     0.22   0.13  -0.21    -0.24  -0.16  -0.41
    11   6     0.03   0.00  -0.00    -0.03   0.00  -0.00    -0.00   0.00   0.00
    12   1    -0.34  -0.12   0.26     0.26   0.10  -0.20    -0.01  -0.00  -0.01
    13   1     0.12   0.25   0.00    -0.09  -0.17   0.00     0.07  -0.02   0.00
    14   1    -0.34  -0.12  -0.26     0.26   0.10   0.20    -0.01  -0.00   0.01
                     28                     29                     30
                     BU                     BU                     AG
 Frequencies --   3091.4551              3101.0443              3101.9129
 Red. masses --      1.0596                 1.0359                 1.0362
 Frc consts  --      5.9664                 5.8693                 5.8745
 IR Inten    --     53.2372                81.2225                 0.0000
  Atom  AN      X      Y      Z        X      Y      Z        X      Y      Z
     1   6     0.01   0.01   0.00     0.00   0.03   0.00     0.01   0.03   0.00
     2   1     0.01  -0.00   0.00     0.33  -0.12   0.00     0.32  -0.12   0.00
     3   1    -0.05  -0.04   0.09    -0.20  -0.14   0.34    -0.21  -0.15   0.36
     4   1    -0.05  -0.04  -0.09    -0.20  -0.14  -0.34    -0.21  -0.15  -0.36
     5   6    -0.04  -0.03  -0.00     0.01   0.00  -0.00    -0.00  -0.00  -0.00
     6   1     0.23   0.16   0.40    -0.05  -0.03  -0.08     0.02   0.01   0.03
     7   1     0.23   0.16  -0.40    -0.05  -0.03   0.08     0.02   0.01  -0.03
     8   6    -0.04  -0.03   0.00     0.01   0.00   0.00     0.00   0.00  -0.00
     9   1     0.23   0.16  -0.40    -0.05  -0.03   0.08    -0.02  -0.01   0.03
    10   1     0.23   0.16   0.40    -0.05  -0.03  -0.08    -0.02  -0.01  -0.03
    11   6     0.01   0.01  -0.00     0.00   0.03  -0.00    -0.01  -0.03   0.00
    12   1    -0.05  -0.04  -0.09    -0.20  -0.14  -0.34     0.21   0.15   0.36
    13   1     0.01  -0.00  -0.00     0.33  -0.12  -0.00    -0.32   0.12   0.00
    14   1    -0.05  -0.04   0.09    -0.20  -0.14   0.34     0.21   0.15  -0.36
                     31                     32                     33
                     BG                     AU                     BG
 Frequencies --   3104.4700              3127.1704              3161.5317
 Red. masses --      1.1018                 1.1053                 1.1033
 Frc consts  --      6.2565                 6.3682                 6.4972
 IR Inten    --      0.0000                23.9619                 0.0000
  Atom  AN      X      Y      Z        X      Y      Z        X      Y      Z
     1   6    -0.00  -0.00   0.01     0.00  -0.00   0.03    -0.00  -0.00  -0.06
     2   1    -0.00   0.00   0.00    -0.00   0.00   0.01     0.00  -0.00  -0.01
     3   1     0.05   0.03  -0.08     0.10   0.07  -0.16    -0.24  -0.17   0.39
     4   1    -0.05  -0.03  -0.08    -0.10  -0.07  -0.16     0.24   0.17   0.39
     5   6     0.00   0.00  -0.06     0.00   0.00  -0.06    -0.00   0.00  -0.01
     6   1     0.24   0.17   0.39     0.23   0.15   0.37     0.04   0.03   0.08
     7   1    -0.24  -0.17   0.39    -0.23  -0.15   0.37    -0.04  -0.03   0.08
     8   6     0.00   0.00   0.06    -0.00  -0.00  -0.06    -0.00   0.00   0.01
     9   1     0.24   0.17  -0.39    -0.23  -0.15   0.37     0.04   0.03  -0.08
    10   1    -0.24  -0.17  -0.39     0.23   0.15   0.37    -0.04  -0.03  -0.08
    11   6    -0.00  -0.00  -0.01    -0.00   0.00   0.03    -0.00  -0.00   0.06
    12   1     0.05   0.03   0.08    -0.10  -0.07  -0.16    -0.24  -0.17  -0.39
    13   1    -0.00   0.00  -0.00     0.00  -0.00   0.01     0.00  -0.00   0.01
    14   1    -0.05  -0.03   0.08     0.10   0.07  -0.16     0.24   0.17  -0.39
                     34                     35                     36
                     AU                     AG                     BU
 Frequencies --   3165.1229              3171.6647              3172.1811
 Red. masses --      1.1029                 1.1018                 1.1016
 Frc consts  --      6.5100                 6.5303                 6.5311
 IR Inten    --    122.5568                 0.0000                81.1103
  Atom  AN      X      Y      Z        X      Y      Z        X      Y      Z
     1   6     0.00  -0.00  -0.06    -0.07   0.01  -0.00    -0.06   0.00   0.00
     2   1    -0.00   0.00  -0.01     0.57  -0.22  -0.00     0.57  -0.22   0.00
     3   1    -0.22  -0.16   0.37     0.10   0.08  -0.20     0.10   0.09  -0.20
     4   1     0.22   0.16   0.37     0.10   0.08   0.20     0.10   0.09   0.20
     5   6     0.00  -0.00  -0.03    -0.00  -0.00  -0.00    -0.00  -0.00   0.00
     6   1     0.10   0.07   0.16     0.02   0.01   0.03     0.02   0.02   0.04
     7   1    -0.10  -0.07   0.16     0.02   0.01  -0.03     0.02   0.02  -0.04
     8   6    -0.00   0.00  -0.03     0.00   0.00  -0.00    -0.00  -0.00  -0.00
     9   1    -0.10  -0.07   0.16    -0.02  -0.01   0.03     0.02   0.02  -0.04
    10   1     0.10   0.07   0.16    -0.02  -0.01  -0.03     0.02   0.02   0.04
    11   6    -0.00   0.00  -0.06     0.07  -0.01  -0.00    -0.06   0.00  -0.00
    12   1     0.22   0.16   0.37    -0.10  -0.08  -0.20     0.10   0.09   0.20
    13   1     0.00  -0.00  -0.01    -0.57   0.22  -0.00     0.57  -0.22  -0.00
    14   1    -0.22  -0.16   0.37    -0.10  -0.08   0.20     0.10   0.09  -0.20

 -------------------
 - Thermochemistry -
 -------------------
 Temperature   298.150 Kelvin.  Pressure   1.00000 Atm.
 Atom     1 has atomic number  6 and mass  12.00000
 Atom     2 has atomic number  1 and mass   1.00783
 Atom     3 has atomic number  1 and mass   1.00783
 Atom     4 has atomic number  1 and mass   1.00783
 Atom     5 has atomic number  6 and mass  12.00000
 Atom     6 has atomic number  1 and mass   1.00783
 Atom     7 has atomic number  1 and mass   1.00783
 Atom     8 has atomic number  6 and mass  12.00000
 Atom     9 has atomic number  1 and mass   1.00783
 Atom    10 has atomic number  1 and mass   1.00783
 Atom    11 has atomic number  6 and mass  12.00000
 Atom    12 has atomic number  1 and mass   1.00783
 Atom    13 has atomic number  1 and mass   1.00783
 Atom    14 has atomic number  1 and mass   1.00783
 Molecular mass:    58.07825 amu.
 Principal axes and moments of inertia in atomic units:
                           1         2         3
     Eigenvalues --    77.16246 494.12358 526.67507
           X           -0.42364   0.90583   0.00000
           Y            0.90583   0.42364   0.00000
           Z            0.00000   0.00000   1.00000
 This molecule is an asymmetric top.
 Rotational symmetry number  2.
 Rotational temperatures (Kelvin)      1.12249     0.17529     0.16445
 Rotational constants (GHZ):          23.38885     3.65241     3.42667
 Zero-point vibrational energy     353313.7 (Joules/Mol)
                                   84.44400 (Kcal/Mol)
 Warning -- explicit consideration of   5 degrees of freedom as
           vibrations may cause significant error
 Vibrational temperatures:    171.45   320.94   372.28   373.30   617.46
          (Kelvin)           1069.35  1183.59  1242.43  1399.65  1428.71
                             1507.53  1573.48  1714.90  1767.18  1880.40
                             1926.64  1938.90  2048.13  2079.65  2082.96
                             2196.44  2201.40  2216.10  2218.00  2222.98
                             2228.21  4437.15  4447.91  4461.71  4462.96
                             4466.64  4499.30  4548.74  4553.91  4563.32
                             4564.06
 
 Zero-point correction=                           0.134570 (Hartree/Particle)
 Thermal correction to Energy=                    0.140328
 Thermal correction to Enthalpy=                  0.141272
 Thermal correction to Gibbs Free Energy=         0.107212
 Sum of electronic and zero-point Energies=           -158.284155
 Sum of electronic and thermal Energies=              -158.278397
 Sum of electronic and thermal Enthalpies=            -158.277453
 Sum of electronic and thermal Free Energies=         -158.311513
 
                     E (Thermal)             CV                S
                      KCal/Mol        Cal/Mol-Kelvin    Cal/Mol-Kelvin
 Total                   88.057             19.393             71.685
 Electronic               0.000              0.000              0.000
 Translational            0.889              2.981             38.098
 Rotational               0.889              2.981             23.133
 Vibrational             86.280             13.432             10.454
 Vibration     1          0.609              1.933              3.114
 Vibration     2          0.649              1.806              1.934
 Vibration     3          0.668              1.748              1.670
 Vibration     4          0.668              1.747              1.665
 Vibration     5          0.791              1.407              0.861
                       Q            Log10(Q)             Ln(Q)
 Total Bot       0.485235D-49        -49.314048       -113.549792
 Total V=0       0.383563D+13         12.583836         28.975354
 Vib (Bot)       0.109969D-60        -60.958730       -140.362663
 Vib (Bot)    1  0.171528D+01          0.234334          0.539575
 Vib (Bot)    2  0.885615D+00         -0.052755         -0.121473
 Vib (Bot)    3  0.751120D+00         -0.124290         -0.286189
 Vib (Bot)    4  0.748819D+00         -0.125623         -0.289258
 Vib (Bot)    5  0.406269D+00         -0.391186         -0.900740
 Vib (V=0)       0.869269D+01          0.939154          2.162483
 Vib (V=0)    1  0.228667D+01          0.359203          0.827095
 Vib (V=0)    2  0.151701D+01          0.180989          0.416743
 Vib (V=0)    3  0.140232D+01          0.146847          0.338128
 Vib (V=0)    4  0.140041D+01          0.146254          0.336762
 Vib (V=0)    5  0.114425D+01          0.058520          0.134747
 Electronic      0.100000D+01          0.000000          0.000000
 Translational   0.173970D+08          7.240474         16.671808
 Rotational      0.253634D+05          4.404208         10.141063
                           ----------------------------
                           ! Normal Mode     1        !
 --------------------------                            --------------------------
 ! Name  Definition              Value          Relative Weight (%)             !
 --------------------------------------------------------------------------------
 ! D1    D(2,1,5,6)              0.0596                  2.1                    !
 ! D2    D(2,1,5,7)              0.0596                  2.1                    !
 ! D3    D(2,1,5,8)              0.0526                  1.8                    !
 ! D4    D(3,1,5,6)              0.0623                  2.2                    !
 ! D5    D(3,1,5,7)              0.0623                  2.2                    !
 ! D6    D(3,1,5,8)              0.0553                  1.9                    !
 ! D7    D(4,1,5,6)              0.0623                  2.2                    !
 ! D8    D(4,1,5,7)              0.0623                  2.2                    !
 ! D9    D(4,1,5,8)              0.0553                  1.9                    !
 ! D10   D(1,5,8,9)              0.2008                  6.9                    !
 ! D11   D(1,5,8,10)             0.2008                  6.9                    !
 ! D12   D(1,5,8,11)             0.2109                  7.3                    !
 ! D13   D(6,5,8,9)              0.1908                  6.6                    !
 ! D14   D(6,5,8,10)             0.1908                  6.6                    !
 ! D15   D(6,5,8,11)             0.2008                  6.9                    !
 ! D16   D(7,5,8,9)              0.1908                  6.6                    !
 ! D17   D(7,5,8,10)             0.1908                  6.6                    !
 ! D18   D(7,5,8,11)             0.2008                  6.9                    !
 ! D19   D(5,8,11,12)            0.0553                  1.9                    !
 ! D20   D(5,8,11,13)            0.0526                  1.8                    !
 ! D21   D(5,8,11,14)            0.0553                  1.9                    !
 ! D22   D(9,8,11,12)            0.0623                  2.2                    !
 ! D23   D(9,8,11,13)            0.0596                  2.1                    !
 ! D24   D(9,8,11,14)            0.0623                  2.2                    !
 ! D25   D(10,8,11,12)           0.0623                  2.2                    !
 ! D26   D(10,8,11,13)           0.0596                  2.1                    !
 ! D27   D(10,8,11,14)           0.0623                  2.2                    !
 --------------------------------------------------------------------------------
                           ----------------------------
                           ! Normal Mode     2        !
 --------------------------                            --------------------------
 ! Name  Definition              Value          Relative Weight (%)             !
 --------------------------------------------------------------------------------
 ! D1    D(2,1,5,6)              0.1967                  4.9                    !
 ! D2    D(2,1,5,7)              0.1967                  4.9                    !
 ! D3    D(2,1,5,8)              0.2206                  5.5                    !
 ! D4    D(3,1,5,6)              0.1913                  4.7                    !
 ! D5    D(3,1,5,7)              0.1913                  4.7                    !
 ! D6    D(3,1,5,8)              0.2151                  5.3                    !
 ! D7    D(4,1,5,6)              0.1913                  4.7                    !
 ! D8    D(4,1,5,7)              0.1913                  4.7                    !
 ! D9    D(4,1,5,8)              0.2151                  5.3                    !
 ! D12   D(1,5,8,11)            -0.0579                  1.4                    !
 ! D19   D(5,8,11,12)            0.2151                  5.3                    !
 ! D20   D(5,8,11,13)            0.2206                  5.5                    !
 ! D21   D(5,8,11,14)            0.2151                  5.3                    !
 ! D22   D(9,8,11,12)            0.1913                  4.7                    !
 ! D23   D(9,8,11,13)            0.1967                  4.9                    !
 ! D24   D(9,8,11,14)            0.1913                  4.7                    !
 ! D25   D(10,8,11,12)           0.1913                  4.7                    !
 ! D26   D(10,8,11,13)           0.1967                  4.9                    !
 ! D27   D(10,8,11,14)           0.1913                  4.7                    !
 --------------------------------------------------------------------------------
                           ----------------------------
                           ! Normal Mode     3        !
 --------------------------                            --------------------------
 ! Name  Definition              Value          Relative Weight (%)             !
 --------------------------------------------------------------------------------
 ! A3    A(2,1,5)               -0.0322                  2.7                    !
 ! A5    A(3,1,5)                0.0164                  1.4                    !
 ! A6    A(4,1,5)                0.0164                  1.4                    !
 ! A7    A(1,5,6)               -0.0201                  1.7                    !
 ! A8    A(1,5,7)               -0.0201                  1.7                    !
 ! A9    A(1,5,8)                0.116                   9.8                    !
 ! A10   A(6,5,7)               -0.0154                  1.3                    !
 ! A11   A(6,5,8)               -0.0338                  2.9                    !
 ! A12   A(7,5,8)               -0.0338                  2.9                    !
 ! A13   A(5,8,9)                0.0338                  2.9                    !
 ! A14   A(5,8,10)               0.0338                  2.9                    !
 ! A15   A(5,8,11)              -0.116                   9.8                    !
 ! A16   A(9,8,10)               0.0154                  1.3                    !
 ! A17   A(9,8,11)               0.0201                  1.7                    !
 ! A18   A(10,8,11)              0.0201                  1.7                    !
 ! A19   A(8,11,12)             -0.0164                  1.4                    !
 ! A20   A(8,11,13)              0.0322                  2.7                    !
 ! A21   A(8,11,14)             -0.0164                  1.4                    !
 ! D1    D(2,1,5,6)             -0.021                   1.8                    !
 ! D2    D(2,1,5,7)              0.021                   1.8                    !
 ! D5    D(3,1,5,7)              0.0351                  3.0                    !
 ! D6    D(3,1,5,8)              0.014                   1.2                    !
 ! D7    D(4,1,5,6)             -0.0351                  3.0                    !
 ! D9    D(4,1,5,8)             -0.0141                  1.2                    !
 ! D10   D(1,5,8,9)             -0.0279                  2.4                    !
 ! D11   D(1,5,8,10)             0.0279                  2.4                    !
 ! D14   D(6,5,8,10)             0.0559                  4.7                    !
 ! D15   D(6,5,8,11)             0.0279                  2.4                    !
 ! D16   D(7,5,8,9)             -0.0559                  4.7                    !
 ! D18   D(7,5,8,11)            -0.0279                  2.4                    !
 ! D19   D(5,8,11,12)           -0.014                   1.2                    !
 ! D21   D(5,8,11,14)            0.0141                  1.2                    !
 ! D23   D(9,8,11,13)            0.021                   1.8                    !
 ! D24   D(9,8,11,14)            0.0351                  3.0                    !
 ! D25   D(10,8,11,12)          -0.0351                  3.0                    !
 ! D26   D(10,8,11,13)          -0.021                   1.8                    !
 --------------------------------------------------------------------------------
                           ----------------------------
                           ! Normal Mode     4        !
 --------------------------                            --------------------------
 ! Name  Definition              Value          Relative Weight (%)             !
 --------------------------------------------------------------------------------
 ! D1    D(2,1,5,6)              0.2575                  5.5                    !
 ! D2    D(2,1,5,7)              0.2575                  5.5                    !
 ! D3    D(2,1,5,8)              0.2599                  5.6                    !
 ! D4    D(3,1,5,6)              0.254                   5.5                    !
 ! D5    D(3,1,5,7)              0.254                   5.5                    !
 ! D6    D(3,1,5,8)              0.2564                  5.5                    !
 ! D7    D(4,1,5,6)              0.254                   5.5                    !
 ! D8    D(4,1,5,7)              0.254                   5.5                    !
 ! D9    D(4,1,5,8)              0.2564                  5.5                    !
 ! D19   D(5,8,11,12)           -0.2564                  5.5                    !
 ! D20   D(5,8,11,13)           -0.2599                  5.6                    !
 ! D21   D(5,8,11,14)           -0.2564                  5.5                    !
 ! D22   D(9,8,11,12)           -0.254                   5.5                    !
 ! D23   D(9,8,11,13)           -0.2575                  5.5                    !
 ! D24   D(9,8,11,14)           -0.254                   5.5                    !
 ! D25   D(10,8,11,12)          -0.254                   5.5                    !
 ! D26   D(10,8,11,13)          -0.2575                  5.5                    !
 ! D27   D(10,8,11,14)          -0.254                   5.5                    !
 --------------------------------------------------------------------------------
                           ----------------------------
                           ! Normal Mode     5        !
 --------------------------                            --------------------------
 ! Name  Definition              Value          Relative Weight (%)             !
 --------------------------------------------------------------------------------
 ! R4    R(1,5)                  0.0597                  3.1                    !
 ! R7    R(5,8)                  0.0532                  2.8                    !
 ! R10   R(8,11)                 0.0597                  3.1                    !
 ! A3    A(2,1,5)               -0.0714                  3.7                    !
 ! A5    A(3,1,5)                0.0364                  1.9                    !
 ! A6    A(4,1,5)                0.0364                  1.9                    !
 ! A7    A(1,5,6)               -0.0535                  2.8                    !
 ! A8    A(1,5,7)               -0.0535                  2.8                    !
 ! A9    A(1,5,8)                0.152                   7.9                    !
 ! A10   A(6,5,7)               -0.0177                  0.9                    !
 ! A11   A(6,5,8)               -0.0181                  0.9                    !
 ! A12   A(7,5,8)               -0.0181                  0.9                    !
 ! A13   A(5,8,9)               -0.0181                  0.9                    !
 ! A14   A(5,8,10)              -0.0181                  0.9                    !
 ! A15   A(5,8,11)               0.152                   7.9                    !
 ! A16   A(9,8,10)              -0.0177                  0.9                    !
 ! A17   A(9,8,11)              -0.0535                  2.8                    !
 ! A18   A(10,8,11)             -0.0535                  2.8                    !
 ! A19   A(8,11,12)              0.0364                  1.9                    !
 ! A20   A(8,11,13)             -0.0714                  3.7                    !
 ! A21   A(8,11,14)              0.0364                  1.9                    !
 ! D1    D(2,1,5,6)             -0.0418                  2.2                    !
 ! D2    D(2,1,5,7)              0.0418                  2.2                    !
 ! D5    D(3,1,5,7)              0.0723                  3.7                    !
 ! D6    D(3,1,5,8)              0.0305                  1.6                    !
 ! D7    D(4,1,5,6)             -0.0723                  3.7                    !
 ! D9    D(4,1,5,8)             -0.0305                  1.6                    !
 ! D10   D(1,5,8,9)              0.0206                  1.1                    !
 ! D11   D(1,5,8,10)            -0.0206                  1.1                    !
 ! D13   D(6,5,8,9)              0.0412                  2.1                    !
 ! D15   D(6,5,8,11)             0.0206                  1.1                    !
 ! D17   D(7,5,8,10)            -0.0412                  2.1                    !
 ! D18   D(7,5,8,11)            -0.0206                  1.1                    !
 ! D19   D(5,8,11,12)            0.0305                  1.6                    !
 ! D21   D(5,8,11,14)           -0.0305                  1.6                    !
 ! D23   D(9,8,11,13)           -0.0418                  2.2                    !
 ! D24   D(9,8,11,14)           -0.0723                  3.7                    !
 ! D25   D(10,8,11,12)           0.0723                  3.7                    !
 ! D26   D(10,8,11,13)           0.0418                  2.2                    !
 --------------------------------------------------------------------------------
                           ----------------------------
                           ! Normal Mode     6        !
 --------------------------                            --------------------------
 ! Name  Definition              Value          Relative Weight (%)             !
 --------------------------------------------------------------------------------
 ! A7    A(1,5,6)               -0.1033                  1.5                    !
 ! A8    A(1,5,7)                0.1033                  1.5                    !
 ! A11   A(6,5,8)               -0.1296                  1.9                    !
 ! A12   A(7,5,8)                0.1296                  1.9                    !
 ! A13   A(5,8,9)               -0.1296                  1.9                    !
 ! A14   A(5,8,10)               0.1296                  1.9                    !
 ! A17   A(9,8,11)              -0.1033                  1.5                    !
 ! A18   A(10,8,11)              0.1033                  1.5                    !
 ! D1    D(2,1,5,6)              0.2025                  2.9                    !
 ! D2    D(2,1,5,7)              0.2025                  2.9                    !
 ! D4    D(3,1,5,6)              0.2725                  3.9                    !
 ! D5    D(3,1,5,7)              0.2725                  3.9                    !
 ! D7    D(4,1,5,6)              0.2725                  3.9                    !
 ! D8    D(4,1,5,7)              0.2725                  3.9                    !
 ! D10   D(1,5,8,9)             -0.1893                  2.7                    !
 ! D11   D(1,5,8,10)            -0.1893                  2.7                    !
 ! D13   D(6,5,8,9)             -0.4119                  5.9                    !
 ! D14   D(6,5,8,10)            -0.4119                  5.9                    !
 ! D15   D(6,5,8,11)            -0.1893                  2.7                    !
 ! D16   D(7,5,8,9)             -0.4119                  5.9                    !
 ! D17   D(7,5,8,10)            -0.4119                  5.9                    !
 ! D18   D(7,5,8,11)            -0.1893                  2.7                    !
 ! D22   D(9,8,11,12)            0.2725                  3.9                    !
 ! D23   D(9,8,11,13)            0.2025                  2.9                    !
 ! D24   D(9,8,11,14)            0.2725                  3.9                    !
 ! D25   D(10,8,11,12)           0.2725                  3.9                    !
 ! D26   D(10,8,11,13)           0.2025                  2.9                    !
 ! D27   D(10,8,11,14)           0.2725                  3.9                    !
 --------------------------------------------------------------------------------
                           ----------------------------
                           ! Normal Mode     7        !
 --------------------------                            --------------------------
 ! Name  Definition              Value          Relative Weight (%)             !
 --------------------------------------------------------------------------------
 ! A5    A(3,1,5)                0.1613                  3.9                    !
 ! A6    A(4,1,5)               -0.1613                  3.9                    !
 ! A7    A(1,5,6)                0.152                   3.7                    !
 ! A8    A(1,5,7)               -0.152                   3.7                    !
 ! A17   A(9,8,11)              -0.152                   3.7                    !
 ! A18   A(10,8,11)              0.152                   3.7                    !
 ! A19   A(8,11,12)             -0.1613                  3.9                    !
 ! A21   A(8,11,14)              0.1613                  3.9                    !
 ! D3    D(2,1,5,8)              0.1493                  3.6                    !
 ! D4    D(3,1,5,6)             -0.1612                  3.9                    !
 ! D5    D(3,1,5,7)             -0.1612                  3.9                    !
 ! D7    D(4,1,5,6)             -0.1612                  3.9                    !
 ! D8    D(4,1,5,7)             -0.1612                  3.9                    !
 ! D10   D(1,5,8,9)             -0.2224                  5.4                    !
 ! D11   D(1,5,8,10)            -0.2224                  5.4                    !
 ! D15   D(6,5,8,11)             0.2224                  5.4                    !
 ! D18   D(7,5,8,11)             0.2224                  5.4                    !
 ! D20   D(5,8,11,13)           -0.1493                  3.6                    !
 ! D22   D(9,8,11,12)            0.1612                  3.9                    !
 ! D24   D(9,8,11,14)            0.1612                  3.9                    !
 ! D25   D(10,8,11,12)           0.1612                  3.9                    !
 ! D27   D(10,8,11,14)           0.1612                  3.9                    !
 --------------------------------------------------------------------------------
                           ----------------------------
                           ! Normal Mode     8        !
 --------------------------                            --------------------------
 ! Name  Definition              Value          Relative Weight (%)             !
 --------------------------------------------------------------------------------
 ! R4    R(1,5)                  0.1373                  4.2                    !
 ! R7    R(5,8)                  0.2635                  8.1                    !
 ! R10   R(8,11)                 0.1373                  4.2                    !
 ! A3    A(2,1,5)                0.2184                  6.7                    !
 ! A4    A(3,1,4)               -0.0464                  1.4                    !
 ! A5    A(3,1,5)               -0.0983                  3.0                    !
 ! A6    A(4,1,5)               -0.0983                  3.0                    !
 ! A7    A(1,5,6)                0.0527                  1.6                    !
 ! A8    A(1,5,7)                0.0527                  1.6                    !
 ! A9    A(1,5,8)               -0.0956                  2.9                    !
 ! A15   A(5,8,11)              -0.0956                  2.9                    !
 ! A17   A(9,8,11)               0.0527                  1.6                    !
 ! A18   A(10,8,11)              0.0527                  1.6                    !
 ! A19   A(8,11,12)             -0.0983                  3.0                    !
 ! A20   A(8,11,13)              0.2184                  6.7                    !
 ! A21   A(8,11,14)             -0.0983                  3.0                    !
 ! A23   A(12,11,14)            -0.0464                  1.4                    !
 ! D4    D(3,1,5,6)             -0.0556                  1.7                    !
 ! D5    D(3,1,5,7)             -0.1302                  4.0                    !
 ! D6    D(3,1,5,8)             -0.0929                  2.9                    !
 ! D7    D(4,1,5,6)              0.1302                  4.0                    !
 ! D8    D(4,1,5,7)              0.0556                  1.7                    !
 ! D9    D(4,1,5,8)              0.0929                  2.9                    !
 ! D19   D(5,8,11,12)           -0.0929                  2.9                    !
 ! D21   D(5,8,11,14)            0.0929                  2.9                    !
 ! D22   D(9,8,11,12)           -0.0556                  1.7                    !
 ! D24   D(9,8,11,14)            0.1302                  4.0                    !
 ! D25   D(10,8,11,12)          -0.1302                  4.0                    !
 ! D27   D(10,8,11,14)           0.0556                  1.7                    !
 --------------------------------------------------------------------------------
                           ----------------------------
                           ! Normal Mode     9        !
 --------------------------                            --------------------------
 ! Name  Definition              Value          Relative Weight (%)             !
 --------------------------------------------------------------------------------
 ! A5    A(3,1,5)                0.1917                  4.0                    !
 ! A6    A(4,1,5)               -0.1917                  4.0                    !
 ! A7    A(1,5,6)                0.0896                  1.9                    !
 ! A8    A(1,5,7)               -0.0896                  1.9                    !
 ! A11   A(6,5,8)               -0.1723                  3.6                    !
 ! A12   A(7,5,8)                0.1723                  3.6                    !
 ! A13   A(5,8,9)               -0.1723                  3.6                    !
 ! A14   A(5,8,10)               0.1723                  3.6                    !
 ! A17   A(9,8,11)               0.0896                  1.9                    !
 ! A18   A(10,8,11)             -0.0896                  1.9                    !
 ! A19   A(8,11,12)              0.1917                  4.0                    !
 ! A21   A(8,11,14)             -0.1917                  4.0                    !
 ! D1    D(2,1,5,6)              0.2697                  5.6                    !
 ! D2    D(2,1,5,7)              0.2697                  5.6                    !
 ! D3    D(2,1,5,8)              0.1132                  2.3                    !
 ! D4    D(3,1,5,6)              0.0841                  1.7                    !
 ! D5    D(3,1,5,7)              0.0841                  1.7                    !
 ! D6    D(3,1,5,8)             -0.0724                  1.5                    !
 ! D7    D(4,1,5,6)              0.0841                  1.7                    !
 ! D8    D(4,1,5,7)              0.0841                  1.7                    !
 ! D9    D(4,1,5,8)             -0.0724                  1.5                    !
 ! D10   D(1,5,8,9)              0.0643                  1.3                    !
 ! D11   D(1,5,8,10)             0.0643                  1.3                    !
 ! D12   D(1,5,8,11)             0.0717                  1.5                    !
 ! D15   D(6,5,8,11)             0.0643                  1.3                    !
 ! D18   D(7,5,8,11)             0.0643                  1.3                    !
 ! D19   D(5,8,11,12)           -0.0724                  1.5                    !
 ! D20   D(5,8,11,13)            0.1132                  2.3                    !
 ! D21   D(5,8,11,14)           -0.0724                  1.5                    !
 ! D22   D(9,8,11,12)            0.0841                  1.7                    !
 ! D23   D(9,8,11,13)            0.2697                  5.6                    !
 ! D24   D(9,8,11,14)            0.0841                  1.7                    !
 ! D25   D(10,8,11,12)           0.0841                  1.7                    !
 ! D26   D(10,8,11,13)           0.2697                  5.6                    !
 ! D27   D(10,8,11,14)           0.0841                  1.7                    !
 --------------------------------------------------------------------------------
                           ----------------------------
                           ! Normal Mode    10        !
 --------------------------                            --------------------------
 ! Name  Definition              Value          Relative Weight (%)             !
 --------------------------------------------------------------------------------
 ! R4    R(1,5)                  0.089                   2.1                    !
 ! R10   R(8,11)                -0.089                   2.1                    !
 ! A3    A(2,1,5)                0.2624                  6.0                    !
 ! A4    A(3,1,4)               -0.0634                  1.5                    !
 ! A5    A(3,1,5)               -0.1248                  2.9                    !
 ! A6    A(4,1,5)               -0.1248                  2.9                    !
 ! A7    A(1,5,6)                0.0822                  1.9                    !
 ! A8    A(1,5,7)                0.0822                  1.9                    !
 ! A11   A(6,5,8)               -0.0979                  2.3                    !
 ! A12   A(7,5,8)               -0.0979                  2.3                    !
 ! A13   A(5,8,9)                0.0979                  2.3                    !
 ! A14   A(5,8,10)               0.0979                  2.3                    !
 ! A17   A(9,8,11)              -0.0822                  1.9                    !
 ! A18   A(10,8,11)             -0.0822                  1.9                    !
 ! A19   A(8,11,12)              0.1248                  2.9                    !
 ! A20   A(8,11,13)             -0.2624                  6.0                    !
 ! A21   A(8,11,14)              0.1248                  2.9                    !
 ! A23   A(12,11,14)             0.0634                  1.5                    !
 ! D4    D(3,1,5,6)             -0.0774                  1.8                    !
 ! D5    D(3,1,5,7)             -0.1641                  3.8                    !
 ! D6    D(3,1,5,8)             -0.1207                  2.8                    !
 ! D7    D(4,1,5,6)              0.1641                  3.8                    !
 ! D8    D(4,1,5,7)              0.0774                  1.8                    !
 ! D9    D(4,1,5,8)              0.1207                  2.8                    !
 ! D10   D(1,5,8,9)             -0.0587                  1.4                    !
 ! D11   D(1,5,8,10)             0.0587                  1.4                    !
 ! D14   D(6,5,8,10)             0.1174                  2.7                    !
 ! D15   D(6,5,8,11)             0.0587                  1.4                    !
 ! D16   D(7,5,8,9)             -0.1174                  2.7                    !
 ! D18   D(7,5,8,11)            -0.0587                  1.4                    !
 ! D19   D(5,8,11,12)            0.1207                  2.8                    !
 ! D21   D(5,8,11,14)           -0.1207                  2.8                    !
 ! D22   D(9,8,11,12)            0.0774                  1.8                    !
 ! D24   D(9,8,11,14)           -0.1641                  3.8                    !
 ! D25   D(10,8,11,12)           0.1641                  3.8                    !
 ! D27   D(10,8,11,14)          -0.0774                  1.8                    !
 --------------------------------------------------------------------------------
                           ----------------------------
                           ! Normal Mode    11        !
 --------------------------                            --------------------------
 ! Name  Definition              Value          Relative Weight (%)             !
 --------------------------------------------------------------------------------
 ! R4    R(1,5)                 -0.4204                 11.4                    !
 ! R10   R(8,11)                 0.4204                 11.4                    !
 ! A1    A(2,1,3)                0.0485                  1.3                    !
 ! A2    A(2,1,4)                0.0485                  1.3                    !
 ! A3    A(2,1,5)                0.1707                  4.6                    !
 ! A4    A(3,1,4)               -0.0283                  0.8                    !
 ! A5    A(3,1,5)               -0.1189                  3.2                    !
 ! A6    A(4,1,5)               -0.1189                  3.2                    !
 ! A7    A(1,5,6)                0.0233                  0.6                    !
 ! A8    A(1,5,7)                0.0233                  0.6                    !
 ! A9    A(1,5,8)                0.0313                  0.8                    !
 ! A11   A(6,5,8)               -0.0467                  1.3                    !
 ! A12   A(7,5,8)               -0.0467                  1.3                    !
 ! A13   A(5,8,9)                0.0467                  1.3                    !
 ! A14   A(5,8,10)               0.0467                  1.3                    !
 ! A15   A(5,8,11)              -0.0313                  0.8                    !
 ! A17   A(9,8,11)              -0.0233                  0.6                    !
 ! A18   A(10,8,11)             -0.0233                  0.6                    !
 ! A19   A(8,11,12)              0.1189                  3.2                    !
 ! A20   A(8,11,13)             -0.1707                  4.6                    !
 ! A21   A(8,11,14)              0.1189                  3.2                    !
 ! A22   A(12,11,13)            -0.0485                  1.3                    !
 ! A23   A(12,11,14)             0.0283                  0.8                    !
 ! A24   A(13,11,14)            -0.0485                  1.3                    !
 ! D4    D(3,1,5,6)             -0.0729                  2.0                    !
 ! D5    D(3,1,5,7)             -0.1169                  3.2                    !
 ! D6    D(3,1,5,8)             -0.0949                  2.6                    !
 ! D7    D(4,1,5,6)              0.1169                  3.2                    !
 ! D8    D(4,1,5,7)              0.0729                  2.0                    !
 ! D9    D(4,1,5,8)              0.0949                  2.6                    !
 ! D14   D(6,5,8,10)             0.0352                  1.0                    !
 ! D16   D(7,5,8,9)             -0.0352                  1.0                    !
 ! D19   D(5,8,11,12)            0.0949                  2.6                    !
 ! D21   D(5,8,11,14)           -0.0949                  2.6                    !
 ! D22   D(9,8,11,12)            0.0729                  2.0                    !
 ! D24   D(9,8,11,14)           -0.1169                  3.2                    !
 ! D25   D(10,8,11,12)           0.1169                  3.2                    !
 ! D27   D(10,8,11,14)          -0.0729                  2.0                    !
 --------------------------------------------------------------------------------
                           ----------------------------
                           ! Normal Mode    12        !
 --------------------------                            --------------------------
 ! Name  Definition              Value          Relative Weight (%)             !
 --------------------------------------------------------------------------------
 ! R4    R(1,5)                 -0.2881                 10.1                    !
 ! R7    R(5,8)                  0.3052                 10.7                    !
 ! R10   R(8,11)                -0.2881                 10.1                    !
 ! A1    A(2,1,3)                0.022                   0.8                    !
 ! A2    A(2,1,4)                0.022                   0.8                    !
 ! A3    A(2,1,5)                0.0249                  0.9                    !
 ! A5    A(3,1,5)               -0.0362                  1.3                    !
 ! A6    A(4,1,5)               -0.0362                  1.3                    !
 ! A7    A(1,5,6)               -0.0837                  2.9                    !
 ! A8    A(1,5,7)               -0.0837                  2.9                    !
 ! A9    A(1,5,8)                0.0591                  2.1                    !
 ! A11   A(6,5,8)                0.0588                  2.1                    !
 ! A12   A(7,5,8)                0.0588                  2.1                    !
 ! A13   A(5,8,9)                0.0588                  2.1                    !
 ! A14   A(5,8,10)               0.0588                  2.1                    !
 ! A15   A(5,8,11)               0.0591                  2.1                    !
 ! A17   A(9,8,11)              -0.0837                  2.9                    !
 ! A18   A(10,8,11)             -0.0837                  2.9                    !
 ! A19   A(8,11,12)             -0.0362                  1.3                    !
 ! A20   A(8,11,13)              0.0249                  0.9                    !
 ! A21   A(8,11,14)             -0.0362                  1.3                    !
 ! A22   A(12,11,13)             0.022                   0.8                    !
 ! A24   A(13,11,14)             0.022                   0.8                    !
 ! D1    D(2,1,5,6)             -0.0558                  2.0                    !
 ! D2    D(2,1,5,7)              0.0558                  2.0                    !
 ! D4    D(3,1,5,6)             -0.0758                  2.7                    !
 ! D5    D(3,1,5,7)              0.0358                  1.3                    !
 ! D6    D(3,1,5,8)             -0.02                    0.7                    !
 ! D7    D(4,1,5,6)             -0.0358                  1.3                    !
 ! D8    D(4,1,5,7)              0.0758                  2.7                    !
 ! D9    D(4,1,5,8)              0.02                    0.7                    !
 ! D10   D(1,5,8,9)             -0.0256                  0.9                    !
 ! D11   D(1,5,8,10)             0.0256                  0.9                    !
 ! D13   D(6,5,8,9)             -0.0512                  1.8                    !
 ! D15   D(6,5,8,11)            -0.0256                  0.9                    !
 ! D17   D(7,5,8,10)             0.0512                  1.8                    !
 ! D18   D(7,5,8,11)             0.0256                  0.9                    !
 ! D19   D(5,8,11,12)           -0.02                    0.7                    !
 ! D21   D(5,8,11,14)            0.02                    0.7                    !
 ! D22   D(9,8,11,12)           -0.0758                  2.7                    !
 ! D23   D(9,8,11,13)           -0.0558                  2.0                    !
 ! D24   D(9,8,11,14)           -0.0358                  1.3                    !
 ! D25   D(10,8,11,12)           0.0358                  1.3                    !
 ! D26   D(10,8,11,13)           0.0558                  2.0                    !
 ! D27   D(10,8,11,14)           0.0758                  2.7                    !
 --------------------------------------------------------------------------------
                           ----------------------------
                           ! Normal Mode    13        !
 --------------------------                            --------------------------
 ! Name  Definition              Value          Relative Weight (%)             !
 --------------------------------------------------------------------------------
 ! R4    R(1,5)                 -0.0977                  1.7                    !
 ! R7    R(5,8)                 -0.26                    4.5                    !
 ! R10   R(8,11)                -0.0977                  1.7                    !
 ! A1    A(2,1,3)                0.0746                  1.3                    !
 ! A2    A(2,1,4)                0.0746                  1.3                    !
 ! A3    A(2,1,5)                0.2965                  5.1                    !
 ! A4    A(3,1,4)               -0.0954                  1.6                    !
 ! A5    A(3,1,5)               -0.1756                  3.0                    !
 ! A6    A(4,1,5)               -0.1756                  3.0                    !
 ! A9    A(1,5,8)                0.1924                  3.3                    !
 ! A11   A(6,5,8)               -0.1027                  1.8                    !
 ! A12   A(7,5,8)               -0.1027                  1.8                    !
 ! A13   A(5,8,9)               -0.1027                  1.8                    !
 ! A14   A(5,8,10)              -0.1027                  1.8                    !
 ! A15   A(5,8,11)               0.1924                  3.3                    !
 ! A19   A(8,11,12)             -0.1756                  3.0                    !
 ! A20   A(8,11,13)              0.2965                  5.1                    !
 ! A21   A(8,11,14)             -0.1756                  3.0                    !
 ! A22   A(12,11,13)             0.0746                  1.3                    !
 ! A23   A(12,11,14)            -0.0954                  1.6                    !
 ! A24   A(13,11,14)             0.0746                  1.3                    !
 ! D4    D(3,1,5,6)             -0.1795                  3.1                    !
 ! D5    D(3,1,5,7)             -0.168                   2.9                    !
 ! D6    D(3,1,5,8)             -0.1737                  3.0                    !
 ! D7    D(4,1,5,6)              0.168                   2.9                    !
 ! D8    D(4,1,5,7)              0.1795                  3.1                    !
 ! D9    D(4,1,5,8)              0.1737                  3.0                    !
 ! D13   D(6,5,8,9)              0.1363                  2.3                    !
 ! D17   D(7,5,8,10)            -0.1363                  2.3                    !
 ! D19   D(5,8,11,12)           -0.1737                  3.0                    !
 ! D21   D(5,8,11,14)            0.1737                  3.0                    !
 ! D22   D(9,8,11,12)           -0.1795                  3.1                    !
 ! D24   D(9,8,11,14)            0.168                   2.9                    !
 ! D25   D(10,8,11,12)          -0.168                   2.9                    !
 ! D27   D(10,8,11,14)           0.1795                  3.1                    !
 --------------------------------------------------------------------------------
                           ----------------------------
                           ! Normal Mode    14        !
 --------------------------                            --------------------------
 ! Name  Definition              Value          Relative Weight (%)             !
 --------------------------------------------------------------------------------
 ! A5    A(3,1,5)                0.2408                  3.3                    !
 ! A6    A(4,1,5)               -0.2408                  3.3                    !
 ! A7    A(1,5,6)               -0.1728                  2.3                    !
 ! A8    A(1,5,7)                0.1728                  2.3                    !
 ! A11   A(6,5,8)               -0.1695                  2.3                    !
 ! A12   A(7,5,8)                0.1695                  2.3                    !
 ! A13   A(5,8,9)                0.1695                  2.3                    !
 ! A14   A(5,8,10)              -0.1695                  2.3                    !
 ! A17   A(9,8,11)               0.1728                  2.3                    !
 ! A18   A(10,8,11)             -0.1728                  2.3                    !
 ! A19   A(8,11,12)             -0.2408                  3.3                    !
 ! A21   A(8,11,14)              0.2408                  3.3                    !
 ! D1    D(2,1,5,6)              0.3743                  5.1                    !
 ! D2    D(2,1,5,7)              0.3743                  5.1                    !
 ! D4    D(3,1,5,6)              0.0947                  1.3                    !
 ! D5    D(3,1,5,7)              0.0947                  1.3                    !
 ! D6    D(3,1,5,8)             -0.2438                  3.3                    !
 ! D7    D(4,1,5,6)              0.0947                  1.3                    !
 ! D8    D(4,1,5,7)              0.0947                  1.3                    !
 ! D9    D(4,1,5,8)             -0.2438                  3.3                    !
 ! D10   D(1,5,8,9)              0.339                   4.6                    !
 ! D11   D(1,5,8,10)             0.339                   4.6                    !
 ! D15   D(6,5,8,11)            -0.339                   4.6                    !
 ! D18   D(7,5,8,11)            -0.339                   4.6                    !
 ! D19   D(5,8,11,12)            0.2438                  3.3                    !
 ! D21   D(5,8,11,14)            0.2438                  3.3                    !
 ! D22   D(9,8,11,12)           -0.0947                  1.3                    !
 ! D23   D(9,8,11,13)           -0.3743                  5.1                    !
 ! D24   D(9,8,11,14)           -0.0947                  1.3                    !
 ! D25   D(10,8,11,12)          -0.0947                  1.3                    !
 ! D26   D(10,8,11,13)          -0.3743                  5.1                    !
 ! D27   D(10,8,11,14)          -0.0947                  1.3                    !
 --------------------------------------------------------------------------------
                           ----------------------------
                           ! Normal Mode    15        !
 --------------------------                            --------------------------
 ! Name  Definition              Value          Relative Weight (%)             !
 --------------------------------------------------------------------------------
 ! A1    A(2,1,3)                0.0863                  1.4                    !
 ! A2    A(2,1,4)               -0.0863                  1.4                    !
 ! A5    A(3,1,5)                0.1534                  2.4                    !
 ! A6    A(4,1,5)               -0.1534                  2.4                    !
 ! A7    A(1,5,6)               -0.2516                  4.0                    !
 ! A8    A(1,5,7)                0.2516                  4.0                    !
 ! A11   A(6,5,8)                0.141                   2.2                    !
 ! A12   A(7,5,8)               -0.141                   2.2                    !
 ! A13   A(5,8,9)                0.141                   2.2                    !
 ! A14   A(5,8,10)              -0.141                   2.2                    !
 ! A17   A(9,8,11)              -0.2516                  4.0                    !
 ! A18   A(10,8,11)              0.2516                  4.0                    !
 ! A19   A(8,11,12)              0.1534                  2.4                    !
 ! A21   A(8,11,14)             -0.1534                  2.4                    !
 ! A22   A(12,11,13)             0.0863                  1.4                    !
 ! A24   A(13,11,14)            -0.0863                  1.4                    !
 ! D1    D(2,1,5,6)              0.1172                  1.9                    !
 ! D2    D(2,1,5,7)              0.1172                  1.9                    !
 ! D3    D(2,1,5,8)              0.1192                  1.9                    !
 ! D4    D(3,1,5,6)             -0.0964                  1.5                    !
 ! D5    D(3,1,5,7)             -0.0964                  1.5                    !
 ! D6    D(3,1,5,8)             -0.0944                  1.5                    !
 ! D7    D(4,1,5,6)             -0.0964                  1.5                    !
 ! D8    D(4,1,5,7)             -0.0964                  1.5                    !
 ! D9    D(4,1,5,8)             -0.0944                  1.5                    !
 ! D10   D(1,5,8,9)             -0.1104                  1.8                    !
 ! D11   D(1,5,8,10)            -0.1104                  1.8                    !
 ! D12   D(1,5,8,11)             0.1102                  1.8                    !
 ! D13   D(6,5,8,9)             -0.331                   5.3                    !
 ! D14   D(6,5,8,10)            -0.331                   5.3                    !
 ! D15   D(6,5,8,11)            -0.1104                  1.8                    !
 ! D16   D(7,5,8,9)             -0.331                   5.3                    !
 ! D17   D(7,5,8,10)            -0.331                   5.3                    !
 ! D18   D(7,5,8,11)            -0.1104                  1.8                    !
 ! D19   D(5,8,11,12)           -0.0944                  1.5                    !
 ! D20   D(5,8,11,13)            0.1192                  1.9                    !
 ! D21   D(5,8,11,14)           -0.0944                  1.5                    !
 ! D22   D(9,8,11,12)           -0.0964                  1.5                    !
 ! D23   D(9,8,11,13)            0.1172                  1.9                    !
 ! D24   D(9,8,11,14)           -0.0964                  1.5                    !
 ! D25   D(10,8,11,12)          -0.0964                  1.5                    !
 ! D26   D(10,8,11,13)           0.1172                  1.9                    !
 ! D27   D(10,8,11,14)          -0.0964                  1.5                    !
 --------------------------------------------------------------------------------
                           ----------------------------
                           ! Normal Mode    16        !
 --------------------------                            --------------------------
 ! Name  Definition              Value          Relative Weight (%)             !
 --------------------------------------------------------------------------------
 ! R4    R(1,5)                  0.0656                  1.0                    !
 ! R10   R(8,11)                -0.0656                  1.0                    !
 ! A3    A(2,1,5)                0.1771                  2.8                    !
 ! A4    A(3,1,4)               -0.1178                  1.9                    !
 ! A7    A(1,5,6)               -0.2595                  4.1                    !
 ! A8    A(1,5,7)               -0.2595                  4.1                    !
 ! A9    A(1,5,8)                0.0487                  0.8                    !
 ! A11   A(6,5,8)                0.2425                  3.8                    !
 ! A12   A(7,5,8)                0.2425                  3.8                    !
 ! A13   A(5,8,9)               -0.2425                  3.8                    !
 ! A14   A(5,8,10)              -0.2425                  3.8                    !
 ! A15   A(5,8,11)              -0.0487                  0.8                    !
 ! A17   A(9,8,11)               0.2595                  4.1                    !
 ! A18   A(10,8,11)              0.2595                  4.1                    !
 ! A20   A(8,11,13)             -0.1771                  2.8                    !
 ! A23   A(12,11,14)             0.1178                  1.9                    !
 ! D1    D(2,1,5,6)             -0.1589                  2.5                    !
 ! D2    D(2,1,5,7)              0.1589                  2.5                    !
 ! D4    D(3,1,5,6)             -0.2486                  3.9                    !
 ! D5    D(3,1,5,7)              0.0693                  1.1                    !
 ! D6    D(3,1,5,8)             -0.0896                  1.4                    !
 ! D7    D(4,1,5,6)             -0.0693                  1.1                    !
 ! D8    D(4,1,5,7)              0.2486                  3.9                    !
 ! D9    D(4,1,5,8)              0.0896                  1.4                    !
 ! D10   D(1,5,8,9)              0.1266                  2.0                    !
 ! D11   D(1,5,8,10)            -0.1266                  2.0                    !
 ! D14   D(6,5,8,10)            -0.2532                  4.0                    !
 ! D15   D(6,5,8,11)            -0.1266                  2.0                    !
 ! D16   D(7,5,8,9)              0.2532                  4.0                    !
 ! D18   D(7,5,8,11)             0.1266                  2.0                    !
 ! D19   D(5,8,11,12)            0.0896                  1.4                    !
 ! D21   D(5,8,11,14)           -0.0896                  1.4                    !
 ! D22   D(9,8,11,12)            0.2486                  3.9                    !
 ! D23   D(9,8,11,13)            0.1589                  2.5                    !
 ! D24   D(9,8,11,14)            0.0693                  1.1                    !
 ! D25   D(10,8,11,12)          -0.0693                  1.1                    !
 ! D26   D(10,8,11,13)          -0.1589                  2.5                    !
 ! D27   D(10,8,11,14)          -0.2486                  3.9                    !
 --------------------------------------------------------------------------------
                           ----------------------------
                           ! Normal Mode    17        !
 --------------------------                            --------------------------
 ! Name  Definition              Value          Relative Weight (%)             !
 --------------------------------------------------------------------------------
 ! A5    A(3,1,5)                0.0464                  1.1                    !
 ! A6    A(4,1,5)               -0.0464                  1.1                    !
 ! A7    A(1,5,6)               -0.181                   4.2                    !
 ! A8    A(1,5,7)                0.181                   4.2                    !
 ! A11   A(6,5,8)                0.252                   5.8                    !
 ! A12   A(7,5,8)               -0.252                   5.8                    !
 ! A13   A(5,8,9)               -0.252                   5.8                    !
 ! A14   A(5,8,10)               0.252                   5.8                    !
 ! A17   A(9,8,11)               0.181                   4.2                    !
 ! A18   A(10,8,11)             -0.181                   4.2                    !
 ! A19   A(8,11,12)             -0.0464                  1.1                    !
 ! A21   A(8,11,14)              0.0464                  1.1                    !
 ! D1    D(2,1,5,6)             -0.1367                  3.2                    !
 ! D2    D(2,1,5,7)             -0.1367                  3.2                    !
 ! D3    D(2,1,5,8)              0.0569                  1.3                    !
 ! D4    D(3,1,5,6)             -0.1766                  4.1                    !
 ! D5    D(3,1,5,7)             -0.1766                  4.1                    !
 ! D7    D(4,1,5,6)             -0.1766                  4.1                    !
 ! D8    D(4,1,5,7)             -0.1766                  4.1                    !
 ! D10   D(1,5,8,9)              0.0526                  1.2                    !
 ! D11   D(1,5,8,10)             0.0526                  1.2                    !
 ! D15   D(6,5,8,11)            -0.0526                  1.2                    !
 ! D18   D(7,5,8,11)            -0.0526                  1.2                    !
 ! D20   D(5,8,11,13)           -0.0569                  1.3                    !
 ! D22   D(9,8,11,12)            0.1766                  4.1                    !
 ! D23   D(9,8,11,13)            0.1367                  3.2                    !
 ! D24   D(9,8,11,14)            0.1766                  4.1                    !
 ! D25   D(10,8,11,12)           0.1766                  4.1                    !
 ! D26   D(10,8,11,13)           0.1367                  3.2                    !
 ! D27   D(10,8,11,14)           0.1766                  4.1                    !
 --------------------------------------------------------------------------------
                           ----------------------------
                           ! Normal Mode    18        !
 --------------------------                            --------------------------
 ! Name  Definition              Value          Relative Weight (%)             !
 --------------------------------------------------------------------------------
 ! R4    R(1,5)                 -0.1178                  1.6                    !
 ! R7    R(5,8)                  0.2485                  3.4                    !
 ! R10   R(8,11)                -0.1178                  1.6                    !
 ! A3    A(2,1,5)               -0.1511                  2.1                    !
 ! A4    A(3,1,4)                0.171                   2.3                    !
 ! A7    A(1,5,6)                0.2796                  3.8                    !
 ! A8    A(1,5,7)                0.2796                  3.8                    !
 ! A11   A(6,5,8)               -0.2782                  3.8                    !
 ! A12   A(7,5,8)               -0.2782                  3.8                    !
 ! A13   A(5,8,9)               -0.2782                  3.8                    !
 ! A14   A(5,8,10)              -0.2782                  3.8                    !
 ! A17   A(9,8,11)               0.2796                  3.8                    !
 ! A18   A(10,8,11)              0.2796                  3.8                    !
 ! A20   A(8,11,13)             -0.1511                  2.1                    !
 ! A23   A(12,11,14)             0.171                   2.3                    !
 ! D1    D(2,1,5,6)              0.141                   1.9                    !
 ! D2    D(2,1,5,7)             -0.141                   1.9                    !
 ! D4    D(3,1,5,6)              0.22                    3.0                    !
 ! D5    D(3,1,5,7)             -0.062                   0.9                    !
 ! D6    D(3,1,5,8)              0.079                   1.1                    !
 ! D7    D(4,1,5,6)              0.062                   0.9                    !
 ! D8    D(4,1,5,7)             -0.22                    3.0                    !
 ! D9    D(4,1,5,8)             -0.079                   1.1                    !
 ! D10   D(1,5,8,9)              0.1756                  2.4                    !
 ! D11   D(1,5,8,10)            -0.1756                  2.4                    !
 ! D13   D(6,5,8,9)              0.3512                  4.8                    !
 ! D15   D(6,5,8,11)             0.1756                  2.4                    !
 ! D17   D(7,5,8,10)            -0.3512                  4.8                    !
 ! D18   D(7,5,8,11)            -0.1756                  2.4                    !
 ! D19   D(5,8,11,12)            0.079                   1.1                    !
 ! D21   D(5,8,11,14)           -0.079                   1.1                    !
 ! D22   D(9,8,11,12)            0.22                    3.0                    !
 ! D23   D(9,8,11,13)            0.141                   1.9                    !
 ! D24   D(9,8,11,14)            0.062                   0.9                    !
 ! D25   D(10,8,11,12)          -0.062                   0.9                    !
 ! D26   D(10,8,11,13)          -0.141                   1.9                    !
 ! D27   D(10,8,11,14)          -0.22                    3.0                    !
 --------------------------------------------------------------------------------
                           ----------------------------
                           ! Normal Mode    19        !
 --------------------------                            --------------------------
 ! Name  Definition              Value          Relative Weight (%)             !
 --------------------------------------------------------------------------------
 ! R4    R(1,5)                  0.1516                  3.0                    !
 ! R7    R(5,8)                 -0.07                    1.4                    !
 ! R10   R(8,11)                 0.1516                  3.0                    !
 ! A1    A(2,1,3)                0.2629                  5.2                    !
 ! A2    A(2,1,4)                0.2629                  5.2                    !
 ! A3    A(2,1,5)               -0.2284                  4.5                    !
 ! A4    A(3,1,4)                0.2221                  4.4                    !
 ! A5    A(3,1,5)               -0.2402                  4.7                    !
 ! A6    A(4,1,5)               -0.2402                  4.7                    !
 ! A7    A(1,5,6)               -0.0655                  1.3                    !
 ! A8    A(1,5,7)               -0.0655                  1.3                    !
 ! A11   A(6,5,8)                0.0892                  1.8                    !
 ! A12   A(7,5,8)                0.0892                  1.8                    !
 ! A13   A(5,8,9)                0.0892                  1.8                    !
 ! A14   A(5,8,10)               0.0892                  1.8                    !
 ! A17   A(9,8,11)              -0.0655                  1.3                    !
 ! A18   A(10,8,11)             -0.0655                  1.3                    !
 ! A19   A(8,11,12)             -0.2402                  4.7                    !
 ! A20   A(8,11,13)             -0.2284                  4.5                    !
 ! A21   A(8,11,14)             -0.2402                  4.7                    !
 ! A22   A(12,11,13)             0.2629                  5.2                    !
 ! A23   A(12,11,14)             0.2221                  4.4                    !
 ! A24   A(13,11,14)             0.2629                  5.2                    !
 ! D1    D(2,1,5,6)             -0.0566                  1.1                    !
 ! D2    D(2,1,5,7)              0.0566                  1.1                    !
 ! D4    D(3,1,5,6)             -0.0736                  1.4                    !
 ! D5    D(3,1,5,7)              0.0396                  0.8                    !
 ! D7    D(4,1,5,6)             -0.0396                  0.8                    !
 ! D8    D(4,1,5,7)              0.0736                  1.4                    !
 ! D13   D(6,5,8,9)             -0.0625                  1.2                    !
 ! D17   D(7,5,8,10)             0.0625                  1.2                    !
 ! D22   D(9,8,11,12)           -0.0736                  1.4                    !
 ! D23   D(9,8,11,13)           -0.0566                  1.1                    !
 ! D24   D(9,8,11,14)           -0.0396                  0.8                    !
 ! D25   D(10,8,11,12)           0.0396                  0.8                    !
 ! D26   D(10,8,11,13)           0.0566                  1.1                    !
 ! D27   D(10,8,11,14)           0.0736                  1.4                    !
 --------------------------------------------------------------------------------
                           ----------------------------
                           ! Normal Mode    20        !
 --------------------------                            --------------------------
 ! Name  Definition              Value          Relative Weight (%)             !
 --------------------------------------------------------------------------------
 ! R4    R(1,5)                 -0.1247                  3.0                    !
 ! R10   R(8,11)                 0.1247                  3.0                    !
 ! A1    A(2,1,3)               -0.2675                  6.4                    !
 ! A2    A(2,1,4)               -0.2675                  6.4                    !
 ! A3    A(2,1,5)                0.2239                  5.3                    !
 ! A4    A(3,1,4)               -0.2241                  5.3                    !
 ! A5    A(3,1,5)                0.2477                  5.9                    !
 ! A6    A(4,1,5)                0.2477                  5.9                    !
 ! A7    A(1,5,6)                0.0402                  1.0                    !
 ! A8    A(1,5,7)                0.0402                  1.0                    !
 ! A11   A(6,5,8)               -0.0411                  1.0                    !
 ! A12   A(7,5,8)               -0.0411                  1.0                    !
 ! A13   A(5,8,9)                0.0411                  1.0                    !
 ! A14   A(5,8,10)               0.0411                  1.0                    !
 ! A17   A(9,8,11)              -0.0402                  1.0                    !
 ! A18   A(10,8,11)             -0.0402                  1.0                    !
 ! A19   A(8,11,12)             -0.2477                  5.9                    !
 ! A20   A(8,11,13)             -0.2239                  5.3                    !
 ! A21   A(8,11,14)             -0.2477                  5.9                    !
 ! A22   A(12,11,13)             0.2675                  6.4                    !
 ! A23   A(12,11,14)             0.2241                  5.3                    !
 ! A24   A(13,11,14)             0.2675                  6.4                    !
 ! D1    D(2,1,5,6)              0.0295                  0.7                    !
 ! D2    D(2,1,5,7)             -0.0295                  0.7                    !
 ! D4    D(3,1,5,6)              0.0502                  1.2                    !
 ! D8    D(4,1,5,7)             -0.0502                  1.2                    !
 ! D14   D(6,5,8,10)             0.0336                  0.8                    !
 ! D16   D(7,5,8,9)             -0.0336                  0.8                    !
 ! D22   D(9,8,11,12)           -0.0502                  1.2                    !
 ! D23   D(9,8,11,13)           -0.0295                  0.7                    !
 ! D26   D(10,8,11,13)           0.0295                  0.7                    !
 ! D27   D(10,8,11,14)           0.0502                  1.2                    !
 --------------------------------------------------------------------------------
                           ----------------------------
                           ! Normal Mode    21        !
 --------------------------                            --------------------------
 ! Name  Definition              Value          Relative Weight (%)             !
 --------------------------------------------------------------------------------
 ! A4    A(3,1,4)                0.1105                  1.4                    !
 ! A7    A(1,5,6)               -0.1118                  1.4                    !
 ! A8    A(1,5,7)               -0.1118                  1.4                    !
 ! A10   A(6,5,7)                0.5108                  6.6                    !
 ! A11   A(6,5,8)               -0.1043                  1.3                    !
 ! A12   A(7,5,8)               -0.1043                  1.3                    !
 ! A13   A(5,8,9)               -0.1043                  1.3                    !
 ! A14   A(5,8,10)              -0.1043                  1.3                    !
 ! A16   A(9,8,10)               0.5108                  6.6                    !
 ! A17   A(9,8,11)              -0.1118                  1.4                    !
 ! A18   A(10,8,11)             -0.1118                  1.4                    !
 ! A23   A(12,11,14)             0.1105                  1.4                    !
 ! D1    D(2,1,5,6)              0.2443                  3.1                    !
 ! D2    D(2,1,5,7)             -0.2443                  3.1                    !
 ! D4    D(3,1,5,6)              0.3008                  3.9                    !
 ! D5    D(3,1,5,7)             -0.1878                  2.4                    !
 ! D7    D(4,1,5,6)              0.1878                  2.4                    !
 ! D8    D(4,1,5,7)             -0.3008                  3.9                    !
 ! D10   D(1,5,8,9)             -0.2473                  3.2                    !
 ! D11   D(1,5,8,10)             0.2473                  3.2                    !
 ! D13   D(6,5,8,9)             -0.4946                  6.4                    !
 ! D15   D(6,5,8,11)            -0.2473                  3.2                    !
 ! D17   D(7,5,8,10)             0.4946                  6.4                    !
 ! D18   D(7,5,8,11)             0.2473                  3.2                    !
 ! D22   D(9,8,11,12)            0.3008                  3.9                    !
 ! D23   D(9,8,11,13)            0.2443                  3.1                    !
 ! D24   D(9,8,11,14)            0.1878                  2.4                    !
 ! D25   D(10,8,11,12)          -0.1878                  2.4                    !
 ! D26   D(10,8,11,13)          -0.2443                  3.1                    !
 ! D27   D(10,8,11,14)          -0.3008                  3.9                    !
 --------------------------------------------------------------------------------
                           ----------------------------
                           ! Normal Mode    22        !
 --------------------------                            --------------------------
 ! Name  Definition              Value          Relative Weight (%)             !
 --------------------------------------------------------------------------------
 ! A1    A(2,1,3)                0.1473                  2.0                    !
 ! A2    A(2,1,4)                0.1473                  2.0                    !
 ! A3    A(2,1,5)               -0.0633                  0.9                    !
 ! A4    A(3,1,4)               -0.3172                  4.3                    !
 ! A7    A(1,5,6)                0.0984                  1.3                    !
 ! A8    A(1,5,7)                0.0984                  1.3                    !
 ! A10   A(6,5,7)               -0.3807                  5.1                    !
 ! A11   A(6,5,8)                0.0722                  1.0                    !
 ! A12   A(7,5,8)                0.0722                  1.0                    !
 ! A13   A(5,8,9)               -0.0722                  1.0                    !
 ! A14   A(5,8,10)              -0.0722                  1.0                    !
 ! A16   A(9,8,10)               0.3807                  5.1                    !
 ! A17   A(9,8,11)              -0.0984                  1.3                    !
 ! A18   A(10,8,11)             -0.0984                  1.3                    !
 ! A20   A(8,11,13)              0.0633                  0.9                    !
 ! A22   A(12,11,13)            -0.1473                  2.0                    !
 ! A23   A(12,11,14)             0.3172                  4.3                    !
 ! A24   A(13,11,14)            -0.1473                  2.0                    !
 ! D1    D(2,1,5,6)             -0.1733                  2.3                    !
 ! D2    D(2,1,5,7)              0.1733                  2.3                    !
 ! D4    D(3,1,5,6)             -0.3452                  4.6                    !
 ! D6    D(3,1,5,8)             -0.1719                  2.3                    !
 ! D8    D(4,1,5,7)              0.3452                  4.6                    !
 ! D9    D(4,1,5,8)              0.1719                  2.3                    !
 ! D10   D(1,5,8,9)             -0.1874                  2.5                    !
 ! D11   D(1,5,8,10)             0.1874                  2.5                    !
 ! D14   D(6,5,8,10)             0.3749                  5.0                    !
 ! D15   D(6,5,8,11)             0.1874                  2.5                    !
 ! D16   D(7,5,8,9)             -0.3749                  5.0                    !
 ! D18   D(7,5,8,11)            -0.1874                  2.5                    !
 ! D19   D(5,8,11,12)            0.1719                  2.3                    !
 ! D21   D(5,8,11,14)           -0.1719                  2.3                    !
 ! D22   D(9,8,11,12)            0.3452                  4.6                    !
 ! D23   D(9,8,11,13)            0.1733                  2.3                    !
 ! D26   D(10,8,11,13)          -0.1733                  2.3                    !
 ! D27   D(10,8,11,14)          -0.3452                  4.6                    !
 --------------------------------------------------------------------------------
                           ----------------------------
                           ! Normal Mode    23        !
 --------------------------                            --------------------------
 ! Name  Definition              Value          Relative Weight (%)             !
 --------------------------------------------------------------------------------
 ! A1    A(2,1,3)                0.3929                  7.0                    !
 ! A2    A(2,1,4)               -0.3929                  7.0                    !
 ! A5    A(3,1,5)               -0.1049                  1.9                    !
 ! A6    A(4,1,5)                0.1049                  1.9                    !
 ! A19   A(8,11,12)              0.1049                  1.9                    !
 ! A21   A(8,11,14)             -0.1049                  1.9                    !
 ! A22   A(12,11,13)            -0.3929                  7.0                    !
 ! A24   A(13,11,14)             0.3929                  7.0                    !
 ! D1    D(2,1,5,6)              0.2739                  4.9                    !
 ! D2    D(2,1,5,7)              0.2739                  4.9                    !
 ! D3    D(2,1,5,8)              0.2942                  5.3                    !
 ! D4    D(3,1,5,6)             -0.1526                  2.7                    !
 ! D5    D(3,1,5,7)             -0.1526                  2.7                    !
 ! D6    D(3,1,5,8)             -0.1323                  2.4                    !
 ! D7    D(4,1,5,6)             -0.1526                  2.7                    !
 ! D8    D(4,1,5,7)             -0.1526                  2.7                    !
 ! D9    D(4,1,5,8)             -0.1323                  2.4                    !
 ! D19   D(5,8,11,12)            0.1323                  2.4                    !
 ! D20   D(5,8,11,13)           -0.2942                  5.3                    !
 ! D21   D(5,8,11,14)            0.1323                  2.4                    !
 ! D22   D(9,8,11,12)            0.1526                  2.7                    !
 ! D23   D(9,8,11,13)           -0.2739                  4.9                    !
 ! D24   D(9,8,11,14)            0.1526                  2.7                    !
 ! D25   D(10,8,11,12)           0.1526                  2.7                    !
 ! D26   D(10,8,11,13)          -0.2739                  4.9                    !
 ! D27   D(10,8,11,14)           0.1526                  2.7                    !
 --------------------------------------------------------------------------------
                           ----------------------------
                           ! Normal Mode    24        !
 --------------------------                            --------------------------
 ! Name  Definition              Value          Relative Weight (%)             !
 --------------------------------------------------------------------------------
 ! A1    A(2,1,3)                0.3887                  6.7                    !
 ! A2    A(2,1,4)               -0.3887                  6.7                    !
 ! A5    A(3,1,5)               -0.1092                  1.9                    !
 ! A6    A(4,1,5)                0.1092                  1.9                    !
 ! A19   A(8,11,12)             -0.1092                  1.9                    !
 ! A21   A(8,11,14)              0.1092                  1.9                    !
 ! A22   A(12,11,13)             0.3887                  6.7                    !
 ! A24   A(13,11,14)            -0.3887                  6.7                    !
 ! D1    D(2,1,5,6)              0.2818                  4.9                    !
 ! D2    D(2,1,5,7)              0.2818                  4.9                    !
 ! D3    D(2,1,5,8)              0.2777                  4.8                    !
 ! D4    D(3,1,5,6)             -0.1365                  2.4                    !
 ! D5    D(3,1,5,7)             -0.1365                  2.4                    !
 ! D6    D(3,1,5,8)             -0.1406                  2.4                    !
 ! D7    D(4,1,5,6)             -0.1365                  2.4                    !
 ! D8    D(4,1,5,7)             -0.1365                  2.4                    !
 ! D9    D(4,1,5,8)             -0.1406                  2.4                    !
 ! D19   D(5,8,11,12)           -0.1406                  2.4                    !
 ! D20   D(5,8,11,13)            0.2777                  4.8                    !
 ! D21   D(5,8,11,14)           -0.1406                  2.4                    !
 ! D22   D(9,8,11,12)           -0.1365                  2.4                    !
 ! D23   D(9,8,11,13)            0.2818                  4.9                    !
 ! D24   D(9,8,11,14)           -0.1365                  2.4                    !
 ! D25   D(10,8,11,12)          -0.1365                  2.4                    !
 ! D26   D(10,8,11,13)           0.2818                  4.9                    !
 ! D27   D(10,8,11,14)          -0.1365                  2.4                    !
 --------------------------------------------------------------------------------
                           ----------------------------
                           ! Normal Mode    25        !
 --------------------------                            --------------------------
 ! Name  Definition              Value          Relative Weight (%)             !
 --------------------------------------------------------------------------------
 ! R7    R(5,8)                  0.068                   1.1                    !
 ! A1    A(2,1,3)                0.2213                  3.5                    !
 ! A2    A(2,1,4)                0.2213                  3.5                    !
 ! A3    A(2,1,5)               -0.1295                  2.1                    !
 ! A4    A(3,1,4)               -0.4416                  7.1                    !
 ! A5    A(3,1,5)                0.0622                  1.0                    !
 ! A6    A(4,1,5)                0.0622                  1.0                    !
 ! A10   A(6,5,7)                0.106                   1.7                    !
 ! A11   A(6,5,8)               -0.0506                  0.8                    !
 ! A12   A(7,5,8)               -0.0506                  0.8                    !
 ! A13   A(5,8,9)               -0.0506                  0.8                    !
 ! A14   A(5,8,10)              -0.0506                  0.8                    !
 ! A16   A(9,8,10)               0.106                   1.7                    !
 ! A19   A(8,11,12)              0.0622                  1.0                    !
 ! A20   A(8,11,13)             -0.1295                  2.1                    !
 ! A21   A(8,11,14)              0.0622                  1.0                    !
 ! A22   A(12,11,13)             0.2213                  3.5                    !
 ! A23   A(12,11,14)            -0.4416                  7.1                    !
 ! A24   A(13,11,14)             0.2213                  3.5                    !
 ! D1    D(2,1,5,6)              0.0661                  1.1                    !
 ! D2    D(2,1,5,7)             -0.0661                  1.1                    !
 ! D4    D(3,1,5,6)             -0.1697                  2.7                    !
 ! D5    D(3,1,5,7)             -0.302                   4.8                    !
 ! D6    D(3,1,5,8)             -0.2358                  3.8                    !
 ! D7    D(4,1,5,6)              0.302                   4.8                    !
 ! D8    D(4,1,5,7)              0.1697                  2.7                    !
 ! D9    D(4,1,5,8)              0.2358                  3.8                    !
 ! D13   D(6,5,8,9)             -0.0705                  1.1                    !
 ! D17   D(7,5,8,10)             0.0705                  1.1                    !
 ! D19   D(5,8,11,12)           -0.2358                  3.8                    !
 ! D21   D(5,8,11,14)            0.2358                  3.8                    !
 ! D22   D(9,8,11,12)           -0.1697                  2.7                    !
 ! D23   D(9,8,11,13)            0.0661                  1.1                    !
 ! D24   D(9,8,11,14)            0.302                   4.8                    !
 ! D25   D(10,8,11,12)          -0.302                   4.8                    !
 ! D26   D(10,8,11,13)          -0.0661                  1.1                    !
 ! D27   D(10,8,11,14)           0.1697                  2.7                    !
 --------------------------------------------------------------------------------
                           ----------------------------
                           ! Normal Mode    26        !
 --------------------------                            --------------------------
 ! Name  Definition              Value          Relative Weight (%)             !
 --------------------------------------------------------------------------------
 ! A1    A(2,1,3)                0.1655                  2.2                    !
 ! A2    A(2,1,4)                0.1655                  2.2                    !
 ! A3    A(2,1,5)               -0.094                   1.3                    !
 ! A4    A(3,1,4)               -0.3425                  4.6                    !
 ! A10   A(6,5,7)                0.3583                  4.8                    !
 ! A11   A(6,5,8)               -0.0947                  1.3                    !
 ! A12   A(7,5,8)               -0.0947                  1.3                    !
 ! A13   A(5,8,9)                0.0947                  1.3                    !
 ! A14   A(5,8,10)               0.0947                  1.3                    !
 ! A16   A(9,8,10)              -0.3583                  4.8                    !
 ! A20   A(8,11,13)              0.094                   1.3                    !
 ! A22   A(12,11,13)            -0.1655                  2.2                    !
 ! A23   A(12,11,14)             0.3425                  4.6                    !
 ! A24   A(13,11,14)            -0.1655                  2.2                    !
 ! D1    D(2,1,5,6)              0.1749                  2.4                    !
 ! D2    D(2,1,5,7)             -0.1749                  2.4                    !
 ! D5    D(3,1,5,7)             -0.3561                  4.8                    !
 ! D6    D(3,1,5,8)             -0.1812                  2.4                    !
 ! D7    D(4,1,5,6)              0.3561                  4.8                    !
 ! D9    D(4,1,5,8)              0.1812                  2.4                    !
 ! D10   D(1,5,8,9)              0.1616                  2.2                    !
 ! D11   D(1,5,8,10)            -0.1616                  2.2                    !
 ! D14   D(6,5,8,10)            -0.3232                  4.3                    !
 ! D15   D(6,5,8,11)            -0.1616                  2.2                    !
 ! D16   D(7,5,8,9)              0.3232                  4.3                    !
 ! D18   D(7,5,8,11)             0.1616                  2.2                    !
 ! D19   D(5,8,11,12)            0.1812                  2.4                    !
 ! D21   D(5,8,11,14)           -0.1812                  2.4                    !
 ! D23   D(9,8,11,13)           -0.1749                  2.4                    !
 ! D24   D(9,8,11,14)           -0.3561                  4.8                    !
 ! D25   D(10,8,11,12)           0.3561                  4.8                    !
 ! D26   D(10,8,11,13)           0.1749                  2.4                    !
 --------------------------------------------------------------------------------
                           ----------------------------
                           ! Normal Mode    27        !
 --------------------------                            --------------------------
 ! Name  Definition              Value          Relative Weight (%)             !
 --------------------------------------------------------------------------------
 ! R1    R(1,2)                  0.0768                  2.5                    !
 ! R2    R(1,3)                  0.017                   0.6                    !
 ! R3    R(1,4)                  0.017                   0.6                    !
 ! R4    R(1,5)                  0.0239                  0.8                    !
 ! R5    R(5,6)                 -0.5244                 17.2                    !
 ! R6    R(5,7)                 -0.5244                 17.2                    !
 ! R7    R(5,8)                  0.0538                  1.8                    !
 ! R8    R(8,9)                 -0.5244                 17.2                    !
 ! R9    R(8,10)                -0.5244                 17.2                    !
 ! R10   R(8,11)                 0.0239                  0.8                    !
 ! R11   R(11,12)                0.017                   0.6                    !
 ! R12   R(11,13)                0.0768                  2.5                    !
 ! R13   R(11,14)                0.017                   0.6                    !
 ! A3    A(2,1,5)               -0.018                   0.6                    !
 ! A9    A(1,5,8)               -0.0428                  1.4                    !
 ! A10   A(6,5,7)                0.0237                  0.8                    !
 ! A15   A(5,8,11)              -0.0428                  1.4                    !
 ! A16   A(9,8,10)               0.0237                  0.8                    !
 ! A20   A(8,11,13)             -0.018                   0.6                    !
 ! D1    D(2,1,5,6)              0.0163                  0.5                    !
 ! D2    D(2,1,5,7)             -0.0163                  0.5                    !
 ! D4    D(3,1,5,6)              0.0223                  0.7                    !
 ! D5    D(3,1,5,7)             -0.0103                  0.3                    !
 ! D7    D(4,1,5,6)              0.0103                  0.3                    !
 ! D8    D(4,1,5,7)             -0.0223                  0.7                    !
 ! D10   D(1,5,8,9)             -0.0187                  0.6                    !
 ! D11   D(1,5,8,10)             0.0187                  0.6                    !
 ! D13   D(6,5,8,9)             -0.0373                  1.2                    !
 ! D15   D(6,5,8,11)            -0.0187                  0.6                    !
 ! D17   D(7,5,8,10)             0.0373                  1.2                    !
 ! D18   D(7,5,8,11)             0.0187                  0.6                    !
 ! D22   D(9,8,11,12)            0.0223                  0.7                    !
 ! D23   D(9,8,11,13)            0.0163                  0.5                    !
 ! D24   D(9,8,11,14)            0.0103                  0.3                    !
 ! D25   D(10,8,11,12)          -0.0103                  0.3                    !
 ! D26   D(10,8,11,13)          -0.0163                  0.5                    !
 ! D27   D(10,8,11,14)          -0.0223                  0.7                    !
 --------------------------------------------------------------------------------
                           ----------------------------
                           ! Normal Mode    28        !
 --------------------------                            --------------------------
 ! Name  Definition              Value          Relative Weight (%)             !
 --------------------------------------------------------------------------------
 ! R2    R(1,3)                 -0.1131                  3.7                    !
 ! R3    R(1,4)                 -0.1131                  3.7                    !
 ! R4    R(1,5)                  0.0344                  1.1                    !
 ! R5    R(5,6)                 -0.5153                 16.7                    !
 ! R6    R(5,7)                 -0.5153                 16.7                    !
 ! R8    R(8,9)                  0.5153                 16.7                    !
 ! R9    R(8,10)                 0.5153                 16.7                    !
 ! R10   R(8,11)                -0.0344                  1.1                    !
 ! R11   R(11,12)                0.1131                  3.7                    !
 ! R13   R(11,14)                0.1131                  3.7                    !
 ! A3    A(2,1,5)               -0.0204                  0.7                    !
 ! A10   A(6,5,7)                0.0232                  0.7                    !
 ! A16   A(9,8,10)              -0.0232                  0.7                    !
 ! A20   A(8,11,13)              0.0204                  0.7                    !
 ! D4    D(3,1,5,6)              0.0232                  0.8                    !
 ! D8    D(4,1,5,7)             -0.0232                  0.8                    !
 ! D14   D(6,5,8,10)            -0.0221                  0.7                    !
 ! D16   D(7,5,8,9)              0.0221                  0.7                    !
 ! D22   D(9,8,11,12)           -0.0232                  0.8                    !
 ! D27   D(10,8,11,14)           0.0232                  0.8                    !
 --------------------------------------------------------------------------------
                           ----------------------------
                           ! Normal Mode    29        !
 --------------------------                            --------------------------
 ! Name  Definition              Value          Relative Weight (%)             !
 --------------------------------------------------------------------------------
 ! R1    R(1,2)                 -0.3635                 11.6                    !
 ! R2    R(1,3)                 -0.4352                 13.9                    !
 ! R3    R(1,4)                 -0.4352                 13.9                    !
 ! R5    R(5,6)                  0.1002                  3.2                    !
 ! R6    R(5,7)                  0.1002                  3.2                    !
 ! R8    R(8,9)                 -0.1002                  3.2                    !
 ! R9    R(8,10)                -0.1002                  3.2                    !
 ! R11   R(11,12)                0.4352                 13.9                    !
 ! R12   R(11,13)                0.3635                 11.6                    !
 ! R13   R(11,14)                0.4352                 13.9                    !
 --------------------------------------------------------------------------------
                           ----------------------------
                           ! Normal Mode    30        !
 --------------------------                            --------------------------
 ! Name  Definition              Value          Relative Weight (%)             !
 --------------------------------------------------------------------------------
 ! R1    R(1,2)                 -0.3421                 11.5                    !
 ! R2    R(1,3)                 -0.4532                 15.2                    !
 ! R3    R(1,4)                 -0.4532                 15.2                    !
 ! R4    R(1,5)                  0.0377                  1.3                    !
 ! R5    R(5,6)                 -0.0412                  1.4                    !
 ! R6    R(5,7)                 -0.0412                  1.4                    !
 ! R8    R(8,9)                 -0.0412                  1.4                    !
 ! R9    R(8,10)                -0.0412                  1.4                    !
 ! R10   R(8,11)                 0.0377                  1.3                    !
 ! R11   R(11,12)               -0.4532                 15.2                    !
 ! R12   R(11,13)               -0.3421                 11.5                    !
 ! R13   R(11,14)               -0.4532                 15.2                    !
 --------------------------------------------------------------------------------
                           ----------------------------
                           ! Normal Mode    31        !
 --------------------------                            --------------------------
 ! Name  Definition              Value          Relative Weight (%)             !
 --------------------------------------------------------------------------------
 ! R2    R(1,3)                  0.1054                  2.7                    !
 ! R3    R(1,4)                 -0.1054                  2.7                    !
 ! R5    R(5,6)                 -0.5401                 13.9                    !
 ! R6    R(5,7)                  0.5401                 13.9                    !
 ! R8    R(8,9)                  0.5401                 13.9                    !
 ! R9    R(8,10)                -0.5401                 13.9                    !
 ! R11   R(11,12)               -0.1054                  2.7                    !
 ! R13   R(11,14)                0.1054                  2.7                    !
 ! A5    A(3,1,5)               -0.025                   0.6                    !
 ! A6    A(4,1,5)                0.025                   0.6                    !
 ! A7    A(1,5,6)                0.0306                  0.8                    !
 ! A8    A(1,5,7)               -0.0306                  0.8                    !
 ! A11   A(6,5,8)                0.0456                  1.2                    !
 ! A12   A(7,5,8)               -0.0456                  1.2                    !
 ! A13   A(5,8,9)               -0.0456                  1.2                    !
 ! A14   A(5,8,10)               0.0456                  1.2                    !
 ! A17   A(9,8,11)              -0.0306                  0.8                    !
 ! A18   A(10,8,11)              0.0306                  0.8                    !
 ! A19   A(8,11,12)              0.025                   0.6                    !
 ! A21   A(8,11,14)             -0.025                   0.6                    !
 ! D1    D(2,1,5,6)             -0.0363                  0.9                    !
 ! D2    D(2,1,5,7)             -0.0363                  0.9                    !
 ! D3    D(2,1,5,8)              0.0436                  1.1                    !
 ! D6    D(3,1,5,8)              0.0666                  1.7                    !
 ! D9    D(4,1,5,8)              0.0666                  1.7                    !
 ! D10   D(1,5,8,9)             -0.071                   1.8                    !
 ! D11   D(1,5,8,10)            -0.071                   1.8                    !
 ! D15   D(6,5,8,11)             0.071                   1.8                    !
 ! D18   D(7,5,8,11)             0.071                   1.8                    !
 ! D19   D(5,8,11,12)           -0.0666                  1.7                    !
 ! D20   D(5,8,11,13)           -0.0436                  1.1                    !
 ! D21   D(5,8,11,14)           -0.0666                  1.7                    !
 ! D23   D(9,8,11,13)            0.0363                  0.9                    !
 ! D26   D(10,8,11,13)           0.0363                  0.9                    !
 --------------------------------------------------------------------------------
                           ----------------------------
                           ! Normal Mode    32        !
 --------------------------                            --------------------------
 ! Name  Definition              Value          Relative Weight (%)             !
 --------------------------------------------------------------------------------
 ! R2    R(1,3)                  0.2165                  5.6                    !
 ! R3    R(1,4)                 -0.2165                  5.6                    !
 ! R5    R(5,6)                 -0.5068                 13.2                    !
 ! R6    R(5,7)                  0.5068                 13.2                    !
 ! R8    R(8,9)                 -0.5068                 13.2                    !
 ! R9    R(8,10)                 0.5068                 13.2                    !
 ! R11   R(11,12)                0.2165                  5.6                    !
 ! R13   R(11,14)               -0.2165                  5.6                    !
 ! A5    A(3,1,5)               -0.0318                  0.8                    !
 ! A6    A(4,1,5)                0.0318                  0.8                    !
 ! A7    A(1,5,6)                0.035                   0.9                    !
 ! A8    A(1,5,7)               -0.035                   0.9                    !
 ! A17   A(9,8,11)               0.035                   0.9                    !
 ! A18   A(10,8,11)             -0.035                   0.9                    !
 ! A19   A(8,11,12)             -0.0318                  0.8                    !
 ! A21   A(8,11,14)              0.0318                  0.8                    !
 ! D1    D(2,1,5,6)             -0.0416                  1.1                    !
 ! D2    D(2,1,5,7)             -0.0416                  1.1                    !
 ! D12   D(1,5,8,11)            -0.0653                  1.7                    !
 ! D13   D(6,5,8,9)              0.0327                  0.9                    !
 ! D14   D(6,5,8,10)             0.0327                  0.9                    !
 ! D16   D(7,5,8,9)              0.0327                  0.9                    !
 ! D17   D(7,5,8,10)             0.0327                  0.9                    !
 ! D23   D(9,8,11,13)           -0.0416                  1.1                    !
 ! D26   D(10,8,11,13)          -0.0416                  1.1                    !
 --------------------------------------------------------------------------------
                           ----------------------------
                           ! Normal Mode    33        !
 --------------------------                            --------------------------
 ! Name  Definition              Value          Relative Weight (%)             !
 --------------------------------------------------------------------------------
 ! R2    R(1,3)                 -0.5407                 16.2                    !
 ! R3    R(1,4)                  0.5407                 16.2                    !
 ! R5    R(5,6)                 -0.1054                  3.2                    !
 ! R6    R(5,7)                  0.1054                  3.2                    !
 ! R8    R(8,9)                  0.1054                  3.2                    !
 ! R9    R(8,10)                -0.1054                  3.2                    !
 ! R11   R(11,12)                0.5407                 16.2                    !
 ! R13   R(11,14)               -0.5407                 16.2                    !
 ! A1    A(2,1,3)                0.0257                  0.8                    !
 ! A2    A(2,1,4)               -0.0257                  0.8                    !
 ! A5    A(3,1,5)                0.0259                  0.8                    !
 ! A6    A(4,1,5)               -0.0259                  0.8                    !
 ! A7    A(1,5,6)               -0.0147                  0.4                    !
 ! A8    A(1,5,7)                0.0147                  0.4                    !
 ! A11   A(6,5,8)                0.0112                  0.3                    !
 ! A12   A(7,5,8)               -0.0112                  0.3                    !
 ! A13   A(5,8,9)               -0.0112                  0.3                    !
 ! A14   A(5,8,10)               0.0112                  0.3                    !
 ! A17   A(9,8,11)               0.0147                  0.4                    !
 ! A18   A(10,8,11)             -0.0147                  0.4                    !
 ! A19   A(8,11,12)             -0.0259                  0.8                    !
 ! A21   A(8,11,14)              0.0259                  0.8                    !
 ! A22   A(12,11,13)            -0.0257                  0.8                    !
 ! A24   A(13,11,14)             0.0257                  0.8                    !
 ! D1    D(2,1,5,6)              0.0319                  1.0                    !
 ! D2    D(2,1,5,7)              0.0319                  1.0                    !
 ! D3    D(2,1,5,8)              0.0357                  1.1                    !
 ! D4    D(3,1,5,6)             -0.0181                  0.5                    !
 ! D5    D(3,1,5,7)             -0.0181                  0.5                    !
 ! D6    D(3,1,5,8)             -0.0143                  0.4                    !
 ! D7    D(4,1,5,6)             -0.0181                  0.5                    !
 ! D8    D(4,1,5,7)             -0.0181                  0.5                    !
 ! D9    D(4,1,5,8)             -0.0143                  0.4                    !
 ! D10   D(1,5,8,9)              0.0108                  0.3                    !
 ! D11   D(1,5,8,10)             0.0108                  0.3                    !
 ! D15   D(6,5,8,11)            -0.0108                  0.3                    !
 ! D18   D(7,5,8,11)            -0.0108                  0.3                    !
 ! D19   D(5,8,11,12)            0.0143                  0.4                    !
 ! D20   D(5,8,11,13)           -0.0357                  1.1                    !
 ! D21   D(5,8,11,14)            0.0143                  0.4                    !
 ! D22   D(9,8,11,12)            0.0181                  0.5                    !
 ! D23   D(9,8,11,13)           -0.0319                  1.0                    !
 ! D24   D(9,8,11,14)            0.0181                  0.5                    !
 ! D25   D(10,8,11,12)           0.0181                  0.5                    !
 ! D26   D(10,8,11,13)          -0.0319                  1.0                    !
 ! D27   D(10,8,11,14)           0.0181                  0.5                    !
 --------------------------------------------------------------------------------
                           ----------------------------
                           ! Normal Mode    34        !
 --------------------------                            --------------------------
 ! Name  Definition              Value          Relative Weight (%)             !
 --------------------------------------------------------------------------------
 ! R2    R(1,3)                 -0.5065                 13.9                    !
 ! R3    R(1,4)                  0.5065                 13.9                    !
 ! R5    R(5,6)                 -0.2162                  5.9                    !
 ! R6    R(5,7)                  0.2162                  5.9                    !
 ! R8    R(8,9)                 -0.2162                  5.9                    !
 ! R9    R(8,10)                 0.2162                  5.9                    !
 ! R11   R(11,12)               -0.5065                 13.9                    !
 ! R13   R(11,14)                0.5065                 13.9                    !
 ! A1    A(2,1,3)                0.0249                  0.7                    !
 ! A2    A(2,1,4)               -0.0249                  0.7                    !
 ! A5    A(3,1,5)                0.0189                  0.5                    !
 ! A6    A(4,1,5)               -0.0189                  0.5                    !
 ! A19   A(8,11,12)              0.0189                  0.5                    !
 ! A21   A(8,11,14)             -0.0189                  0.5                    !
 ! A22   A(12,11,13)             0.0249                  0.7                    !
 ! A24   A(13,11,14)            -0.0249                  0.7                    !
 ! D1    D(2,1,5,6)              0.0252                  0.7                    !
 ! D2    D(2,1,5,7)              0.0252                  0.7                    !
 ! D3    D(2,1,5,8)              0.0246                  0.7                    !
 ! D4    D(3,1,5,6)             -0.0192                  0.5                    !
 ! D5    D(3,1,5,7)             -0.0192                  0.5                    !
 ! D6    D(3,1,5,8)             -0.0198                  0.5                    !
 ! D7    D(4,1,5,6)             -0.0192                  0.5                    !
 ! D8    D(4,1,5,7)             -0.0192                  0.5                    !
 ! D9    D(4,1,5,8)             -0.0198                  0.5                    !
 ! D10   D(1,5,8,9)              0.0196                  0.5                    !
 ! D11   D(1,5,8,10)             0.0196                  0.5                    !
 ! D12   D(1,5,8,11)             0.0252                  0.7                    !
 ! D13   D(6,5,8,9)              0.0139                  0.4                    !
 ! D14   D(6,5,8,10)             0.0139                  0.4                    !
 ! D15   D(6,5,8,11)             0.0196                  0.5                    !
 ! D16   D(7,5,8,9)              0.0139                  0.4                    !
 ! D17   D(7,5,8,10)             0.0139                  0.4                    !
 ! D18   D(7,5,8,11)             0.0196                  0.5                    !
 ! D19   D(5,8,11,12)           -0.0198                  0.5                    !
 ! D20   D(5,8,11,13)            0.0246                  0.7                    !
 ! D21   D(5,8,11,14)           -0.0198                  0.5                    !
 ! D22   D(9,8,11,12)           -0.0192                  0.5                    !
 ! D23   D(9,8,11,13)            0.0252                  0.7                    !
 ! D24   D(9,8,11,14)           -0.0192                  0.5                    !
 ! D25   D(10,8,11,12)          -0.0192                  0.5                    !
 ! D26   D(10,8,11,13)           0.0252                  0.7                    !
 ! D27   D(10,8,11,14)          -0.0192                  0.5                    !
 --------------------------------------------------------------------------------
                           ----------------------------
                           ! Normal Mode    35        !
 --------------------------                            --------------------------
 ! Name  Definition              Value          Relative Weight (%)             !
 --------------------------------------------------------------------------------
 ! R1    R(1,2)                 -0.6794                 20.2                    !
 ! R2    R(1,3)                  0.2653                  7.9                    !
 ! R3    R(1,4)                  0.2653                  7.9                    !
 ! R5    R(5,6)                 -0.0398                  1.2                    !
 ! R6    R(5,7)                 -0.0398                  1.2                    !
 ! R8    R(8,9)                 -0.0398                  1.2                    !
 ! R9    R(8,10)                -0.0398                  1.2                    !
 ! R11   R(11,12)                0.2653                  7.9                    !
 ! R12   R(11,13)               -0.6794                 20.2                    !
 ! R13   R(11,14)                0.2653                  7.9                    !
 ! A3    A(2,1,5)                0.0319                  0.9                    !
 ! A4    A(3,1,4)               -0.0278                  0.8                    !
 ! A20   A(8,11,13)              0.0319                  0.9                    !
 ! A23   A(12,11,14)            -0.0278                  0.8                    !
 ! D4    D(3,1,5,6)             -0.0349                  1.0                    !
 ! D5    D(3,1,5,7)             -0.0242                  0.7                    !
 ! D6    D(3,1,5,8)             -0.0295                  0.9                    !
 ! D7    D(4,1,5,6)              0.0242                  0.7                    !
 ! D8    D(4,1,5,7)              0.0349                  1.0                    !
 ! D9    D(4,1,5,8)              0.0295                  0.9                    !
 ! D19   D(5,8,11,12)           -0.0295                  0.9                    !
 ! D21   D(5,8,11,14)            0.0295                  0.9                    !
 ! D22   D(9,8,11,12)           -0.0349                  1.0                    !
 ! D24   D(9,8,11,14)            0.0242                  0.7                    !
 ! D25   D(10,8,11,12)          -0.0242                  0.7                    !
 ! D27   D(10,8,11,14)           0.0349                  1.0                    !
 --------------------------------------------------------------------------------
                           ----------------------------
                           ! Normal Mode    36        !
 --------------------------                            --------------------------
 ! Name  Definition              Value          Relative Weight (%)             !
 --------------------------------------------------------------------------------
 ! R1    R(1,2)                 -0.6719                 19.8                    !
 ! R2    R(1,3)                  0.2726                  8.0                    !
 ! R3    R(1,4)                  0.2726                  8.0                    !
 ! R5    R(5,6)                 -0.0523                  1.5                    !
 ! R6    R(5,7)                 -0.0523                  1.5                    !
 ! R8    R(8,9)                  0.0523                  1.5                    !
 ! R9    R(8,10)                 0.0523                  1.5                    !
 ! R11   R(11,12)               -0.2726                  8.0                    !
 ! R12   R(11,13)                0.6719                 19.8                    !
 ! R13   R(11,14)               -0.2726                  8.0                    !
 ! A3    A(2,1,5)                0.0322                  0.9                    !
 ! A4    A(3,1,4)               -0.0282                  0.8                    !
 ! A20   A(8,11,13)             -0.0322                  0.9                    !
 ! A23   A(12,11,14)             0.0282                  0.8                    !
 ! D4    D(3,1,5,6)             -0.034                   1.0                    !
 ! D5    D(3,1,5,7)             -0.0247                  0.7                    !
 ! D6    D(3,1,5,8)             -0.0293                  0.9                    !
 ! D7    D(4,1,5,6)              0.0247                  0.7                    !
 ! D8    D(4,1,5,7)              0.034                   1.0                    !
 ! D9    D(4,1,5,8)              0.0293                  0.9                    !
 ! D19   D(5,8,11,12)            0.0293                  0.9                    !
 ! D21   D(5,8,11,14)           -0.0293                  0.9                    !
 ! D22   D(9,8,11,12)            0.034                   1.0                    !
 ! D24   D(9,8,11,14)           -0.0247                  0.7                    !
 ! D25   D(10,8,11,12)           0.0247                  0.7                    !
 ! D27   D(10,8,11,14)          -0.034                   1.0                    !
 --------------------------------------------------------------------------------
 Max01P=     43 Av01P=   25.64 Stan. Dev.=   10.06
 Max05P=     18 Av05P=    4.58 Stan. Dev.=    3.39
 Max10P=      6 Av10P=    1.25 Stan. Dev.=    1.95
 MaxNDP=     93 AvNDP=   56.78 Stan. Dev.=   20.01
 ***** Axes restored to original set *****
 -------------------------------------------------------------------
 Center     Atomic                   Forces (Hartrees/Bohr)
 Number     Number              X              Y              Z
 -------------------------------------------------------------------
      1        6           0.000000606   -0.000000828    0.000000512
      2        1           0.000000645   -0.000000848    0.000000564
      3        1           0.000000652   -0.000000452   -0.000000218
      4        1          -0.000000183   -0.000000747    0.000000292
      5        6           0.000001046    0.000000344    0.000001907
      6        1           0.000000324    0.000000447   -0.000000505
      7        1          -0.000000731    0.000000074    0.000000141
      8        6          -0.000001046   -0.000000344   -0.000001907
      9        1           0.000000731   -0.000000074   -0.000000141
     10        1          -0.000000324   -0.000000447    0.000000505
     11        6          -0.000000606    0.000000828   -0.000000512
     12        1           0.000000183    0.000000747   -0.000000292
     13        1          -0.000000645    0.000000848   -0.000000564
     14        1          -0.000000652    0.000000452    0.000000218
 -------------------------------------------------------------------
 Cartesian Forces:  Max     0.000001907 RMS     0.000000693
 Red2BG is reusing G-inverse.
 Leave Link  716 at Wed Aug 12 19:06:34 2026, MaxMem= 12884901888 cpu:               4.8 elap:               0.1
 (Enter /home/falbo/g16/l9999.exe)
 Dipole is zero, so no output in dipole orientation.

 ----------------------------------------------------------------------

 Electric dipole moment (input orientation):
 (Debye = 10**-18 statcoulomb cm , SI units = C m)
                  (au)            (Debye)         (10**-30 SI)
   Tot        0.000000D+00      0.000000D+00      0.000000D+00
   x          0.000000D+00      0.000000D+00      0.000000D+00
   y          0.000000D+00      0.000000D+00      0.000000D+00
   z          0.000000D+00      0.000000D+00      0.000000D+00

 Dipole polarizability, Alpha (input orientation).
 (esu units = cm**3 , SI units = C**2 m**2 J**-1)
 Alpha(0;0):
               (au)            (10**-24 esu)      (10**-40 SI)
   iso        0.473636D+02      0.701856D+01      0.780921D+01
   aniso      0.853852D+01      0.126528D+01      0.140781D+01
   xx         0.443582D+02      0.657321D+01      0.731369D+01
   yx         0.227014D+00      0.336401D-01      0.374296D-01
   yy         0.496561D+02      0.735827D+01      0.818718D+01
   zx         0.137587D+01      0.203884D+00      0.226851D+00
   zy         0.386776D+01      0.573143D+00      0.637708D+00
   zz         0.480765D+02      0.712421D+01      0.792675D+01

 ----------------------------------------------------------------------
 1\1\GINC-WN01\Freq\RM052X\6-31+G(d)\C4H10\FALBO\12-Aug-2026\0\\#p m052
 x/6-31+G(d) opt(calcall,tight,maxstep=7) freq=intmodes\\HessFit high-l
 evel Opt+Freq starting from 01_conf_000\\0,1\C,-2.4922827922,0.3557254
 578,-0.0048680992\H,-2.1383262114,-0.6770549199,-0.0224753329\H,-2.142
 9207121,0.8470280366,-0.916730078\H,-3.584865982,0.3377972465,-0.03427
 74172\C,-1.9960779867,1.0986467846,1.2346528803\H,-0.901236951,1.08511
 96628,1.2600601654\H,-2.3346424962,0.5789047228,2.1372866203\C,-2.4798
 972816,2.547491366,1.2801571085\H,-2.141332772,3.0672334278,0.37752336
 85\H,-3.5747383172,2.5610184878,1.2547498234\C,-1.983692476,3.29041269
 28,2.519678088\H,-0.8911092862,3.3083409041,2.549087406\H,-2.337649056
 9,4.3231930705,2.5372853217\H,-2.3330545561,2.799110114,3.4315400668\\
 Version=ES64L-G16RevB.01\State=1-AG\HF=-158.418725\RMSD=6.476e-09\RMSF
 =6.932e-07\ZeroPoint=0.1345701\Thermal=0.1403279\Dipole=0.,0.,0.\Dipol
 eDeriv=0.1099528,0.0060027,-0.0191355,-0.0126868,0.0331394,-0.0730378,
 -0.0299205,-0.0424987,0.0503682,0.0482176,0.07788,-0.0047494,0.0552821
 ,-0.1758382,-0.056511,-0.0177898,-0.0195856,0.038257,0.036109,-0.04807
 54,0.0633578,-0.0467071,0.0102916,0.1164199,0.0362294,0.0444695,-0.112
 9828,-0.1729396,-0.0275182,-0.0382233,0.0227154,0.0681407,-0.0071207,0
 .0186827,-0.0194889,0.0382167,0.1432831,0.0103443,-0.0309996,0.0199941
 ,0.0748432,-0.0198791,-0.025431,-0.0356472,0.1037821,-0.1958535,0.0167
 909,-0.0338838,-0.021655,0.0172605,-0.0202527,-0.0213252,-0.0148916,0.
 0321727,0.0312306,-0.0354243,0.0636337,-0.0169427,-0.0278371,0.0603813
 ,0.0395544,0.0876424,-0.1498139,0.1432831,0.0103443,-0.0309996,0.01999
 41,0.0748432,-0.0198791,-0.025431,-0.0356471,0.1037821,0.0312306,-0.03
 54243,0.0636337,-0.0169427,-0.0278371,0.0603813,0.0395544,0.0876424,-0
 .1498139,-0.1958535,0.0167909,-0.0338838,-0.021655,0.0172605,-0.020252
 7,-0.0213251,-0.0148916,0.0321726,0.1099528,0.0060027,-0.0191355,-0.01
 26868,0.0331394,-0.0730378,-0.0299205,-0.0424987,0.0503682,-0.1729396,
 -0.0275182,-0.0382233,0.0227154,0.0681407,-0.0071207,0.0186827,-0.0194
 889,0.0382167,0.0482176,0.07788,-0.0047494,0.0552821,-0.1758382,-0.056
 511,-0.0177898,-0.0195856,0.038257,0.036109,-0.0480754,0.0633578,-0.04
 67071,0.0102916,0.1164199,0.0362294,0.0444695,-0.1129827\Polar=44.3582
 392,0.2270143,49.656068,1.3758746,3.8677606,48.0765406\PG=C02H [SGH(C4
 H2),X(H8)]\NImag=0\\0.57881040,-0.01819733,0.57629349,-0.02611693,-0.0
 3670207,0.52451216,-0.08019705,0.08621471,0.00102268,0.08243473,0.0857
 0503,-0.29541258,-0.00135797,-0.09392019,0.32008986,0.00072856,-0.0005
 2515,-0.04948828,0.00066080,0.00304815,0.05170064,-0.07972784,-0.03998
 634,0.07419007,0.00358268,0.00486267,-0.01087559,0.08163485,-0.0400882
 7,-0.10661626,0.10342663,-0.01184628,-0.01379216,0.02659964,0.04572780
 ,0.11269057,0.07371182,0.10284862,-0.23438137,-0.00104761,0.00009767,0
 .00111223,-0.07967426,-0.11153618,0.25721377,-0.32103691,-0.00315359,-
 0.00369883,-0.01003590,0.00016269,0.00031070,-0.01009887,0.00011456,0.
 00033695,0.34918796,-0.00276858,-0.05033315,0.00092721,0.03299304,0.00
 208176,0.00016569,-0.01645846,-0.00066358,-0.00105275,0.00410575,0.049
 92358,-0.00305723,0.00104267,-0.04935541,-0.00021423,0.00032497,-0.001
 14311,0.02874711,-0.00116203,0.00123855,0.00576845,0.00193594,0.052427
 65,-0.09646863,-0.01932722,-0.03496190,0.00355090,0.00529026,0.0112278
 4,0.00403610,0.00646925,0.00969630,-0.01104100,-0.01701160,-0.03021193
 ,0.59417005,-0.02053368,-0.10900859,-0.04919701,-0.01267833,-0.0134189
 1,-0.02762224,0.00588683,0.00757630,0.01281758,-0.00021367,-0.00099011
 ,-0.00080137,0.01512663,0.49966277,-0.03565810,-0.04722564,-0.16741612
 ,0.00085883,0.00173880,0.00095463,-0.01082976,-0.01465013,-0.02420252,
 -0.00032850,0.00016987,-0.00055900,-0.02111096,-0.04035759,0.55464715,
 -0.00966596,-0.00040746,-0.00013179,0.00032025,-0.00057279,-0.00007172
 ,0.00042722,0.00034470,-0.00044170,0.00102939,-0.00103889,-0.00194175,
 -0.31350681,0.00164119,-0.00246560,0.34143415,-0.01792473,-0.00049097,
 -0.00043181,-0.00004911,0.00013283,0.00073400,0.00081165,0.00050945,0.
 00032219,-0.00089527,-0.00118291,-0.00345539,0.00136060,-0.04911361,0.
 00179070,-0.00286371,0.05569316,-0.02956919,-0.00049698,-0.00107173,0.
 00067381,0.00026813,0.00108544,0.00020548,0.00093972,0.00097030,-0.002
 27240,-0.00306202,-0.00456266,-0.00139708,0.00180711,-0.05114574,0.004
 26716,0.00179150,0.05361751,0.00366981,0.00566050,-0.01050310,0.000141
 19,0.00023283,0.00076325,0.00016272,-0.00091044,-0.00263572,0.00056846
 ,0.00073898,0.00022133,-0.07982126,-0.04047469,0.07006668,-0.01088366,
 -0.01650415,0.02835788,0.08157994,0.00599175,0.00843498,-0.01584887,0.
 00056607,0.00065693,0.00061369,-0.00139877,-0.00120727,-0.00357964,0.0
 0018778,0.00041076,0.00096867,-0.04003963,-0.10775275,0.10324799,-0.00
 041620,-0.00011696,-0.00079498,0.04355890,0.12089065,0.00901689,0.0122
 9861,-0.02333345,0.00051222,-0.00032067,0.00074040,-0.00250400,-0.0034
 0973,-0.00367163,-0.00047448,0.00048882,0.00092776,0.06908731,0.102979
 15,-0.22619215,0.00089527,-0.00064792,0.00066110,-0.07525555,-0.110863
 88,0.24827423,0.00423965,-0.01164393,0.00106194,-0.00077465,-0.0023272
 5,-0.00293298,0.00002516,0.00053288,0.00027218,0.00048461,-0.00150043,
 -0.00055064,-0.09643528,0.03978881,-0.00000579,-0.01210517,0.03470544,
 0.00006436,0.00364632,-0.01142381,-0.00023863,0.59417005,0.00388751,-0
 .01937486,-0.00452681,-0.00058528,0.00002883,-0.00105422,0.00037945,0.
 00172677,0.00173928,0.00066400,0.00105188,0.00137386,0.03978881,-0.189
 91062,0.00296382,0.00058570,-0.00215974,0.00010812,0.00652554,-0.01831
 736,-0.00022968,0.01512663,0.49966277,0.01002456,-0.02990549,-0.001399
 38,-0.00192776,-0.00390063,-0.00520248,0.00034620,-0.00079175,0.000732
 26,0.00053581,0.00061888,0.00094770,-0.00000580,0.00296382,-0.08067925
 ,0.00024737,-0.00090100,-0.00044560,-0.00975298,0.02720218,-0.00003948
 ,-0.02111096,-0.04035759,0.55464714,0.00004039,-0.00052646,-0.00018216
 ,-0.00012765,-0.00005378,-0.00023931,0.00017369,-0.00031897,0.00004307
 ,-0.00008551,-0.00002472,0.00018912,0.00364632,0.00652554,-0.00975298,
 0.00059279,-0.00061586,-0.00058517,0.00034276,0.00271233,-0.00048733,-
 0.07982126,-0.04047469,0.07006668,0.08157994,-0.00036226,0.00142473,0.
 00160432,0.00029752,0.00048075,-0.00027173,0.00010101,-0.00013712,-0.0
 0133184,-0.00003550,-0.00004555,-0.00007782,-0.01142382,-0.01831736,0.
 02720218,0.00026082,0.00143666,-0.00024184,0.00271233,-0.00615846,-0.0
 0062623,-0.04003963,-0.10775275,0.10324799,0.04355890,0.12089065,-0.00
 025351,-0.00050625,0.00105209,-0.00009647,0.00004448,0.00026367,0.0003
 1009,0.00037617,0.00035349,-0.00006784,0.00007259,-0.00002275,-0.00023
 863,-0.00022967,-0.00003948,-0.00044397,0.00034454,0.00003382,-0.00048
 733,-0.00062623,0.00095289,0.06908731,0.10297915,-0.22619215,-0.075255
 55,-0.11086388,0.24827423,0.00057856,-0.00068676,-0.00022059,0.0004855
 2,0.00006151,0.00001819,-0.00007534,0.00006593,-0.00000514,0.00046151,
 0.00058912,0.00070951,-0.01210517,0.00058570,0.00024737,0.00090757,0.0
 0243684,-0.00041524,0.00059279,0.00026082,-0.00044397,-0.31350681,0.00
 164118,-0.00246560,-0.01088366,-0.00041620,0.00089527,0.34143415,0.000
 93356,0.00175863,0.00091403,-0.00033125,0.00022295,0.00033652,-0.00012
 555,-0.00004660,-0.00008912,-0.00093846,-0.00021941,-0.00039813,0.0347
 0544,-0.00215974,-0.00090100,0.00243684,-0.00642348,-0.00031011,-0.000
 61586,0.00143666,0.00034454,0.00136060,-0.04911361,0.00179070,-0.01650
 415,-0.00011696,-0.00064792,-0.00286371,0.05569316,0.00088054,0.000108
 66,0.00018002,-0.00014857,0.00008805,-0.00009168,0.00013510,0.00009097
 ,-0.00003186,-0.00019667,-0.00029632,0.00014797,0.00006436,0.00010811,
 -0.00044560,-0.00041524,-0.00031011,0.00065311,-0.00058517,-0.00024184
 ,0.00003382,-0.00139708,0.00180711,-0.05114574,0.02835788,-0.00079498,
 0.00066110,0.00426716,0.00179150,0.05361751,-0.00142012,0.00256725,-0.
 00012983,0.00069529,0.00077100,0.00058992,-0.00004300,-0.00009409,-0.0
 0022934,0.00052541,0.00011283,0.00006184,0.00423966,0.00388751,0.01002
 456,0.00057856,0.00093356,0.00088054,0.00004039,-0.00036226,-0.0002535
 1,-0.09646864,-0.02053368,-0.03565810,0.00366981,0.00599175,0.00901689
 ,-0.00966596,-0.01792473,-0.02956919,0.57881040,0.00256725,-0.00581869
 ,0.00108765,-0.00059226,-0.00082156,-0.00179188,0.00022629,0.00004731,
 -0.00034355,-0.00014740,-0.00008247,0.00011081,-0.01164393,-0.01937486
 ,-0.02990550,-0.00068676,0.00175863,0.00010866,-0.00052646,0.00142473,
 -0.00050625,-0.01932722,-0.10900859,-0.04722564,0.00566050,0.00843498,
 0.01229861,-0.00040746,-0.00049097,-0.00049698,-0.01819733,0.57629349,
 -0.00012983,0.00108765,-0.00001853,-0.00019677,0.00043572,0.00053646,-
 0.00010523,-0.00017734,0.00031109,-0.00002755,-0.00015369,-0.00012754,
 0.00106194,-0.00452681,-0.00139938,-0.00022059,0.00091403,0.00018002,-
 0.00018216,0.00160432,0.00105209,-0.03496190,-0.04919701,-0.16741612,-
 0.01050310,-0.01584887,-0.02333345,-0.00013179,-0.00043181,-0.00107173
 ,-0.02611693,-0.03670207,0.52451216,0.00052542,-0.00014740,-0.00002755
 ,0.00000809,-0.00009788,-0.00006897,-0.00003874,0.00003559,-0.00000888
 ,0.00007151,0.00021139,0.00019221,0.00048461,0.00066400,0.00053581,0.0
 0046151,-0.00093846,-0.00019667,-0.00008551,-0.00003550,-0.00006784,-0
 .01104100,-0.00021367,-0.00032851,0.00056846,0.00018778,-0.00047448,0.
 00102939,-0.00089527,-0.00227240,-0.32103691,-0.00315359,-0.00369883,0
 .34918796,0.00011283,-0.00008247,-0.00015369,0.00006377,0.00000101,0.0
 0001633,-0.00001219,0.00002060,0.00006246,0.00021139,0.00002760,0.0001
 0699,-0.00150043,0.00105188,0.00061888,0.00058912,-0.00021941,-0.00029
 632,-0.00002472,-0.00004555,0.00007259,-0.01701161,-0.00099012,0.00016
 987,0.00073898,0.00041076,0.00048882,-0.00103889,-0.00118291,-0.003062
 02,-0.00276858,-0.05033315,0.00092721,0.00410575,0.04992358,0.00006184
 ,0.00011082,-0.00012754,0.00012357,0.00000766,0.00003336,-0.00003735,0
 .00002317,-0.00003353,0.00019221,0.00010699,0.00008101,-0.00055064,0.0
 0137386,0.00094770,0.00070951,-0.00039813,0.00014797,0.00018912,-0.000
 07782,-0.00002275,-0.03021194,-0.00080137,-0.00055900,0.00022133,0.000
 96867,0.00092776,-0.00194175,-0.00345539,-0.00456266,-0.00305723,0.001
 04267,-0.04935541,0.00576845,0.00193594,0.05242765,0.00069529,-0.00059
 226,-0.00019677,-0.00007728,-0.00012635,-0.00019869,-0.00000612,-0.000
 00605,-0.00002179,0.00000809,0.00006377,0.00012357,-0.00077465,-0.0005
 8528,-0.00192776,0.00048552,-0.00033125,-0.00014857,-0.00012765,0.0002
 9752,-0.00009647,0.00355090,-0.01267833,0.00085883,0.00014119,0.000566
 07,0.00051222,0.00032025,-0.00004911,0.00067381,-0.08019705,0.08621471
 ,0.00102268,-0.01003590,0.03299304,-0.00021423,0.08243473,0.00077100,-
 0.00082156,0.00043572,-0.00012636,-0.00026674,-0.00036021,0.00001224,0
 .00001702,-0.00011414,-0.00009788,0.00000101,0.00000766,-0.00232725,0.
 00002883,-0.00390063,0.00006151,0.00022295,0.00008805,-0.00005378,0.00
 048075,0.00004448,0.00529026,-0.01341891,0.00173880,0.00023283,0.00065
 693,-0.00032067,-0.00057279,0.00013283,0.00026813,0.08570503,-0.295412
 58,-0.00135797,0.00016269,0.00208176,0.00032497,-0.09392019,0.32008986
 ,0.00058992,-0.00179188,0.00053646,-0.00019869,-0.00036021,-0.00053284
 ,0.00008802,0.00011143,0.00003156,-0.00006897,0.00001633,0.00003336,-0
 .00293298,-0.00105423,-0.00520248,0.00001819,0.00033652,-0.00009168,-0
 .00023931,-0.00027173,0.00026367,0.01122784,-0.02762224,0.00095463,0.0
 0076325,0.00061369,0.00074040,-0.00007172,0.00073400,0.00108544,0.0007
 2856,-0.00052515,-0.04948828,0.00031070,0.00016569,-0.00114311,0.00066
 080,0.00304815,0.05170064,-0.00004299,0.00022629,-0.00010523,-0.000006
 12,0.00001224,0.00008802,-0.00005250,-0.00002661,0.00000413,-0.0000387
 4,-0.00001219,-0.00003735,0.00002516,0.00037945,0.00034620,-0.00007534
 ,-0.00012555,0.00013510,0.00017369,0.00010101,0.00031009,0.00403610,0.
 00588683,-0.01082976,0.00016272,-0.00139877,-0.00250400,0.00042722,0.0
 0081165,0.00020548,-0.07972784,-0.03998634,0.07419007,-0.01009887,-0.0
 1645846,0.02874711,0.00358268,0.00486267,-0.01087559,0.08163485,-0.000
 09409,0.00004731,-0.00017734,-0.00000605,0.00001702,0.00011143,-0.0000
 2661,-0.00012504,0.00015943,0.00003559,0.00002060,0.00002317,0.0005328
 8,0.00172677,-0.00079175,0.00006593,-0.00004660,0.00009097,-0.00031897
 ,-0.00013712,0.00037617,0.00646924,0.00757630,-0.01465013,-0.00091044,
 -0.00120727,-0.00340973,0.00034470,0.00050945,0.00093972,-0.04008827,-
 0.10661626,0.10342663,0.00011456,-0.00066358,-0.00116203,-0.01184628,-
 0.01379216,0.02659964,0.04572780,0.11269057,-0.00022934,-0.00034355,0.
 00031109,-0.00002179,-0.00011414,0.00003156,0.00000413,0.00015943,0.00
 035766,-0.00000888,0.00006246,-0.00003353,0.00027218,0.00173928,0.0007
 3226,-0.00000514,-0.00008912,-0.00003186,0.00004307,-0.00133184,0.0003
 5349,0.00969630,0.01281758,-0.02420252,-0.00263572,-0.00357964,-0.0036
 7163,-0.00044170,0.00032219,0.00097030,0.07371182,0.10284862,-0.234381
 37,0.00033695,-0.00105275,0.00123855,-0.00104761,0.00009767,0.00111223
 ,-0.07967426,-0.11153618,0.25721377\\-0.00000061,0.00000083,-0.0000005
 1,-0.00000064,0.00000085,-0.00000056,-0.00000065,0.00000045,0.00000022
 ,0.00000018,0.00000075,-0.00000029,-0.00000105,-0.00000034,-0.00000191
 ,-0.00000032,-0.00000045,0.00000050,0.00000073,-0.00000007,-0.00000014
 ,0.00000105,0.00000034,0.00000191,-0.00000073,0.00000007,0.00000014,0.
 00000032,0.00000045,-0.00000050,0.00000061,-0.00000083,0.00000051,-0.0
 0000018,-0.00000075,0.00000029,0.00000064,-0.00000085,0.00000056,0.000
 00065,-0.00000045,-0.00000022\\\@


 KNIGHT- SIRE, I'VE JUST RETURNED FROM THE FRONT
 KING-   HOW GOES THE BATTLE                    
 KNIGHT- THE SITUATION IS QUITE FLUID           
 KING-   WHAT DOES *THAT* MEAN                  
 KNIGHT- WE'RE UP THE CREEK                     
                THE WIZARD OF ID                
 Leave Link 9999 at Wed Aug 12 19:06:34 2026, MaxMem= 12884901888 cpu:               1.0 elap:               0.0
 Job cpu time:       0 days  0 hours 22 minutes 50.6 seconds.
 Elapsed time:       0 days  0 hours  0 minutes 30.5 seconds.
 File lengths (MBytes):  RWF=     87 Int=      0 D2E=      0 Chk=      3 Scr=      2
 Normal termination of Gaussian 16 at Wed Aug 12 19:06:34 2026.
 (Enter /home/falbo/g16/l1.exe)
 Link1:  Proceeding to internal job step number  2.
 ---------------------------------------------------------------------
 #P Geom=AllCheck Guess=TCheck SCRF=Check GenChk RM052X/6-31+G(d) Freq
 ---------------------------------------------------------------------
 1/7=10,8=7,10=4,18=20,29=7,30=1,38=1,40=1/1,3;
 2/9=110,12=2,40=1/2;
 3/5=1,6=6,7=11,11=2,14=-4,25=1,30=1,70=2,71=2,74=-38,116=1,140=1/1,2,3;
 4/5=101/1;
 5/5=2,38=6,98=1/2;
 8/6=4,10=90,11=11/1;
 11/6=1,8=1,9=11,15=111,16=1/1,2,10;
 10/6=1/2;
 6/7=2,8=2,9=2,10=2,28=1/1;
 7/8=21,10=1,25=1/1,2,3,16;
 1/7=10,8=7,10=4,18=20,30=1/3;
 99//99;
 Leave Link    1 at Wed Aug 12 19:06:35 2026, MaxMem= 12884901888 cpu:               1.2 elap:               0.0
 (Enter /home/falbo/g16/l101.exe)
 Structure from the checkpoint file:  "01_conf_000.chk"
 -----------------------------------------------------
 HessFit high-level Opt+Freq starting from 01_conf_000
 -----------------------------------------------------
 Charge =  0 Multiplicity = 1
 Redundant internal coordinates found in file.  (old form).
 C,0,-2.4922827922,0.3557254578,-0.0048680992
 H,0,-2.1383262114,-0.6770549199,-0.0224753329
 H,0,-2.1429207121,0.8470280366,-0.916730078
 H,0,-3.584865982,0.3377972465,-0.0342774172
 C,0,-1.9960779867,1.0986467846,1.2346528803
 H,0,-0.901236951,1.0851196628,1.2600601654
 H,0,-2.3346424962,0.5789047228,2.1372866203
 C,0,-2.4798972816,2.547491366,1.2801571085
 H,0,-2.141332772,3.0672334278,0.3775233685
 H,0,-3.5747383172,2.5610184878,1.2547498234
 C,0,-1.983692476,3.2904126928,2.519678088
 H,0,-0.8911092862,3.3083409041,2.549087406
 H,0,-2.3376490569,4.3231930705,2.5372853217
 H,0,-2.3330545561,2.799110114,3.4315400668
 Recover connectivity data from disk.
 ITRead=  0  0  0  0  0  0  0  0  0  0  0  0  0  0
 MicOpt= -1 -1 -1 -1 -1 -1 -1 -1 -1 -1 -1 -1 -1 -1
 NAtoms=     14 NQM=       14 NQMF=       0 NMMI=      0 NMMIF=      0
                NMic=       0 NMicF=      0.
                    Isotopes and Nuclear Properties:
 (Nuclear quadrupole moments (NQMom) in fm**2, nuclear magnetic moments (NMagM)
  in nuclear magnetons)

  Atom         1           2           3           4           5           6           7           8           9          10
 IAtWgt=          12           1           1           1          12           1           1          12           1           1
 AtmWgt=  12.0000000   1.0078250   1.0078250   1.0078250  12.0000000   1.0078250   1.0078250  12.0000000   1.0078250   1.0078250
 NucSpn=           0           1           1           1           0           1           1           0           1           1
 AtZEff=   3.6000000   1.0000000   1.0000000   1.0000000   3.6000000   1.0000000   1.0000000   3.6000000   1.0000000   1.0000000
 NQMom=    0.0000000   0.0000000   0.0000000   0.0000000   0.0000000   0.0000000   0.0000000   0.0000000   0.0000000   0.0000000
 NMagM=    0.0000000   2.7928460   2.7928460   2.7928460   0.0000000   2.7928460   2.7928460   0.0000000   2.7928460   2.7928460
 AtZNuc=   6.0000000   1.0000000   1.0000000   1.0000000   6.0000000   1.0000000   1.0000000   6.0000000   1.0000000   1.0000000

  Atom        11          12          13          14
 IAtWgt=          12           1           1           1
 AtmWgt=  12.0000000   1.0078250   1.0078250   1.0078250
 NucSpn=           0           1           1           1
 AtZEff=   3.6000000   1.0000000   1.0000000   1.0000000
 NQMom=    0.0000000   0.0000000   0.0000000   0.0000000
 NMagM=    0.0000000   2.7928460   2.7928460   2.7928460
 AtZNuc=   6.0000000   1.0000000   1.0000000   1.0000000
 Leave Link  101 at Wed Aug 12 19:06:35 2026, MaxMem= 12884901888 cpu:              15.6 elap:               0.3
 (Enter /home/falbo/g16/l103.exe)

 GradGradGradGradGradGradGradGradGradGradGradGradGradGradGradGradGradGrad
 Berny optimization.
 Initialization pass.
                           ----------------------------
                           !    Initial Parameters    !
                           ! (Angstroms and Degrees)  !
 --------------------------                            --------------------------
 ! Name  Definition              Value          Derivative Info.                !
 --------------------------------------------------------------------------------
 ! R1    R(1,2)                  1.0919         calculate D2E/DX2 analytically  !
 ! R2    R(1,3)                  1.0931         calculate D2E/DX2 analytically  !
 ! R3    R(1,4)                  1.0931         calculate D2E/DX2 analytically  !
 ! R4    R(1,5)                  1.5279         calculate D2E/DX2 analytically  !
 ! R5    R(5,6)                  1.0952         calculate D2E/DX2 analytically  !
 ! R6    R(5,7)                  1.0952         calculate D2E/DX2 analytically  !
 ! R7    R(5,8)                  1.5282         calculate D2E/DX2 analytically  !
 ! R8    R(8,9)                  1.0952         calculate D2E/DX2 analytically  !
 ! R9    R(8,10)                 1.0952         calculate D2E/DX2 analytically  !
 ! R10   R(8,11)                 1.5279         calculate D2E/DX2 analytically  !
 ! R11   R(11,12)                1.0931         calculate D2E/DX2 analytically  !
 ! R12   R(11,13)                1.0919         calculate D2E/DX2 analytically  !
 ! R13   R(11,14)                1.0931         calculate D2E/DX2 analytically  !
 ! A1    A(2,1,3)              107.9424         calculate D2E/DX2 analytically  !
 ! A2    A(2,1,4)              107.9424         calculate D2E/DX2 analytically  !
 ! A3    A(2,1,5)              111.5745         calculate D2E/DX2 analytically  !
 ! A4    A(3,1,4)              107.7202         calculate D2E/DX2 analytically  !
 ! A5    A(3,1,5)              110.7564         calculate D2E/DX2 analytically  !
 ! A6    A(4,1,5)              110.7564         calculate D2E/DX2 analytically  !
 ! A7    A(1,5,6)              109.7221         calculate D2E/DX2 analytically  !
 ! A8    A(1,5,7)              109.7221         calculate D2E/DX2 analytically  !
 ! A9    A(1,5,8)              112.4779         calculate D2E/DX2 analytically  !
 ! A10   A(6,5,7)              106.5016         calculate D2E/DX2 analytically  !
 ! A11   A(6,5,8)              109.1177         calculate D2E/DX2 analytically  !
 ! A12   A(7,5,8)              109.1177         calculate D2E/DX2 analytically  !
 ! A13   A(5,8,9)              109.1177         calculate D2E/DX2 analytically  !
 ! A14   A(5,8,10)             109.1177         calculate D2E/DX2 analytically  !
 ! A15   A(5,8,11)             112.4779         calculate D2E/DX2 analytically  !
 ! A16   A(9,8,10)             106.5016         calculate D2E/DX2 analytically  !
 ! A17   A(9,8,11)             109.7221         calculate D2E/DX2 analytically  !
 ! A18   A(10,8,11)            109.7221         calculate D2E/DX2 analytically  !
 ! A19   A(8,11,12)            110.7564         calculate D2E/DX2 analytically  !
 ! A20   A(8,11,13)            111.5745         calculate D2E/DX2 analytically  !
 ! A21   A(8,11,14)            110.7564         calculate D2E/DX2 analytically  !
 ! A22   A(12,11,13)           107.9424         calculate D2E/DX2 analytically  !
 ! A23   A(12,11,14)           107.7202         calculate D2E/DX2 analytically  !
 ! A24   A(13,11,14)           107.9424         calculate D2E/DX2 analytically  !
 ! D1    D(2,1,5,6)             58.3417         calculate D2E/DX2 analytically  !
 ! D2    D(2,1,5,7)            -58.3417         calculate D2E/DX2 analytically  !
 ! D3    D(2,1,5,8)            180.0            calculate D2E/DX2 analytically  !
 ! D4    D(3,1,5,6)            -61.9314         calculate D2E/DX2 analytically  !
 ! D5    D(3,1,5,7)           -178.6147         calculate D2E/DX2 analytically  !
 ! D6    D(3,1,5,8)             59.727          calculate D2E/DX2 analytically  !
 ! D7    D(4,1,5,6)            178.6147         calculate D2E/DX2 analytically  !
 ! D8    D(4,1,5,7)             61.9314         calculate D2E/DX2 analytically  !
 ! D9    D(4,1,5,8)            -59.727          calculate D2E/DX2 analytically  !
 ! D10   D(1,5,8,9)            -57.9984         calculate D2E/DX2 analytically  !
 ! D11   D(1,5,8,10)            57.9984         calculate D2E/DX2 analytically  !
 ! D12   D(1,5,8,11)          -180.0            calculate D2E/DX2 analytically  !
 ! D13   D(6,5,8,9)             64.0032         calculate D2E/DX2 analytically  !
 ! D14   D(6,5,8,10)           180.0            calculate D2E/DX2 analytically  !
 ! D15   D(6,5,8,11)           -57.9984         calculate D2E/DX2 analytically  !
 ! D16   D(7,5,8,9)            180.0            calculate D2E/DX2 analytically  !
 ! D17   D(7,5,8,10)           -64.0032         calculate D2E/DX2 analytically  !
 ! D18   D(7,5,8,11)            57.9984         calculate D2E/DX2 analytically  !
 ! D19   D(5,8,11,12)           59.727          calculate D2E/DX2 analytically  !
 ! D20   D(5,8,11,13)          180.0            calculate D2E/DX2 analytically  !
 ! D21   D(5,8,11,14)          -59.727          calculate D2E/DX2 analytically  !
 ! D22   D(9,8,11,12)          -61.9314         calculate D2E/DX2 analytically  !
 ! D23   D(9,8,11,13)           58.3417         calculate D2E/DX2 analytically  !
 ! D24   D(9,8,11,14)          178.6147         calculate D2E/DX2 analytically  !
 ! D25   D(10,8,11,12)        -178.6147         calculate D2E/DX2 analytically  !
 ! D26   D(10,8,11,13)         -58.3417         calculate D2E/DX2 analytically  !
 ! D27   D(10,8,11,14)          61.9314         calculate D2E/DX2 analytically  !
 --------------------------------------------------------------------------------
 Trust Radius=7.00D-02 FncErr=1.00D-07 GrdErr=1.00D-07 EigMax=2.50D+02 EigMin=1.00D-04
 Number of steps in this run=      2 maximum allowed number of steps=      2.
 GradGradGradGradGradGradGradGradGradGradGradGradGradGradGradGradGradGrad

 Leave Link  103 at Wed Aug 12 19:06:35 2026, MaxMem= 12884901888 cpu:               0.4 elap:               0.0
 (Enter /home/falbo/g16/l202.exe)
                          Input orientation:                          
 ---------------------------------------------------------------------
 Center     Atomic      Atomic             Coordinates (Angstroms)
 Number     Number       Type             X           Y           Z
 ---------------------------------------------------------------------
      1          6           0       -2.492283    0.355725   -0.004868
      2          1           0       -2.138326   -0.677055   -0.022475
      3          1           0       -2.142921    0.847028   -0.916730
      4          1           0       -3.584866    0.337797   -0.034277
      5          6           0       -1.996078    1.098647    1.234653
      6          1           0       -0.901237    1.085120    1.260060
      7          1           0       -2.334642    0.578905    2.137287
      8          6           0       -2.479897    2.547491    1.280157
      9          1           0       -2.141333    3.067233    0.377523
     10          1           0       -3.574738    2.561018    1.254750
     11          6           0       -1.983692    3.290413    2.519678
     12          1           0       -0.891109    3.308341    2.549087
     13          1           0       -2.337649    4.323193    2.537285
     14          1           0       -2.333055    2.799110    3.431540
 ---------------------------------------------------------------------
                    Distance matrix (angstroms):
                    1          2          3          4          5
     1  C    0.000000
     2  H    1.091893   0.000000
     3  H    1.093126   1.767071   0.000000
     4  H    1.093126   1.767071   1.765572   0.000000
     5  C    1.527928   2.180303   2.171019   2.171019   0.000000
     6  H    2.159511   2.506102   2.517316   3.071753   1.095219
     7  H    2.159511   2.506102   3.071753   2.517316   1.095219
     8  C    2.540724   3.494456   2.798471   2.798471   1.528170
     9  H    2.760736   3.765595   2.569904   3.114994   2.152000
    10  H    2.760736   3.765595   3.114994   2.569904   2.152000
    11  C    3.904406   4.714579   4.219524   4.219524   2.540724
    12  H    4.219524   4.904270   4.431364   4.770139   2.798471
    13  H    4.714579   5.620906   4.904270   4.904270   3.494456
    14  H    4.219524   4.904270   4.770139   4.431364   2.798471
                    6          7          8          9         10
     6  H    0.000000
     7  H    1.755116   0.000000
     8  C    2.152000   2.152000   0.000000
     9  H    2.499097   3.053836   1.095219   0.000000
    10  H    3.053836   2.499097   1.095219   1.755116   0.000000
    11  C    2.760736   2.760736   1.527928   2.159511   2.159511
    12  H    2.569904   3.114994   2.171019   2.517316   3.071753
    13  H    3.765595   3.765595   2.180303   2.506102   2.506102
    14  H    3.114994   2.569904   2.171019   3.071753   2.517316
                   11         12         13         14
    11  C    0.000000
    12  H    1.093126   0.000000
    13  H    1.091893   1.767071   0.000000
    14  H    1.093126   1.765572   1.767071   0.000000
 Stoichiometry    C4H10
 Framework group  C2H[SGH(C4H2),X(H8)]
 Deg. of freedom    11
 Full point group                 C2H     NOp   4
 RotChk:  IX=2 Diff= 7.20D-16
 Largest Abelian subgroup         C2H     NOp   4
 Largest concise Abelian subgroup C2H     NOp   4
                         Standard orientation:                         
 ---------------------------------------------------------------------
 Center     Atomic      Atomic             Coordinates (Angstroms)
 Number     Number       Type             X           Y           Z
 ---------------------------------------------------------------------
      1          6           0       -0.706035    1.820058    0.000000
      2          1           0       -1.721430    2.221559    0.000000
      3          1           0       -0.190734    2.207457   -0.882786
      4          1           0       -0.190734    2.207457    0.882786
      5          6           0       -0.706035    0.292130    0.000000
      6          1           0       -1.247145   -0.077461   -0.877558
      7          1           0       -1.247145   -0.077461    0.877558
      8          6           0        0.706035   -0.292130    0.000000
      9          1           0        1.247145    0.077461   -0.877558
     10          1           0        1.247145    0.077461    0.877558
     11          6           0        0.706035   -1.820058    0.000000
     12          1           0        0.190734   -2.207457   -0.882786
     13          1           0        1.721430   -2.221559    0.000000
     14          1           0        0.190734   -2.207457    0.882786
 ---------------------------------------------------------------------
 Rotational constants (GHZ):          23.3888494           3.6524086           3.4266691
 Leave Link  202 at Wed Aug 12 19:06:35 2026, MaxMem= 12884901888 cpu:               0.2 elap:               0.0
 (Enter /home/falbo/g16/l301.exe)
 Standard basis: 6-31+G(d) (6D, 7F)
 Ernie: Thresh=  0.10000D-02 Tol=  0.10000D-05 Strict=F.
 There are    34 symmetry adapted cartesian basis functions of AG  symmetry.
 There are    14 symmetry adapted cartesian basis functions of BG  symmetry.
 There are    14 symmetry adapted cartesian basis functions of AU  symmetry.
 There are    34 symmetry adapted cartesian basis functions of BU  symmetry.
 There are    34 symmetry adapted basis functions of AG  symmetry.
 There are    14 symmetry adapted basis functions of BG  symmetry.
 There are    14 symmetry adapted basis functions of AU  symmetry.
 There are    34 symmetry adapted basis functions of BU  symmetry.
    96 basis functions,   168 primitive gaussians,    96 cartesian basis functions
    17 alpha electrons       17 beta electrons
       nuclear repulsion energy       130.7620299794 Hartrees.
 IExCor= 3428 DFT=T Ex+Corr=M052X ExCW=0 ScaHFX=  0.560000
 ScaDFX=  0.440000  0.440000  1.000000  1.000000 ScalE2=  1.000000  1.000000
 IRadAn=      5 IRanWt=     -1 IRanGd=            0 ICorTp=0 IEmpDi=  4
 NAtoms=   14 NActive=   14 NUniq=    5 SFac= 4.00D+00 NAtFMM=   60 NAOKFM=F Big=F
 Integral buffers will be    131072 words long.
 Raffenetti 2 integral format.
 Two-electron integral symmetry is turned on.
 Leave Link  301 at Wed Aug 12 19:06:35 2026, MaxMem= 12884901888 cpu:               2.3 elap:               0.1
 (Enter /home/falbo/g16/l302.exe)
 NPDir=0 NMtPBC=     1 NCelOv=     1 NCel=       1 NClECP=     1 NCelD=      1
         NCelK=      1 NCelE2=     1 NClLst=     1 CellRange=     0.0.
 One-electron integrals computed using PRISM.
 One-electron integral symmetry used in STVInt
 NBasis=    96 RedAO= T EigKep=  4.45D-05  NBF=    34    14    14    34
 NBsUse=    96 1.00D-06 EigRej= -1.00D+00 NBFU=    34    14    14    34
 Precomputing XC quadrature grid using
 IXCGrd= 4 IRadAn=           5 IRanWt=          -1 IRanGd=           0 AccXCQ= 0.00D+00.
 Generated NRdTot=       0 NPtTot=           0 NUsed=           0 NTot=          32
 NSgBfM=    96    96    96    96    96 MxSgAt=    14 MxSgA2=    14.
 Leave Link  302 at Wed Aug 12 19:06:35 2026, MaxMem= 12884901888 cpu:               6.3 elap:               0.2
 (Enter /home/falbo/g16/l303.exe)
 DipDrv:  MaxL=1.
 Leave Link  303 at Wed Aug 12 19:06:35 2026, MaxMem= 12884901888 cpu:               1.0 elap:               0.0
 (Enter /home/falbo/g16/l401.exe)
 Initial guess from the checkpoint file:  "01_conf_000.chk"
 B after Tr=    -0.000000    0.000000   -0.000000
         Rot=    1.000000   -0.000000    0.000000    0.000000 Ang=   0.00 deg.
 Guess basis will be translated and rotated to current coordinates.
 JPrj=2 DoOrth=T DoCkMO=T.
 Initial guess orbital symmetries:
       Occupied  (AG) (BU) (BU) (AG) (AG) (BU) (AG) (BU) (AU) (AG)
                 (BU) (BG) (BU) (AU) (AG) (BG) (AG)
       Virtual   (AG) (BU) (BU) (AU) (AG) (AG) (BG) (AG) (BU) (BG)
                 (BU) (AU) (BU) (AG) (AG) (BU) (AU) (BU) (BG) (AU)
                 (AG) (BU) (BG) (BU) (AG) (AG) (BU) (AG) (BU) (AG)
                 (BU) (AU) (AG) (BG) (BU) (AG) (AU) (BU) (BU) (BG)
                 (AG) (AU) (AG) (BG) (AU) (BU) (AG) (BG) (BU) (AG)
                 (BU) (AG) (BU) (AG) (AU) (BU) (AG) (BU) (BG) (AG)
                 (BU) (AU) (AG) (BU) (BG) (AG) (BG) (AU) (BU) (AG)
                 (BG) (AU) (BU) (AG) (BU) (AG) (BU) (AG) (BU)
 The electronic state of the initial guess is 1-AG.
 Leave Link  401 at Wed Aug 12 19:06:35 2026, MaxMem= 12884901888 cpu:               4.3 elap:               0.1
 (Enter /home/falbo/g16/l502.exe)
 Integral symmetry usage will be decided dynamically.
 Closed shell SCF:
 Using DIIS extrapolation, IDIIS=  1040.
 NGot= 12884901888 LenX= 12884876828 LenY= 12884867171
 Requested convergence on RMS density matrix=1.00D-08 within 128 cycles.
 Requested convergence on MAX density matrix=1.00D-06.
 Requested convergence on             energy=1.00D-06.
 No special actions if energy rises.
 Fock matrices will be formed incrementally for  20 cycles.

 Cycle   1  Pass 1  IDiag  1:
 FoFJK:  IHMeth= 1 ICntrl=       0 DoSepK=F KAlg= 0 I1Cent=           0 FoldK=F
 IRaf= 990000000 NMat=       1 IRICut=       1 DoRegI=T DoRafI=F ISym2E= 1 IDoP0=0 IntGTp=1.
 FoFCou: FMM=F IPFlag=           0 FMFlag=      100000 FMFlg1=           0
         NFxFlg=           0 DoJE=F BraDBF=F KetDBF=F FulRan=T
         wScrn=  0.000000 ICntrl=         0 IOpCl=  0 I1Cent=           0 NGrid=           0
         NMat0=    1 NMatS0=      1 NMatT0=    0 NMatD0=    1 NMtDS0=    0 NMtDT0=    0
 Petite list used in FoFCou.
 E= -158.418725044751    
 DIIS: error= 2.67D-09 at cycle   1 NSaved=   1.
 NSaved= 1 IEnMin= 1 EnMin= -158.418725044751     IErMin= 1 ErrMin= 2.67D-09
 ErrMax= 2.67D-09  0.00D+00 EMaxC= 1.00D-01 BMatC= 3.46D-16 BMatP= 3.46D-16
 IDIUse=1 WtCom= 1.00D+00 WtEn= 0.00D+00
 Coeff-Com:  0.100D+01
 Coeff:      0.100D+01
 Gap=     0.444 Goal=   None    Shift=    0.000
 RMSDP=1.50D-09 MaxDP=2.34D-08              OVMax= 1.20D-08

 SCF Done:  E(RM052X) =  -158.418725045     A.U. after    1 cycles
            NFock=  1  Conv=0.15D-08     -V/T= 2.0100
 KE= 1.568488888236D+02 PE=-6.267331759150D+02 EE= 1.807035320673D+02
 Leave Link  502 at Wed Aug 12 19:06:36 2026, MaxMem= 12884901888 cpu:              10.2 elap:               0.2
 (Enter /home/falbo/g16/l801.exe)
 DoSCS=F DFT=T ScalE2(SS,OS)=  1.000000  1.000000
 Range of M.O.s used for correlation:     1    96
 NBasis=    96 NAE=    17 NBE=    17 NFC=     0 NFV=     0
 NROrb=     96 NOA=    17 NOB=    17 NVA=    79 NVB=    79

 **** Warning!!: The largest alpha MO coefficient is  0.55397672D+02

 Leave Link  801 at Wed Aug 12 19:06:36 2026, MaxMem= 12884901888 cpu:               0.8 elap:               0.0
 (Enter /home/falbo/g16/l1101.exe)
 Using compressed storage, NAtomX=    14.
 Will process     15 centers per pass.
 Leave Link 1101 at Wed Aug 12 19:06:36 2026, MaxMem= 12884901888 cpu:               5.7 elap:               0.1
 (Enter /home/falbo/g16/l1102.exe)
 Symmetrizing basis deriv contribution to polar:
 IMax=3 JMax=2 DiffMx= 0.00D+00
 Leave Link 1102 at Wed Aug 12 19:06:36 2026, MaxMem= 12884901888 cpu:               0.9 elap:               0.0
 (Enter /home/falbo/g16/l1110.exe)
 Forming Gx(P) for the SCF density, NAtomX=    14.
 Integral derivatives from FoFJK, PRISM(SPDF).
 Do as many integral derivatives as possible in FoFJK.
 G2DrvN: MDV=   12884900632.
 G2DrvN: will do    15 centers at a time, making    1 passes.
 Calling FoFCou, ICntrl=  3107 FMM=F I1Cent=   0 AccDes= 0.00D+00.
 FoFJK:  IHMeth= 1 ICntrl=    3107 DoSepK=F KAlg= 0 I1Cent=           0 FoldK=F
 IRaf=         0 NMat=       1 IRICut=       1 DoRegI=T DoRafI=F ISym2E= 1 IDoP0=0 IntGTp=1.
 FoFCou: FMM=F IPFlag=           0 FMFlag=      100000 FMFlg1=           0
         NFxFlg=           0 DoJE=F BraDBF=F KetDBF=F FulRan=T
         wScrn=  0.000000 ICntrl=      3107 IOpCl=  0 I1Cent=           0 NGrid=           0
         NMat0=    1 NMatS0=      1 NMatT0=    0 NMatD0=    1 NMtDS0=    0 NMtDT0=    0
 Petite list used in FoFCou.
 End of G2Drv F.D. properties file   721 does not exist.
 End of G2Drv F.D. properties file   722 does not exist.
 End of G2Drv F.D. properties file   788 does not exist.
 Leave Link 1110 at Wed Aug 12 19:06:38 2026, MaxMem= 12884901888 cpu:              91.3 elap:               1.9
 (Enter /home/falbo/g16/l1002.exe)
 Minotr:  Closed shell wavefunction.
          IDoAtm=11111111111111
          Direct CPHF calculation.
          Differentiating once with respect to electric field.
                with respect to dipole field.
          Differentiating once with respect to nuclear coordinates.
          Using symmetry in CPHF.
          Requested convergence is 1.0D-08 RMS, and 1.0D-07 maximum.
          Secondary convergence is 1.0D-12 RMS, and 1.0D-12 maximum.
          NewPWx=T KeepS1=F KeepF1=F KeepIn=T MapXYZ=F SortEE=F KeepMc=T.
         4285 words used for storage of precomputed grid.
 Keep R1 ints in memory in symmetry-blocked form, NReq=55015591.
 FoFCou: FMM=F IPFlag=           0 FMFlag=           0 FMFlg1=           0
         NFxFlg=           0 DoJE=F BraDBF=F KetDBF=F FulRan=T
         wScrn=  0.000000 ICntrl=       600 IOpCl=  0 I1Cent=           0 NGrid=           0
         NMat0=    1 NMatS0=   4656 NMatT0=    0 NMatD0=    1 NMtDS0=    0 NMtDT0=    0
 Petite list used in FoFCou.
          MDV=   12884901888 using IRadAn=       1.
          Solving linear equations simultaneously, MaxMat=       0.
          There are    18 degrees of freedom in the 1st order CPHF.  IDoFFX=4 NUNeed=    18.
     18 vectors produced by pass  0 Test12= 7.46D-15 5.56D-09 XBig12= 1.85D+01 1.55D+00.
 AX will form    18 AO Fock derivatives at one time.
     18 vectors produced by pass  1 Test12= 7.46D-15 5.56D-09 XBig12= 9.52D-01 2.36D-01.
     18 vectors produced by pass  2 Test12= 7.46D-15 5.56D-09 XBig12= 4.55D-02 3.58D-02.
     18 vectors produced by pass  3 Test12= 7.46D-15 5.56D-09 XBig12= 6.80D-04 4.69D-03.
     18 vectors produced by pass  4 Test12= 7.46D-15 5.56D-09 XBig12= 3.71D-06 3.26D-04.
     18 vectors produced by pass  5 Test12= 7.46D-15 5.56D-09 XBig12= 1.89D-08 2.60D-05.
     11 vectors produced by pass  6 Test12= 7.46D-15 5.56D-09 XBig12= 8.98D-11 1.40D-06.
      3 vectors produced by pass  7 Test12= 7.46D-15 5.56D-09 XBig12= 2.87D-13 8.74D-08.
 InvSVY:  IOpt=1 It=  1 EMax= 4.44D-15
 Solved reduced A of dimension   122 with    18 vectors.
 FullF1:  Do perturbations      1 to      18.
 Isotropic polarizability for W=    0.000000       47.36 Bohr**3.
 End of Minotr F.D. properties file   721 does not exist.
 End of Minotr F.D. properties file   722 does not exist.
 End of Minotr F.D. properties file   788 does not exist.
 Leave Link 1002 at Wed Aug 12 19:06:42 2026, MaxMem= 12884901888 cpu:             171.1 elap:               3.6
 (Enter /home/falbo/g16/l601.exe)
 Copying SCF densities to generalized density rwf, IOpCl= 0 IROHF=0.

 **********************************************************************

            Population analysis using the SCF Density.

 **********************************************************************

 Orbital symmetries:
       Occupied  (AG) (BU) (BU) (AG) (AG) (BU) (AG) (BU) (AU) (AG)
                 (BU) (BG) (BU) (AU) (AG) (BG) (AG)
       Virtual   (AG) (BU) (BU) (AU) (AG) (AG) (BG) (AG) (BU) (BG)
                 (BU) (AU) (BU) (AG) (AG) (BU) (AU) (BU) (BG) (AU)
                 (AG) (BU) (BG) (BU) (AG) (AG) (BU) (AG) (BU) (AG)
                 (BU) (AU) (AG) (BG) (BU) (AG) (AU) (BU) (BU) (BG)
                 (AG) (AU) (AG) (BG) (AU) (BU) (AG) (BG) (BU) (AG)
                 (BU) (AG) (BU) (AG) (AU) (BU) (AG) (BU) (BG) (AG)
                 (BU) (AU) (AG) (BU) (BG) (AG) (BG) (AU) (BU) (AG)
                 (BG) (AU) (BU) (AG) (BU) (AG) (BU) (AG) (BU)
 The electronic state is 1-AG.
 Alpha  occ. eigenvalues --  -10.56476 -10.56439 -10.55734 -10.55733  -0.90383
 Alpha  occ. eigenvalues --   -0.82651  -0.72437  -0.66617  -0.54818  -0.49944
 Alpha  occ. eigenvalues --   -0.49104  -0.48375  -0.43551  -0.41739  -0.39573
 Alpha  occ. eigenvalues --   -0.38740  -0.38286
 Alpha virt. eigenvalues --    0.06110   0.06513   0.07519   0.08256   0.09439
 Alpha virt. eigenvalues --    0.11216   0.11802   0.11819   0.12605   0.12827
 Alpha virt. eigenvalues --    0.15123   0.15683   0.17552   0.19162   0.20815
 Alpha virt. eigenvalues --    0.23553   0.24528   0.26182   0.26761   0.27483
 Alpha virt. eigenvalues --    0.28799   0.32124   0.33421   0.33841   0.34627
 Alpha virt. eigenvalues --    0.38287   0.40809   0.41107   0.41679   0.67265
 Alpha virt. eigenvalues --    0.68362   0.70065   0.71152   0.72570   0.76619
 Alpha virt. eigenvalues --    0.77206   0.78269   0.80209   0.88497   0.88611
 Alpha virt. eigenvalues --    0.93921   1.00334   1.04066   1.04928   1.06698
 Alpha virt. eigenvalues --    1.08632   1.09915   1.16615   1.19552   1.21073
 Alpha virt. eigenvalues --    1.23376   1.23699   1.43447   1.51498   1.51727
 Alpha virt. eigenvalues --    1.55522   1.71948   1.72603   1.92519   1.98354
 Alpha virt. eigenvalues --    1.99969   2.05755   2.07971   2.11328   2.16614
 Alpha virt. eigenvalues --    2.27318   2.34821   2.39374   2.41408   2.50173
 Alpha virt. eigenvalues --    2.50442   2.51345   2.66110   2.76020   2.82386
 Alpha virt. eigenvalues --    4.23456   4.34635   4.43326   4.58607
          Condensed to atoms (all electrons):
               1          2          3          4          5          6
     1  C    5.721113   0.418740   0.431053   0.431053  -0.084235  -0.032881
     2  H    0.418740   0.494706  -0.026452  -0.026452  -0.087552  -0.002718
     3  H    0.431053  -0.026452   0.498843  -0.031553  -0.078035  -0.004708
     4  H    0.431053  -0.026452  -0.031553   0.498843  -0.078035   0.004222
     5  C   -0.084235  -0.087552  -0.078035  -0.078035   5.901334   0.399676
     6  H   -0.032881  -0.002718  -0.004708   0.004222   0.399676   0.518473
     7  H   -0.032881  -0.002718   0.004222  -0.004708   0.399676  -0.035214
     8  C    0.002654   0.024421  -0.003203  -0.003203  -0.026101  -0.045492
     9  H   -0.010249  -0.000019   0.002915  -0.000414  -0.045492  -0.005539
    10  H   -0.010249  -0.000019  -0.000414   0.002915  -0.045492   0.004625
    11  C   -0.054533  -0.002316  -0.003499  -0.003499   0.002654  -0.010249
    12  H   -0.003499  -0.000000   0.000002  -0.000000  -0.003203   0.002915
    13  H   -0.002316   0.000001  -0.000000  -0.000000   0.024421  -0.000019
    14  H   -0.003499  -0.000000  -0.000000   0.000002  -0.003203  -0.000414
               7          8          9         10         11         12
     1  C   -0.032881   0.002654  -0.010249  -0.010249  -0.054533  -0.003499
     2  H   -0.002718   0.024421  -0.000019  -0.000019  -0.002316  -0.000000
     3  H    0.004222  -0.003203   0.002915  -0.000414  -0.003499   0.000002
     4  H   -0.004708  -0.003203  -0.000414   0.002915  -0.003499  -0.000000
     5  C    0.399676  -0.026101  -0.045492  -0.045492   0.002654  -0.003203
     6  H   -0.035214  -0.045492  -0.005539   0.004625  -0.010249   0.002915
     7  H    0.518473  -0.045492   0.004625  -0.005539  -0.010249  -0.000414
     8  C   -0.045492   5.901334   0.399676   0.399676  -0.084235  -0.078035
     9  H    0.004625   0.399676   0.518473  -0.035214  -0.032881  -0.004708
    10  H   -0.005539   0.399676  -0.035214   0.518473  -0.032881   0.004222
    11  C   -0.010249  -0.084235  -0.032881  -0.032881   5.721113   0.431053
    12  H   -0.000414  -0.078035  -0.004708   0.004222   0.431053   0.498843
    13  H   -0.000019  -0.087552  -0.002718  -0.002718   0.418740  -0.026452
    14  H    0.002915  -0.078035   0.004222  -0.004708   0.431053  -0.031553
              13         14
     1  C   -0.002316  -0.003499
     2  H    0.000001  -0.000000
     3  H   -0.000000  -0.000000
     4  H   -0.000000   0.000002
     5  C    0.024421  -0.003203
     6  H   -0.000019  -0.000414
     7  H   -0.000019   0.002915
     8  C   -0.087552  -0.078035
     9  H   -0.002718   0.004222
    10  H   -0.002718  -0.004708
    11  C    0.418740   0.431053
    12  H   -0.026452  -0.031553
    13  H    0.494706  -0.026452
    14  H   -0.026452   0.498843
 Mulliken charges:
               1
     1  C   -0.770273
     2  H    0.210377
     3  H    0.210830
     4  H    0.210830
     5  C   -0.276411
     6  H    0.207323
     7  H    0.207323
     8  C   -0.276411
     9  H    0.207323
    10  H    0.207323
    11  C   -0.770273
    12  H    0.210830
    13  H    0.210377
    14  H    0.210830
 Sum of Mulliken charges =  -0.00000
 Mulliken charges with hydrogens summed into heavy atoms:
               1
     1  C   -0.138236
     5  C    0.138236
     8  C    0.138236
    11  C   -0.138236
 APT charges:
               1
     1  C    0.064487
     2  H   -0.029788
     3  H   -0.022194
     4  H   -0.022194
     5  C    0.107303
     6  H   -0.048807
     7  H   -0.048807
     8  C    0.107303
     9  H   -0.048807
    10  H   -0.048807
    11  C    0.064487
    12  H   -0.022194
    13  H   -0.029788
    14  H   -0.022194
 Sum of APT charges =   0.00000
 APT charges with hydrogens summed into heavy atoms:
               1
     1  C   -0.009689
     5  C    0.009689
     8  C    0.009689
    11  C   -0.009689
 Electronic spatial extent (au):  <R**2>=            423.4391
 Charge=              0.0000 electrons
 Dipole moment (field-independent basis, Debye):
    X=             -0.0000    Y=             -0.0000    Z=             -0.0000  Tot=              0.0000
 Quadrupole moment (field-independent basis, Debye-Ang):
   XX=            -28.6264   YY=            -29.5320   ZZ=            -28.1001
   XY=             -0.0185   XZ=              0.0000   YZ=              0.0000
 Traceless Quadrupole moment (field-independent basis, Debye-Ang):
   XX=              0.1264   YY=             -0.7791   ZZ=              0.6527
   XY=             -0.0185   XZ=              0.0000   YZ=              0.0000
 Octapole moment (field-independent basis, Debye-Ang**2):
  XXX=              0.0000  YYY=             -0.0000  ZZZ=             -0.0000  XYY=             -0.0000
  XXY=             -0.0000  XXZ=             -0.0000  XZZ=             -0.0000  YZZ=             -0.0000
  YYZ=             -0.0000  XYZ=             -0.0000
 Hexadecapole moment (field-independent basis, Debye-Ang**3):
 XXXX=           -150.4773 YYYY=           -402.4049 ZZZZ=            -59.2725 XXXY=             63.4489
 XXXZ=              0.0000 YYYX=             69.4488 YYYZ=              0.0000 ZZZX=             -0.0000
 ZZZY=              0.0000 XXYY=            -88.5554 XXZZ=            -35.3846 YYZZ=            -73.0662
 XXYZ=              0.0000 YYXZ=             -0.0000 ZZXY=             25.0587
 N-N= 1.307620299794D+02 E-N=-6.267331759272D+02  KE= 1.568488888236D+02
 Symmetry AG   KE= 7.597606312056D+01
 Symmetry BG   KE= 4.003706069517D+00
 Symmetry AU   KE= 3.807552613014D+00
 Symmetry BU   KE= 7.306156702046D+01
  Exact polarizability:  46.589  -2.567  51.906  -0.000   0.000  43.596
 Approx polarizability:  49.813   0.482  49.324  -0.000  -0.000  49.670
 No NMR shielding tensors so no spin-rotation constants.
 Leave Link  601 at Wed Aug 12 19:06:42 2026, MaxMem= 12884901888 cpu:               5.3 elap:               0.1
 (Enter /home/falbo/g16/l701.exe)
 ... and contract with generalized density number  0.
 Compute integral second derivatives.
 Leave Link  701 at Wed Aug 12 19:06:42 2026, MaxMem= 12884901888 cpu:               9.9 elap:               0.2
 (Enter /home/falbo/g16/l702.exe)
 L702 exits ... SP integral derivatives will be done elsewhere.
 Leave Link  702 at Wed Aug 12 19:06:42 2026, MaxMem= 12884901888 cpu:               0.8 elap:               0.0
 (Enter /home/falbo/g16/l703.exe)
 Integral derivatives from FoFJK, PRISM(SPDF).
 Compute integral second derivatives, UseDBF=F ICtDFT=           0.
 Calling FoFJK, ICntrl=    100127 FMM=F ISym2X=1 I1Cent= 0 IOpClX= 0 NMat=1 NMatS=1 NMatT=0.
 FoFJK:  IHMeth= 1 ICntrl=  100127 DoSepK=F KAlg= 0 I1Cent=           0 FoldK=F
 IRaf=         0 NMat=       1 IRICut=       1 DoRegI=T DoRafI=F ISym2E= 1 IDoP0=0 IntGTp=1.
 FoFCou: FMM=F IPFlag=           0 FMFlag=      100000 FMFlg1=         800
         NFxFlg=           0 DoJE=F BraDBF=F KetDBF=F FulRan=T
         wScrn=  0.000000 ICntrl=    100127 IOpCl=  0 I1Cent=           0 NGrid=           0
         NMat0=    1 NMatS0=      1 NMatT0=    0 NMatD0=    1 NMtDS0=    0 NMtDT0=    0
 Petite list used in FoFCou.
 Leave Link  703 at Wed Aug 12 19:06:44 2026, MaxMem= 12884901888 cpu:              75.3 elap:               1.6
 (Enter /home/falbo/g16/l716.exe)
 Dipole        =-3.95475051D-21-1.77635308D-15-2.37641985D-15
 Polarizability= 4.65887140D+01-2.56717880D+00 5.19057407D+01
                -2.72845273D-08 4.96999446D-09 4.35963924D+01
 Full mass-weighted force constant matrix:
 Low frequencies ---  -21.9288  -15.0644   -0.0010   -0.0010    0.0006   12.8424
 Low frequencies ---  119.1625  223.0630  258.7479
 Diagonal vibrational polarizability:
        0.6806121       0.4554860       0.8490637
 Harmonic frequencies (cm**-1), IR intensities (KM/Mole), Raman scattering
 activities (A**4/AMU), depolarization ratios for plane and unpolarized
 incident light, reduced masses (AMU), force constants (mDyne/A),
 and normal coordinates:
                      1                      2                      3
                     AU                     AU                     BU
 Frequencies --    119.1625               223.0630               258.7479
 Red. masses --      1.8792                 1.0741                 2.2521
 Frc consts  --      0.0157                 0.0315                 0.0888
 IR Inten    --      0.0175                 0.0005                 0.0057
  Atom  AN      X      Y      Z        X      Y      Z        X      Y      Z
     1   6     0.00  -0.00  -0.13     0.00  -0.00   0.03    -0.15   0.00   0.00
     2   1     0.00  -0.00  -0.03     0.00  -0.00   0.46    -0.27  -0.28  -0.00
     3   1    -0.16  -0.17  -0.30    -0.34   0.06  -0.14    -0.27   0.15  -0.00
     4   1     0.16   0.17  -0.30     0.34  -0.06  -0.14    -0.27   0.15   0.00
     5   6    -0.00  -0.00   0.15    -0.00  -0.00  -0.04     0.18   0.01   0.00
     6   1    -0.06  -0.15   0.24    -0.02   0.03  -0.04     0.22  -0.07   0.01
     7   1     0.06   0.15   0.24     0.02  -0.03  -0.04     0.22  -0.07  -0.01
     8   6     0.00   0.00   0.15     0.00   0.00  -0.04     0.18   0.01  -0.00
     9   1     0.06   0.15   0.24     0.02  -0.03  -0.04     0.22  -0.07  -0.01
    10   1    -0.06  -0.15   0.24    -0.02   0.03  -0.04     0.22  -0.07   0.01
    11   6    -0.00   0.00  -0.13    -0.00   0.00   0.03    -0.15   0.00  -0.00
    12   1     0.16   0.17  -0.30     0.34  -0.06  -0.14    -0.27   0.15   0.00
    13   1    -0.00   0.00  -0.03    -0.00   0.00   0.46    -0.27  -0.28   0.00
    14   1    -0.16  -0.17  -0.30    -0.34   0.06  -0.14    -0.27   0.15  -0.00
                      4                      5                      6
                     BG                     AG                     AU
 Frequencies --    259.4535               429.1567               743.2327
 Red. masses --      1.1212                 2.7184                 1.0701
 Frc consts  --      0.0445                 0.2950                 0.3483
 IR Inten    --      0.0000                 0.0000                 3.2785
  Atom  AN      X      Y      Z        X      Y      Z        X      Y      Z
     1   6    -0.00   0.00  -0.00    -0.11   0.21  -0.00     0.00  -0.00   0.01
     2   1    -0.00  -0.00   0.39    -0.20  -0.02   0.00    -0.00  -0.00  -0.06
     3   1    -0.32   0.05  -0.17    -0.21   0.33  -0.01    -0.04  -0.17  -0.09
     4   1     0.32  -0.05  -0.17    -0.21   0.33   0.01     0.04   0.17  -0.09
     5   6     0.00   0.00  -0.07     0.03   0.15   0.00    -0.00   0.00   0.05
     6   1     0.10   0.04  -0.15    -0.02   0.20   0.01     0.35   0.17  -0.24
     7   1    -0.10  -0.04  -0.15    -0.02   0.20  -0.01    -0.35  -0.17  -0.24
     8   6     0.00   0.00   0.07    -0.03  -0.15   0.00     0.00  -0.00   0.05
     9   1     0.10   0.04   0.15     0.02  -0.20   0.01    -0.35  -0.17  -0.24
    10   1    -0.10  -0.04   0.15     0.02  -0.20  -0.01     0.35   0.17  -0.24
    11   6    -0.00   0.00   0.00     0.11  -0.21  -0.00    -0.00   0.00   0.01
    12   1    -0.32   0.05   0.17     0.21  -0.33  -0.01     0.04   0.17  -0.09
    13   1    -0.00  -0.00  -0.39     0.20   0.02   0.00     0.00   0.00  -0.06
    14   1     0.32  -0.05   0.17     0.21  -0.33   0.01    -0.04  -0.17  -0.09
                      7                      8                      9
                     BG                     AG                     AU
 Frequencies --    822.6375               863.5322               972.8085
 Red. masses --      1.1232                 1.9206                 1.1148
 Frc consts  --      0.4478                 0.8438                 0.6216
 IR Inten    --      0.0000                 0.0000                 1.1826
  Atom  AN      X      Y      Z        X      Y      Z        X      Y      Z
     1   6     0.00  -0.00  -0.04    -0.07   0.10  -0.00    -0.00  -0.00  -0.06
     2   1    -0.00  -0.00   0.16     0.12   0.58   0.00    -0.00  -0.00   0.16
     3   1     0.03   0.33   0.13     0.14  -0.12   0.03     0.03   0.31   0.10
     4   1    -0.03  -0.33   0.13     0.14  -0.12  -0.03    -0.03  -0.31   0.10
     5   6    -0.00   0.00  -0.06    -0.16  -0.04   0.00     0.00   0.00   0.04
     6   1    -0.12  -0.28   0.13    -0.10  -0.11  -0.01     0.27  -0.23  -0.03
     7   1     0.12   0.28   0.13    -0.10  -0.11   0.01    -0.27   0.23  -0.03
     8   6    -0.00   0.00   0.06     0.16   0.04   0.00    -0.00  -0.00   0.04
     9   1    -0.12  -0.28  -0.13     0.10   0.11  -0.01    -0.27   0.23  -0.03
    10   1     0.12   0.28  -0.13     0.10   0.11   0.01     0.27  -0.23  -0.03
    11   6     0.00  -0.00   0.04     0.07  -0.10  -0.00     0.00   0.00  -0.06
    12   1     0.03   0.33  -0.13    -0.14   0.12   0.03    -0.03  -0.31   0.10
    13   1    -0.00  -0.00  -0.16    -0.12  -0.58   0.00     0.00   0.00   0.16
    14   1    -0.03  -0.33  -0.13    -0.14   0.12  -0.03     0.03   0.31   0.10
                     10                     11                     12
                     BU                     BU                     AG
 Frequencies --    993.0023              1047.7855              1093.6199
 Red. masses --      1.2468                 3.0700                 2.1788
 Frc consts  --      0.7244                 1.9858                 1.5354
 IR Inten    --      8.0601                 0.1617                 0.0000
  Atom  AN      X      Y      Z        X      Y      Z        X      Y      Z
     1   6    -0.08   0.06  -0.00    -0.06  -0.19  -0.00    -0.04  -0.12  -0.00
     2   1     0.10   0.49   0.00     0.05   0.07   0.00    -0.00  -0.04   0.00
     3   1     0.14  -0.15   0.04     0.11  -0.39   0.02     0.02  -0.21  -0.00
     4   1     0.14  -0.15  -0.04     0.11  -0.39  -0.02     0.02  -0.21   0.00
     5   6     0.02  -0.03  -0.00     0.03   0.23   0.00    -0.10   0.16   0.00
     6   1     0.15  -0.23   0.00     0.09   0.15  -0.00    -0.23   0.35   0.01
     7   1     0.15  -0.23  -0.00     0.09   0.15   0.00    -0.23   0.35  -0.01
     8   6     0.02  -0.03   0.00     0.03   0.23  -0.00     0.10  -0.16   0.00
     9   1     0.15  -0.23  -0.00     0.09   0.15   0.00     0.23  -0.35   0.01
    10   1     0.15  -0.23   0.00     0.09   0.15  -0.00     0.23  -0.35  -0.01
    11   6    -0.08   0.06   0.00    -0.06  -0.19   0.00     0.04   0.12  -0.00
    12   1     0.14  -0.15  -0.04     0.11  -0.39  -0.02    -0.02   0.21  -0.00
    13   1     0.10   0.49  -0.00     0.05   0.07  -0.00     0.00   0.04   0.00
    14   1     0.14  -0.15   0.04     0.11  -0.39   0.02    -0.02   0.21   0.00
                     13                     14                     15
                     AG                     BG                     AU
 Frequencies --   1191.9185              1228.2530              1306.9441
 Red. masses --      2.0615                 1.7396                 1.2485
 Frc consts  --      1.7255                 1.5462                 1.2565
 IR Inten    --      0.0000                 0.0000                 0.3696
  Atom  AN      X      Y      Z        X      Y      Z        X      Y      Z
     1   6    -0.11  -0.02  -0.00     0.00   0.00  -0.10     0.00   0.00  -0.08
     2   1     0.05   0.36   0.00    -0.00  -0.00   0.19    -0.00  -0.00   0.15
     3   1     0.18  -0.26   0.06     0.06   0.32   0.08     0.06   0.21   0.05
     4   1     0.18  -0.26  -0.06    -0.06  -0.32   0.08    -0.06  -0.21   0.05
     5   6     0.17   0.08   0.00     0.00  -0.00   0.15    -0.00  -0.00   0.06
     6   1     0.23  -0.04   0.01     0.25   0.19  -0.09    -0.13   0.41  -0.02
     7   1     0.23  -0.04  -0.01    -0.25  -0.19  -0.09     0.13  -0.41  -0.02
     8   6    -0.17  -0.08   0.00     0.00  -0.00  -0.15     0.00   0.00   0.06
     9   1    -0.23   0.04   0.01     0.25   0.19   0.09     0.13  -0.41  -0.02
    10   1    -0.23   0.04  -0.01    -0.25  -0.19   0.09    -0.13   0.41  -0.02
    11   6     0.11   0.02  -0.00     0.00   0.00   0.10    -0.00  -0.00  -0.08
    12   1    -0.18   0.26   0.06     0.06   0.32  -0.08    -0.06  -0.21   0.05
    13   1    -0.05  -0.36   0.00    -0.00  -0.00  -0.19     0.00   0.00   0.15
    14   1    -0.18   0.26  -0.06    -0.06  -0.32  -0.08     0.06   0.21   0.05
                     16                     17                     18
                     BU                     BG                     AG
 Frequencies --   1339.0843              1347.6011              1423.5222
 Red. masses --      1.3556                 1.0708                 1.5632
 Frc consts  --      1.4322                 1.1458                 1.8664
 IR Inten    --      0.8160                 0.0000                 0.0000
  Atom  AN      X      Y      Z        X      Y      Z        X      Y      Z
     1   6    -0.06  -0.01   0.00    -0.00  -0.00  -0.03     0.03   0.01   0.00
     2   1     0.04   0.24  -0.00     0.00   0.00   0.02    -0.05  -0.20  -0.00
     3   1     0.07  -0.01   0.07     0.01   0.10   0.01    -0.06  -0.11  -0.10
     4   1     0.07  -0.01  -0.07    -0.01  -0.10   0.01    -0.06  -0.11   0.10
     5   6     0.08  -0.07  -0.00     0.00  -0.00  -0.04    -0.08   0.13   0.00
     6   1    -0.24   0.38   0.01    -0.33   0.36   0.01     0.23  -0.37   0.02
     7   1    -0.24   0.38  -0.01     0.33  -0.36   0.01     0.23  -0.37  -0.02
     8   6     0.08  -0.07   0.00     0.00  -0.00   0.04     0.08  -0.13   0.00
     9   1    -0.24   0.38  -0.01    -0.33   0.36  -0.01    -0.23   0.37   0.02
    10   1    -0.24   0.38   0.01     0.33  -0.36  -0.01    -0.23   0.37  -0.02
    11   6    -0.06  -0.01  -0.00    -0.00  -0.00   0.03    -0.03  -0.01   0.00
    12   1     0.07  -0.01  -0.07     0.01   0.10  -0.01     0.06   0.11  -0.10
    13   1     0.04   0.24   0.00     0.00   0.00  -0.02     0.05   0.20  -0.00
    14   1     0.07  -0.01   0.07    -0.01  -0.10  -0.01     0.06   0.11   0.10
                     19                     20                     21
                     AG                     BU                     AG
 Frequencies --   1445.4317              1447.7290              1526.5994
 Red. masses --      1.3090                 1.2605                 1.0712
 Frc consts  --      1.6113                 1.5565                 1.4709
 IR Inten    --      0.0000                10.5515                 0.0000
  Atom  AN      X      Y      Z        X      Y      Z        X      Y      Z
     1   6    -0.00   0.11   0.00     0.01  -0.10   0.00     0.01   0.01   0.00
     2   1    -0.17  -0.35   0.00     0.17   0.35  -0.00     0.01   0.03  -0.00
     3   1     0.10  -0.35  -0.13    -0.11   0.37   0.13    -0.07  -0.05  -0.07
     4   1     0.10  -0.35   0.13    -0.11   0.37  -0.13    -0.07  -0.05   0.07
     5   6     0.02  -0.05  -0.00    -0.01   0.02  -0.00    -0.05  -0.03   0.00
     6   1    -0.10   0.07   0.02     0.04  -0.05  -0.01     0.31   0.21  -0.30
     7   1    -0.10   0.07  -0.02     0.04  -0.05   0.01     0.31   0.21   0.30
     8   6    -0.02   0.05  -0.00    -0.01   0.02   0.00     0.05   0.03   0.00
     9   1     0.10  -0.07   0.02     0.04  -0.05   0.01    -0.31  -0.21  -0.30
    10   1     0.10  -0.07  -0.02     0.04  -0.05  -0.01    -0.31  -0.21   0.30
    11   6     0.00  -0.11   0.00     0.01  -0.10  -0.00    -0.01  -0.01   0.00
    12   1    -0.10   0.35  -0.13    -0.11   0.37  -0.13     0.07   0.05  -0.07
    13   1     0.17   0.35   0.00     0.17   0.35   0.00    -0.01  -0.03  -0.00
    14   1    -0.10   0.35   0.13    -0.11   0.37   0.13     0.07   0.05   0.07
                     22                     23                     24
                     BU                     BG                     AU
 Frequencies --   1530.0511              1540.2640              1541.5873
 Red. masses --      1.0591                 1.0448                 1.0372
 Frc consts  --      1.4609                 1.4604                 1.4523
 IR Inten    --      2.1483                 0.0000                19.5388
  Atom  AN      X      Y      Z        X      Y      Z        X      Y      Z
     1   6    -0.02  -0.00  -0.00    -0.00   0.00  -0.04     0.00   0.00  -0.03
     2   1    -0.07  -0.16   0.00    -0.00  -0.00   0.50     0.00   0.00   0.50
     3   1     0.24   0.09   0.19     0.27  -0.22   0.04     0.26  -0.23   0.04
     4   1     0.24   0.09  -0.19    -0.27   0.22   0.04    -0.26   0.23   0.04
     5   6     0.03   0.03  -0.00    -0.00  -0.00  -0.02    -0.00  -0.00  -0.01
     6   1    -0.22  -0.18   0.23    -0.02  -0.01   0.00     0.01  -0.05  -0.00
     7   1    -0.22  -0.18  -0.23     0.02   0.01   0.00    -0.01   0.05  -0.00
     8   6     0.03   0.03   0.00    -0.00  -0.00   0.02     0.00   0.00  -0.01
     9   1    -0.22  -0.18  -0.23    -0.02  -0.01  -0.00    -0.01   0.05  -0.00
    10   1    -0.22  -0.18   0.23     0.02   0.01  -0.00     0.01  -0.05  -0.00
    11   6    -0.02  -0.00   0.00    -0.00   0.00   0.04    -0.00  -0.00  -0.03
    12   1     0.24   0.09  -0.19     0.27  -0.22  -0.04    -0.26   0.23   0.04
    13   1    -0.07  -0.16  -0.00    -0.00  -0.00  -0.50    -0.00  -0.00   0.50
    14   1     0.24   0.09   0.19    -0.27   0.22  -0.04     0.26  -0.23   0.04
                     25                     26                     27
                     AG                     BU                     AG
 Frequencies --   1545.0450              1548.6803              3083.9702
 Red. masses --      1.0612                 1.0808                 1.0589
 Frc consts  --      1.4926                 1.5272                 5.9339
 IR Inten    --      0.0000                12.7744                 0.0000
  Atom  AN      X      Y      Z        X      Y      Z        X      Y      Z
     1   6    -0.03  -0.00  -0.00    -0.03   0.00   0.00     0.00  -0.00   0.00
     2   1    -0.12  -0.25   0.00    -0.09  -0.17  -0.00    -0.07   0.02   0.00
     3   1     0.34   0.12   0.26     0.26   0.10   0.20     0.01   0.00  -0.01
     4   1     0.34   0.12  -0.26     0.26   0.10  -0.20     0.01   0.00   0.01
     5   6    -0.03   0.01  -0.00    -0.04  -0.02   0.00    -0.04  -0.03  -0.00
     6   1     0.08  -0.00  -0.06     0.22   0.13  -0.21     0.24   0.16   0.41
     7   1     0.08  -0.00   0.06     0.22   0.13   0.21     0.24   0.16  -0.41
     8   6     0.03  -0.01  -0.00    -0.04  -0.02  -0.00     0.04   0.03  -0.00
     9   1    -0.08   0.00  -0.06     0.22   0.13   0.21    -0.24  -0.16   0.41
    10   1    -0.08   0.00   0.06     0.22   0.13  -0.21    -0.24  -0.16  -0.41
    11   6     0.03   0.00  -0.00    -0.03   0.00  -0.00    -0.00   0.00   0.00
    12   1    -0.34  -0.12   0.26     0.26   0.10  -0.20    -0.01  -0.00  -0.01
    13   1     0.12   0.25   0.00    -0.09  -0.17   0.00     0.07  -0.02   0.00
    14   1    -0.34  -0.12  -0.26     0.26   0.10   0.20    -0.01  -0.00   0.01
                     28                     29                     30
                     BU                     BU                     AG
 Frequencies --   3091.4551              3101.0443              3101.9129
 Red. masses --      1.0596                 1.0359                 1.0362
 Frc consts  --      5.9664                 5.8693                 5.8745
 IR Inten    --     53.2372                81.2225                 0.0000
  Atom  AN      X      Y      Z        X      Y      Z        X      Y      Z
     1   6     0.01   0.01   0.00     0.00   0.03   0.00     0.01   0.03   0.00
     2   1     0.01  -0.00   0.00     0.33  -0.12   0.00     0.32  -0.12   0.00
     3   1    -0.05  -0.04   0.09    -0.20  -0.14   0.34    -0.21  -0.15   0.36
     4   1    -0.05  -0.04  -0.09    -0.20  -0.14  -0.34    -0.21  -0.15  -0.36
     5   6    -0.04  -0.03  -0.00     0.01   0.00  -0.00    -0.00  -0.00  -0.00
     6   1     0.23   0.16   0.40    -0.05  -0.03  -0.08     0.02   0.01   0.03
     7   1     0.23   0.16  -0.40    -0.05  -0.03   0.08     0.02   0.01  -0.03
     8   6    -0.04  -0.03   0.00     0.01   0.00   0.00     0.00   0.00  -0.00
     9   1     0.23   0.16  -0.40    -0.05  -0.03   0.08    -0.02  -0.01   0.03
    10   1     0.23   0.16   0.40    -0.05  -0.03  -0.08    -0.02  -0.01  -0.03
    11   6     0.01   0.01  -0.00     0.00   0.03  -0.00    -0.01  -0.03   0.00
    12   1    -0.05  -0.04  -0.09    -0.20  -0.14  -0.34     0.21   0.15   0.36
    13   1     0.01  -0.00  -0.00     0.33  -0.12  -0.00    -0.32   0.12   0.00
    14   1    -0.05  -0.04   0.09    -0.20  -0.14   0.34     0.21   0.15  -0.36
                     31                     32                     33
                     BG                     AU                     BG
 Frequencies --   3104.4700              3127.1704              3161.5317
 Red. masses --      1.1018                 1.1053                 1.1033
 Frc consts  --      6.2565                 6.3682                 6.4972
 IR Inten    --      0.0000                23.9619                 0.0000
  Atom  AN      X      Y      Z        X      Y      Z        X      Y      Z
     1   6    -0.00  -0.00   0.01     0.00  -0.00   0.03    -0.00  -0.00  -0.06
     2   1    -0.00   0.00   0.00    -0.00   0.00   0.01     0.00  -0.00  -0.01
     3   1     0.05   0.03  -0.08     0.10   0.07  -0.16    -0.24  -0.17   0.39
     4   1    -0.05  -0.03  -0.08    -0.10  -0.07  -0.16     0.24   0.17   0.39
     5   6     0.00   0.00  -0.06     0.00   0.00  -0.06    -0.00   0.00  -0.01
     6   1     0.24   0.17   0.39     0.23   0.15   0.37     0.04   0.03   0.08
     7   1    -0.24  -0.17   0.39    -0.23  -0.15   0.37    -0.04  -0.03   0.08
     8   6     0.00   0.00   0.06    -0.00  -0.00  -0.06    -0.00   0.00   0.01
     9   1     0.24   0.17  -0.39    -0.23  -0.15   0.37     0.04   0.03  -0.08
    10   1    -0.24  -0.17  -0.39     0.23   0.15   0.37    -0.04  -0.03  -0.08
    11   6    -0.00  -0.00  -0.01    -0.00   0.00   0.03    -0.00  -0.00   0.06
    12   1     0.05   0.03   0.08    -0.10  -0.07  -0.16    -0.24  -0.17  -0.39
    13   1    -0.00   0.00  -0.00     0.00  -0.00   0.01     0.00  -0.00   0.01
    14   1    -0.05  -0.03   0.08     0.10   0.07  -0.16     0.24   0.17  -0.39
                     34                     35                     36
                     AU                     AG                     BU
 Frequencies --   3165.1229              3171.6647              3172.1811
 Red. masses --      1.1029                 1.1018                 1.1016
 Frc consts  --      6.5100                 6.5303                 6.5311
 IR Inten    --    122.5568                 0.0000                81.1103
  Atom  AN      X      Y      Z        X      Y      Z        X      Y      Z
     1   6     0.00  -0.00  -0.06    -0.07   0.01  -0.00    -0.06   0.00   0.00
     2   1    -0.00   0.00  -0.01     0.57  -0.22  -0.00     0.57  -0.22   0.00
     3   1    -0.22  -0.16   0.37     0.10   0.08  -0.20     0.10   0.09  -0.20
     4   1     0.22   0.16   0.37     0.10   0.08   0.20     0.10   0.09   0.20
     5   6     0.00  -0.00  -0.03    -0.00  -0.00  -0.00    -0.00  -0.00   0.00
     6   1     0.10   0.07   0.16     0.02   0.01   0.03     0.02   0.02   0.04
     7   1    -0.10  -0.07   0.16     0.02   0.01  -0.03     0.02   0.02  -0.04
     8   6    -0.00   0.00  -0.03     0.00   0.00  -0.00    -0.00  -0.00  -0.00
     9   1    -0.10  -0.07   0.16    -0.02  -0.01   0.03     0.02   0.02  -0.04
    10   1     0.10   0.07   0.16    -0.02  -0.01  -0.03     0.02   0.02   0.04
    11   6    -0.00   0.00  -0.06     0.07  -0.01  -0.00    -0.06   0.00  -0.00
    12   1     0.22   0.16   0.37    -0.10  -0.08  -0.20     0.10   0.09   0.20
    13   1     0.00  -0.00  -0.01    -0.57   0.22  -0.00     0.57  -0.22  -0.00
    14   1    -0.22  -0.16   0.37    -0.10  -0.08   0.20     0.10   0.09  -0.20

 -------------------
 - Thermochemistry -
 -------------------
 Temperature   298.150 Kelvin.  Pressure   1.00000 Atm.
 Atom     1 has atomic number  6 and mass  12.00000
 Atom     2 has atomic number  1 and mass   1.00783
 Atom     3 has atomic number  1 and mass   1.00783
 Atom     4 has atomic number  1 and mass   1.00783
 Atom     5 has atomic number  6 and mass  12.00000
 Atom     6 has atomic number  1 and mass   1.00783
 Atom     7 has atomic number  1 and mass   1.00783
 Atom     8 has atomic number  6 and mass  12.00000
 Atom     9 has atomic number  1 and mass   1.00783
 Atom    10 has atomic number  1 and mass   1.00783
 Atom    11 has atomic number  6 and mass  12.00000
 Atom    12 has atomic number  1 and mass   1.00783
 Atom    13 has atomic number  1 and mass   1.00783
 Atom    14 has atomic number  1 and mass   1.00783
 Molecular mass:    58.07825 amu.
 Principal axes and moments of inertia in atomic units:
                           1         2         3
     Eigenvalues --    77.16246 494.12358 526.67507
           X           -0.42364   0.90583   0.00000
           Y            0.90583   0.42364   0.00000
           Z           -0.00000  -0.00000   1.00000
 This molecule is an asymmetric top.
 Rotational symmetry number  2.
 Rotational temperatures (Kelvin)      1.12249     0.17529     0.16445
 Rotational constants (GHZ):          23.38885     3.65241     3.42667
 Zero-point vibrational energy     353313.7 (Joules/Mol)
                                   84.44400 (Kcal/Mol)
 Warning -- explicit consideration of   5 degrees of freedom as
           vibrations may cause significant error
 Vibrational temperatures:    171.45   320.94   372.28   373.30   617.46
          (Kelvin)           1069.35  1183.59  1242.43  1399.65  1428.71
                             1507.53  1573.48  1714.90  1767.18  1880.40
                             1926.64  1938.90  2048.13  2079.65  2082.96
                             2196.44  2201.40  2216.10  2218.00  2222.98
                             2228.21  4437.15  4447.91  4461.71  4462.96
                             4466.64  4499.30  4548.74  4553.91  4563.32
                             4564.06
 
 Zero-point correction=                           0.134570 (Hartree/Particle)
 Thermal correction to Energy=                    0.140328
 Thermal correction to Enthalpy=                  0.141272
 Thermal correction to Gibbs Free Energy=         0.107212
 Sum of electronic and zero-point Energies=           -158.284155
 Sum of electronic and thermal Energies=              -158.278397
 Sum of electronic and thermal Enthalpies=            -158.277453
 Sum of electronic and thermal Free Energies=         -158.311513
 
                     E (Thermal)             CV                S
                      KCal/Mol        Cal/Mol-Kelvin    Cal/Mol-Kelvin
 Total                   88.057             19.393             71.685
 Electronic               0.000              0.000              0.000
 Translational            0.889              2.981             38.098
 Rotational               0.889              2.981             23.133
 Vibrational             86.280             13.432             10.454
 Vibration     1          0.609              1.933              3.114
 Vibration     2          0.649              1.806              1.934
 Vibration     3          0.668              1.748              1.670
 Vibration     4          0.668              1.747              1.665
 Vibration     5          0.791              1.407              0.861
                       Q            Log10(Q)             Ln(Q)
 Total Bot       0.485235D-49        -49.314048       -113.549792
 Total V=0       0.383563D+13         12.583836         28.975354
 Vib (Bot)       0.109969D-60        -60.958730       -140.362663
 Vib (Bot)    1  0.171528D+01          0.234334          0.539575
 Vib (Bot)    2  0.885615D+00         -0.052755         -0.121473
 Vib (Bot)    3  0.751120D+00         -0.124290         -0.286189
 Vib (Bot)    4  0.748819D+00         -0.125623         -0.289258
 Vib (Bot)    5  0.406269D+00         -0.391186         -0.900740
 Vib (V=0)       0.869269D+01          0.939154          2.162482
 Vib (V=0)    1  0.228667D+01          0.359203          0.827095
 Vib (V=0)    2  0.151701D+01          0.180989          0.416743
 Vib (V=0)    3  0.140232D+01          0.146847          0.338128
 Vib (V=0)    4  0.140041D+01          0.146254          0.336762
 Vib (V=0)    5  0.114425D+01          0.058520          0.134747
 Electronic      0.100000D+01          0.000000          0.000000
 Translational   0.173970D+08          7.240474         16.671808
 Rotational      0.253634D+05          4.404208         10.141063
                           ----------------------------
                           ! Normal Mode     1        !
 --------------------------                            --------------------------
 ! Name  Definition              Value          Relative Weight (%)             !
 --------------------------------------------------------------------------------
 ! D1    D(2,1,5,6)              0.0596                  2.1                    !
 ! D2    D(2,1,5,7)              0.0596                  2.1                    !
 ! D3    D(2,1,5,8)              0.0526                  1.8                    !
 ! D4    D(3,1,5,6)              0.0623                  2.2                    !
 ! D5    D(3,1,5,7)              0.0623                  2.2                    !
 ! D6    D(3,1,5,8)              0.0553                  1.9                    !
 ! D7    D(4,1,5,6)              0.0623                  2.2                    !
 ! D8    D(4,1,5,7)              0.0623                  2.2                    !
 ! D9    D(4,1,5,8)              0.0553                  1.9                    !
 ! D10   D(1,5,8,9)              0.2008                  6.9                    !
 ! D11   D(1,5,8,10)             0.2008                  6.9                    !
 ! D12   D(1,5,8,11)             0.2109                  7.3                    !
 ! D13   D(6,5,8,9)              0.1908                  6.6                    !
 ! D14   D(6,5,8,10)             0.1908                  6.6                    !
 ! D15   D(6,5,8,11)             0.2008                  6.9                    !
 ! D16   D(7,5,8,9)              0.1908                  6.6                    !
 ! D17   D(7,5,8,10)             0.1908                  6.6                    !
 ! D18   D(7,5,8,11)             0.2008                  6.9                    !
 ! D19   D(5,8,11,12)            0.0553                  1.9                    !
 ! D20   D(5,8,11,13)            0.0526                  1.8                    !
 ! D21   D(5,8,11,14)            0.0553                  1.9                    !
 ! D22   D(9,8,11,12)            0.0623                  2.2                    !
 ! D23   D(9,8,11,13)            0.0596                  2.1                    !
 ! D24   D(9,8,11,14)            0.0623                  2.2                    !
 ! D25   D(10,8,11,12)           0.0623                  2.2                    !
 ! D26   D(10,8,11,13)           0.0596                  2.1                    !
 ! D27   D(10,8,11,14)           0.0623                  2.2                    !
 --------------------------------------------------------------------------------
                           ----------------------------
                           ! Normal Mode     2        !
 --------------------------                            --------------------------
 ! Name  Definition              Value          Relative Weight (%)             !
 --------------------------------------------------------------------------------
 ! D1    D(2,1,5,6)              0.1967                  4.9                    !
 ! D2    D(2,1,5,7)              0.1967                  4.9                    !
 ! D3    D(2,1,5,8)              0.2206                  5.5                    !
 ! D4    D(3,1,5,6)              0.1913                  4.7                    !
 ! D5    D(3,1,5,7)              0.1913                  4.7                    !
 ! D6    D(3,1,5,8)              0.2151                  5.3                    !
 ! D7    D(4,1,5,6)              0.1913                  4.7                    !
 ! D8    D(4,1,5,7)              0.1913                  4.7                    !
 ! D9    D(4,1,5,8)              0.2151                  5.3                    !
 ! D12   D(1,5,8,11)            -0.0579                  1.4                    !
 ! D19   D(5,8,11,12)            0.2151                  5.3                    !
 ! D20   D(5,8,11,13)            0.2206                  5.5                    !
 ! D21   D(5,8,11,14)            0.2151                  5.3                    !
 ! D22   D(9,8,11,12)            0.1913                  4.7                    !
 ! D23   D(9,8,11,13)            0.1967                  4.9                    !
 ! D24   D(9,8,11,14)            0.1913                  4.7                    !
 ! D25   D(10,8,11,12)           0.1913                  4.7                    !
 ! D26   D(10,8,11,13)           0.1967                  4.9                    !
 ! D27   D(10,8,11,14)           0.1913                  4.7                    !
 --------------------------------------------------------------------------------
                           ----------------------------
                           ! Normal Mode     3        !
 --------------------------                            --------------------------
 ! Name  Definition              Value          Relative Weight (%)             !
 --------------------------------------------------------------------------------
 ! A3    A(2,1,5)               -0.0322                  2.7                    !
 ! A5    A(3,1,5)                0.0164                  1.4                    !
 ! A6    A(4,1,5)                0.0164                  1.4                    !
 ! A7    A(1,5,6)               -0.0201                  1.7                    !
 ! A8    A(1,5,7)               -0.0201                  1.7                    !
 ! A9    A(1,5,8)                0.116                   9.8                    !
 ! A10   A(6,5,7)               -0.0154                  1.3                    !
 ! A11   A(6,5,8)               -0.0338                  2.9                    !
 ! A12   A(7,5,8)               -0.0338                  2.9                    !
 ! A13   A(5,8,9)                0.0338                  2.9                    !
 ! A14   A(5,8,10)               0.0338                  2.9                    !
 ! A15   A(5,8,11)              -0.116                   9.8                    !
 ! A16   A(9,8,10)               0.0154                  1.3                    !
 ! A17   A(9,8,11)               0.0201                  1.7                    !
 ! A18   A(10,8,11)              0.0201                  1.7                    !
 ! A19   A(8,11,12)             -0.0164                  1.4                    !
 ! A20   A(8,11,13)              0.0322                  2.7                    !
 ! A21   A(8,11,14)             -0.0164                  1.4                    !
 ! D1    D(2,1,5,6)             -0.021                   1.8                    !
 ! D2    D(2,1,5,7)              0.021                   1.8                    !
 ! D5    D(3,1,5,7)              0.0351                  3.0                    !
 ! D6    D(3,1,5,8)              0.014                   1.2                    !
 ! D7    D(4,1,5,6)             -0.0351                  3.0                    !
 ! D9    D(4,1,5,8)             -0.0141                  1.2                    !
 ! D10   D(1,5,8,9)             -0.0279                  2.4                    !
 ! D11   D(1,5,8,10)             0.0279                  2.4                    !
 ! D14   D(6,5,8,10)             0.0559                  4.7                    !
 ! D15   D(6,5,8,11)             0.0279                  2.4                    !
 ! D16   D(7,5,8,9)             -0.0559                  4.7                    !
 ! D18   D(7,5,8,11)            -0.0279                  2.4                    !
 ! D19   D(5,8,11,12)           -0.014                   1.2                    !
 ! D21   D(5,8,11,14)            0.0141                  1.2                    !
 ! D23   D(9,8,11,13)            0.021                   1.8                    !
 ! D24   D(9,8,11,14)            0.0351                  3.0                    !
 ! D25   D(10,8,11,12)          -0.0351                  3.0                    !
 ! D26   D(10,8,11,13)          -0.021                   1.8                    !
 --------------------------------------------------------------------------------
                           ----------------------------
                           ! Normal Mode     4        !
 --------------------------                            --------------------------
 ! Name  Definition              Value          Relative Weight (%)             !
 --------------------------------------------------------------------------------
 ! D1    D(2,1,5,6)              0.2575                  5.5                    !
 ! D2    D(2,1,5,7)              0.2575                  5.5                    !
 ! D3    D(2,1,5,8)              0.2599                  5.6                    !
 ! D4    D(3,1,5,6)              0.254                   5.5                    !
 ! D5    D(3,1,5,7)              0.254                   5.5                    !
 ! D6    D(3,1,5,8)              0.2564                  5.5                    !
 ! D7    D(4,1,5,6)              0.254                   5.5                    !
 ! D8    D(4,1,5,7)              0.254                   5.5                    !
 ! D9    D(4,1,5,8)              0.2564                  5.5                    !
 ! D19   D(5,8,11,12)           -0.2564                  5.5                    !
 ! D20   D(5,8,11,13)           -0.2599                  5.6                    !
 ! D21   D(5,8,11,14)           -0.2564                  5.5                    !
 ! D22   D(9,8,11,12)           -0.254                   5.5                    !
 ! D23   D(9,8,11,13)           -0.2575                  5.5                    !
 ! D24   D(9,8,11,14)           -0.254                   5.5                    !
 ! D25   D(10,8,11,12)          -0.254                   5.5                    !
 ! D26   D(10,8,11,13)          -0.2575                  5.5                    !
 ! D27   D(10,8,11,14)          -0.254                   5.5                    !
 --------------------------------------------------------------------------------
                           ----------------------------
                           ! Normal Mode     5        !
 --------------------------                            --------------------------
 ! Name  Definition              Value          Relative Weight (%)             !
 --------------------------------------------------------------------------------
 ! R4    R(1,5)                  0.0597                  3.1                    !
 ! R7    R(5,8)                  0.0532                  2.8                    !
 ! R10   R(8,11)                 0.0597                  3.1                    !
 ! A3    A(2,1,5)               -0.0714                  3.7                    !
 ! A5    A(3,1,5)                0.0364                  1.9                    !
 ! A6    A(4,1,5)                0.0364                  1.9                    !
 ! A7    A(1,5,6)               -0.0535                  2.8                    !
 ! A8    A(1,5,7)               -0.0535                  2.8                    !
 ! A9    A(1,5,8)                0.152                   7.9                    !
 ! A10   A(6,5,7)               -0.0177                  0.9                    !
 ! A11   A(6,5,8)               -0.0181                  0.9                    !
 ! A12   A(7,5,8)               -0.0181                  0.9                    !
 ! A13   A(5,8,9)               -0.0181                  0.9                    !
 ! A14   A(5,8,10)              -0.0181                  0.9                    !
 ! A15   A(5,8,11)               0.152                   7.9                    !
 ! A16   A(9,8,10)              -0.0177                  0.9                    !
 ! A17   A(9,8,11)              -0.0535                  2.8                    !
 ! A18   A(10,8,11)             -0.0535                  2.8                    !
 ! A19   A(8,11,12)              0.0364                  1.9                    !
 ! A20   A(8,11,13)             -0.0714                  3.7                    !
 ! A21   A(8,11,14)              0.0364                  1.9                    !
 ! D1    D(2,1,5,6)             -0.0418                  2.2                    !
 ! D2    D(2,1,5,7)              0.0418                  2.2                    !
 ! D5    D(3,1,5,7)              0.0723                  3.7                    !
 ! D6    D(3,1,5,8)              0.0305                  1.6                    !
 ! D7    D(4,1,5,6)             -0.0723                  3.7                    !
 ! D9    D(4,1,5,8)             -0.0305                  1.6                    !
 ! D10   D(1,5,8,9)              0.0206                  1.1                    !
 ! D11   D(1,5,8,10)            -0.0206                  1.1                    !
 ! D13   D(6,5,8,9)              0.0412                  2.1                    !
 ! D15   D(6,5,8,11)             0.0206                  1.1                    !
 ! D17   D(7,5,8,10)            -0.0412                  2.1                    !
 ! D18   D(7,5,8,11)            -0.0206                  1.1                    !
 ! D19   D(5,8,11,12)            0.0305                  1.6                    !
 ! D21   D(5,8,11,14)           -0.0305                  1.6                    !
 ! D23   D(9,8,11,13)           -0.0418                  2.2                    !
 ! D24   D(9,8,11,14)           -0.0723                  3.7                    !
 ! D25   D(10,8,11,12)           0.0723                  3.7                    !
 ! D26   D(10,8,11,13)           0.0418                  2.2                    !
 --------------------------------------------------------------------------------
                           ----------------------------
                           ! Normal Mode     6        !
 --------------------------                            --------------------------
 ! Name  Definition              Value          Relative Weight (%)             !
 --------------------------------------------------------------------------------
 ! A7    A(1,5,6)               -0.1033                  1.5                    !
 ! A8    A(1,5,7)                0.1033                  1.5                    !
 ! A11   A(6,5,8)               -0.1296                  1.9                    !
 ! A12   A(7,5,8)                0.1296                  1.9                    !
 ! A13   A(5,8,9)               -0.1296                  1.9                    !
 ! A14   A(5,8,10)               0.1296                  1.9                    !
 ! A17   A(9,8,11)              -0.1033                  1.5                    !
 ! A18   A(10,8,11)              0.1033                  1.5                    !
 ! D1    D(2,1,5,6)              0.2025                  2.9                    !
 ! D2    D(2,1,5,7)              0.2025                  2.9                    !
 ! D4    D(3,1,5,6)              0.2725                  3.9                    !
 ! D5    D(3,1,5,7)              0.2725                  3.9                    !
 ! D7    D(4,1,5,6)              0.2725                  3.9                    !
 ! D8    D(4,1,5,7)              0.2725                  3.9                    !
 ! D10   D(1,5,8,9)             -0.1893                  2.7                    !
 ! D11   D(1,5,8,10)            -0.1893                  2.7                    !
 ! D13   D(6,5,8,9)             -0.4119                  5.9                    !
 ! D14   D(6,5,8,10)            -0.4119                  5.9                    !
 ! D15   D(6,5,8,11)            -0.1893                  2.7                    !
 ! D16   D(7,5,8,9)             -0.4119                  5.9                    !
 ! D17   D(7,5,8,10)            -0.4119                  5.9                    !
 ! D18   D(7,5,8,11)            -0.1893                  2.7                    !
 ! D22   D(9,8,11,12)            0.2725                  3.9                    !
 ! D23   D(9,8,11,13)            0.2025                  2.9                    !
 ! D24   D(9,8,11,14)            0.2725                  3.9                    !
 ! D25   D(10,8,11,12)           0.2725                  3.9                    !
 ! D26   D(10,8,11,13)           0.2025                  2.9                    !
 ! D27   D(10,8,11,14)           0.2725                  3.9                    !
 --------------------------------------------------------------------------------
                           ----------------------------
                           ! Normal Mode     7        !
 --------------------------                            --------------------------
 ! Name  Definition              Value          Relative Weight (%)             !
 --------------------------------------------------------------------------------
 ! A5    A(3,1,5)                0.1613                  3.9                    !
 ! A6    A(4,1,5)               -0.1613                  3.9                    !
 ! A7    A(1,5,6)                0.152                   3.7                    !
 ! A8    A(1,5,7)               -0.152                   3.7                    !
 ! A17   A(9,8,11)              -0.152                   3.7                    !
 ! A18   A(10,8,11)              0.152                   3.7                    !
 ! A19   A(8,11,12)             -0.1613                  3.9                    !
 ! A21   A(8,11,14)              0.1613                  3.9                    !
 ! D3    D(2,1,5,8)              0.1493                  3.6                    !
 ! D4    D(3,1,5,6)             -0.1612                  3.9                    !
 ! D5    D(3,1,5,7)             -0.1612                  3.9                    !
 ! D7    D(4,1,5,6)             -0.1612                  3.9                    !
 ! D8    D(4,1,5,7)             -0.1612                  3.9                    !
 ! D10   D(1,5,8,9)             -0.2224                  5.4                    !
 ! D11   D(1,5,8,10)            -0.2224                  5.4                    !
 ! D15   D(6,5,8,11)             0.2224                  5.4                    !
 ! D18   D(7,5,8,11)             0.2224                  5.4                    !
 ! D20   D(5,8,11,13)           -0.1493                  3.6                    !
 ! D22   D(9,8,11,12)            0.1612                  3.9                    !
 ! D24   D(9,8,11,14)            0.1612                  3.9                    !
 ! D25   D(10,8,11,12)           0.1612                  3.9                    !
 ! D27   D(10,8,11,14)           0.1612                  3.9                    !
 --------------------------------------------------------------------------------
                           ----------------------------
                           ! Normal Mode     8        !
 --------------------------                            --------------------------
 ! Name  Definition              Value          Relative Weight (%)             !
 --------------------------------------------------------------------------------
 ! R4    R(1,5)                  0.1373                  4.2                    !
 ! R7    R(5,8)                  0.2635                  8.1                    !
 ! R10   R(8,11)                 0.1373                  4.2                    !
 ! A3    A(2,1,5)                0.2184                  6.7                    !
 ! A4    A(3,1,4)               -0.0464                  1.4                    !
 ! A5    A(3,1,5)               -0.0983                  3.0                    !
 ! A6    A(4,1,5)               -0.0983                  3.0                    !
 ! A7    A(1,5,6)                0.0527                  1.6                    !
 ! A8    A(1,5,7)                0.0527                  1.6                    !
 ! A9    A(1,5,8)               -0.0956                  2.9                    !
 ! A15   A(5,8,11)              -0.0956                  2.9                    !
 ! A17   A(9,8,11)               0.0527                  1.6                    !
 ! A18   A(10,8,11)              0.0527                  1.6                    !
 ! A19   A(8,11,12)             -0.0983                  3.0                    !
 ! A20   A(8,11,13)              0.2184                  6.7                    !
 ! A21   A(8,11,14)             -0.0983                  3.0                    !
 ! A23   A(12,11,14)            -0.0464                  1.4                    !
 ! D4    D(3,1,5,6)             -0.0556                  1.7                    !
 ! D5    D(3,1,5,7)             -0.1302                  4.0                    !
 ! D6    D(3,1,5,8)             -0.0929                  2.9                    !
 ! D7    D(4,1,5,6)              0.1302                  4.0                    !
 ! D8    D(4,1,5,7)              0.0556                  1.7                    !
 ! D9    D(4,1,5,8)              0.0929                  2.9                    !
 ! D19   D(5,8,11,12)           -0.0929                  2.9                    !
 ! D21   D(5,8,11,14)            0.0929                  2.9                    !
 ! D22   D(9,8,11,12)           -0.0556                  1.7                    !
 ! D24   D(9,8,11,14)            0.1302                  4.0                    !
 ! D25   D(10,8,11,12)          -0.1302                  4.0                    !
 ! D27   D(10,8,11,14)           0.0556                  1.7                    !
 --------------------------------------------------------------------------------
                           ----------------------------
                           ! Normal Mode     9        !
 --------------------------                            --------------------------
 ! Name  Definition              Value          Relative Weight (%)             !
 --------------------------------------------------------------------------------
 ! A5    A(3,1,5)                0.1917                  4.0                    !
 ! A6    A(4,1,5)               -0.1917                  4.0                    !
 ! A7    A(1,5,6)                0.0896                  1.9                    !
 ! A8    A(1,5,7)               -0.0896                  1.9                    !
 ! A11   A(6,5,8)               -0.1723                  3.6                    !
 ! A12   A(7,5,8)                0.1723                  3.6                    !
 ! A13   A(5,8,9)               -0.1723                  3.6                    !
 ! A14   A(5,8,10)               0.1723                  3.6                    !
 ! A17   A(9,8,11)               0.0896                  1.9                    !
 ! A18   A(10,8,11)             -0.0896                  1.9                    !
 ! A19   A(8,11,12)              0.1917                  4.0                    !
 ! A21   A(8,11,14)             -0.1917                  4.0                    !
 ! D1    D(2,1,5,6)              0.2697                  5.6                    !
 ! D2    D(2,1,5,7)              0.2697                  5.6                    !
 ! D3    D(2,1,5,8)              0.1132                  2.3                    !
 ! D4    D(3,1,5,6)              0.0841                  1.7                    !
 ! D5    D(3,1,5,7)              0.0841                  1.7                    !
 ! D6    D(3,1,5,8)             -0.0724                  1.5                    !
 ! D7    D(4,1,5,6)              0.0841                  1.7                    !
 ! D8    D(4,1,5,7)              0.0841                  1.7                    !
 ! D9    D(4,1,5,8)             -0.0724                  1.5                    !
 ! D10   D(1,5,8,9)              0.0643                  1.3                    !
 ! D11   D(1,5,8,10)             0.0643                  1.3                    !
 ! D12   D(1,5,8,11)             0.0717                  1.5                    !
 ! D15   D(6,5,8,11)             0.0643                  1.3                    !
 ! D18   D(7,5,8,11)             0.0643                  1.3                    !
 ! D19   D(5,8,11,12)           -0.0724                  1.5                    !
 ! D20   D(5,8,11,13)            0.1132                  2.3                    !
 ! D21   D(5,8,11,14)           -0.0724                  1.5                    !
 ! D22   D(9,8,11,12)            0.0841                  1.7                    !
 ! D23   D(9,8,11,13)            0.2697                  5.6                    !
 ! D24   D(9,8,11,14)            0.0841                  1.7                    !
 ! D25   D(10,8,11,12)           0.0841                  1.7                    !
 ! D26   D(10,8,11,13)           0.2697                  5.6                    !
 ! D27   D(10,8,11,14)           0.0841                  1.7                    !
 --------------------------------------------------------------------------------
                           ----------------------------
                           ! Normal Mode    10        !
 --------------------------                            --------------------------
 ! Name  Definition              Value          Relative Weight (%)             !
 --------------------------------------------------------------------------------
 ! R4    R(1,5)                  0.089                   2.1                    !
 ! R10   R(8,11)                -0.089                   2.1                    !
 ! A3    A(2,1,5)                0.2624                  6.0                    !
 ! A4    A(3,1,4)               -0.0634                  1.5                    !
 ! A5    A(3,1,5)               -0.1248                  2.9                    !
 ! A6    A(4,1,5)               -0.1248                  2.9                    !
 ! A7    A(1,5,6)                0.0822                  1.9                    !
 ! A8    A(1,5,7)                0.0822                  1.9                    !
 ! A11   A(6,5,8)               -0.0979                  2.3                    !
 ! A12   A(7,5,8)               -0.0979                  2.3                    !
 ! A13   A(5,8,9)                0.0979                  2.3                    !
 ! A14   A(5,8,10)               0.0979                  2.3                    !
 ! A17   A(9,8,11)              -0.0822                  1.9                    !
 ! A18   A(10,8,11)             -0.0822                  1.9                    !
 ! A19   A(8,11,12)              0.1248                  2.9                    !
 ! A20   A(8,11,13)             -0.2624                  6.0                    !
 ! A21   A(8,11,14)              0.1248                  2.9                    !
 ! A23   A(12,11,14)             0.0634                  1.5                    !
 ! D4    D(3,1,5,6)             -0.0774                  1.8                    !
 ! D5    D(3,1,5,7)             -0.1641                  3.8                    !
 ! D6    D(3,1,5,8)             -0.1207                  2.8                    !
 ! D7    D(4,1,5,6)              0.1641                  3.8                    !
 ! D8    D(4,1,5,7)              0.0774                  1.8                    !
 ! D9    D(4,1,5,8)              0.1207                  2.8                    !
 ! D10   D(1,5,8,9)             -0.0587                  1.4                    !
 ! D11   D(1,5,8,10)             0.0587                  1.4                    !
 ! D14   D(6,5,8,10)             0.1174                  2.7                    !
 ! D15   D(6,5,8,11)             0.0587                  1.4                    !
 ! D16   D(7,5,8,9)             -0.1174                  2.7                    !
 ! D18   D(7,5,8,11)            -0.0587                  1.4                    !
 ! D19   D(5,8,11,12)            0.1207                  2.8                    !
 ! D21   D(5,8,11,14)           -0.1207                  2.8                    !
 ! D22   D(9,8,11,12)            0.0774                  1.8                    !
 ! D24   D(9,8,11,14)           -0.1641                  3.8                    !
 ! D25   D(10,8,11,12)           0.1641                  3.8                    !
 ! D27   D(10,8,11,14)          -0.0774                  1.8                    !
 --------------------------------------------------------------------------------
                           ----------------------------
                           ! Normal Mode    11        !
 --------------------------                            --------------------------
 ! Name  Definition              Value          Relative Weight (%)             !
 --------------------------------------------------------------------------------
 ! R4    R(1,5)                 -0.4204                 11.4                    !
 ! R10   R(8,11)                 0.4204                 11.4                    !
 ! A1    A(2,1,3)                0.0485                  1.3                    !
 ! A2    A(2,1,4)                0.0485                  1.3                    !
 ! A3    A(2,1,5)                0.1707                  4.6                    !
 ! A4    A(3,1,4)               -0.0283                  0.8                    !
 ! A5    A(3,1,5)               -0.1189                  3.2                    !
 ! A6    A(4,1,5)               -0.1189                  3.2                    !
 ! A7    A(1,5,6)                0.0233                  0.6                    !
 ! A8    A(1,5,7)                0.0233                  0.6                    !
 ! A9    A(1,5,8)                0.0313                  0.8                    !
 ! A11   A(6,5,8)               -0.0467                  1.3                    !
 ! A12   A(7,5,8)               -0.0467                  1.3                    !
 ! A13   A(5,8,9)                0.0467                  1.3                    !
 ! A14   A(5,8,10)               0.0467                  1.3                    !
 ! A15   A(5,8,11)              -0.0313                  0.8                    !
 ! A17   A(9,8,11)              -0.0233                  0.6                    !
 ! A18   A(10,8,11)             -0.0233                  0.6                    !
 ! A19   A(8,11,12)              0.1189                  3.2                    !
 ! A20   A(8,11,13)             -0.1707                  4.6                    !
 ! A21   A(8,11,14)              0.1189                  3.2                    !
 ! A22   A(12,11,13)            -0.0485                  1.3                    !
 ! A23   A(12,11,14)             0.0283                  0.8                    !
 ! A24   A(13,11,14)            -0.0485                  1.3                    !
 ! D4    D(3,1,5,6)             -0.0729                  2.0                    !
 ! D5    D(3,1,5,7)             -0.1169                  3.2                    !
 ! D6    D(3,1,5,8)             -0.0949                  2.6                    !
 ! D7    D(4,1,5,6)              0.1169                  3.2                    !
 ! D8    D(4,1,5,7)              0.0729                  2.0                    !
 ! D9    D(4,1,5,8)              0.0949                  2.6                    !
 ! D14   D(6,5,8,10)             0.0352                  1.0                    !
 ! D16   D(7,5,8,9)             -0.0352                  1.0                    !
 ! D19   D(5,8,11,12)            0.0949                  2.6                    !
 ! D21   D(5,8,11,14)           -0.0949                  2.6                    !
 ! D22   D(9,8,11,12)            0.0729                  2.0                    !
 ! D24   D(9,8,11,14)           -0.1169                  3.2                    !
 ! D25   D(10,8,11,12)           0.1169                  3.2                    !
 ! D27   D(10,8,11,14)          -0.0729                  2.0                    !
 --------------------------------------------------------------------------------
                           ----------------------------
                           ! Normal Mode    12        !
 --------------------------                            --------------------------
 ! Name  Definition              Value          Relative Weight (%)             !
 --------------------------------------------------------------------------------
 ! R4    R(1,5)                 -0.2881                 10.1                    !
 ! R7    R(5,8)                  0.3052                 10.7                    !
 ! R10   R(8,11)                -0.2881                 10.1                    !
 ! A1    A(2,1,3)                0.022                   0.8                    !
 ! A2    A(2,1,4)                0.022                   0.8                    !
 ! A3    A(2,1,5)                0.0249                  0.9                    !
 ! A5    A(3,1,5)               -0.0362                  1.3                    !
 ! A6    A(4,1,5)               -0.0362                  1.3                    !
 ! A7    A(1,5,6)               -0.0837                  2.9                    !
 ! A8    A(1,5,7)               -0.0837                  2.9                    !
 ! A9    A(1,5,8)                0.0591                  2.1                    !
 ! A11   A(6,5,8)                0.0588                  2.1                    !
 ! A12   A(7,5,8)                0.0588                  2.1                    !
 ! A13   A(5,8,9)                0.0588                  2.1                    !
 ! A14   A(5,8,10)               0.0588                  2.1                    !
 ! A15   A(5,8,11)               0.0591                  2.1                    !
 ! A17   A(9,8,11)              -0.0837                  2.9                    !
 ! A18   A(10,8,11)             -0.0837                  2.9                    !
 ! A19   A(8,11,12)             -0.0362                  1.3                    !
 ! A20   A(8,11,13)              0.0249                  0.9                    !
 ! A21   A(8,11,14)             -0.0362                  1.3                    !
 ! A22   A(12,11,13)             0.022                   0.8                    !
 ! A24   A(13,11,14)             0.022                   0.8                    !
 ! D1    D(2,1,5,6)             -0.0558                  2.0                    !
 ! D2    D(2,1,5,7)              0.0558                  2.0                    !
 ! D4    D(3,1,5,6)             -0.0758                  2.7                    !
 ! D5    D(3,1,5,7)              0.0358                  1.3                    !
 ! D6    D(3,1,5,8)             -0.02                    0.7                    !
 ! D7    D(4,1,5,6)             -0.0358                  1.3                    !
 ! D8    D(4,1,5,7)              0.0758                  2.7                    !
 ! D9    D(4,1,5,8)              0.02                    0.7                    !
 ! D10   D(1,5,8,9)             -0.0256                  0.9                    !
 ! D11   D(1,5,8,10)             0.0256                  0.9                    !
 ! D13   D(6,5,8,9)             -0.0512                  1.8                    !
 ! D15   D(6,5,8,11)            -0.0256                  0.9                    !
 ! D17   D(7,5,8,10)             0.0512                  1.8                    !
 ! D18   D(7,5,8,11)             0.0256                  0.9                    !
 ! D19   D(5,8,11,12)           -0.02                    0.7                    !
 ! D21   D(5,8,11,14)            0.02                    0.7                    !
 ! D22   D(9,8,11,12)           -0.0758                  2.7                    !
 ! D23   D(9,8,11,13)           -0.0558                  2.0                    !
 ! D24   D(9,8,11,14)           -0.0358                  1.3                    !
 ! D25   D(10,8,11,12)           0.0358                  1.3                    !
 ! D26   D(10,8,11,13)           0.0558                  2.0                    !
 ! D27   D(10,8,11,14)           0.0758                  2.7                    !
 --------------------------------------------------------------------------------
                           ----------------------------
                           ! Normal Mode    13        !
 --------------------------                            --------------------------
 ! Name  Definition              Value          Relative Weight (%)             !
 --------------------------------------------------------------------------------
 ! R4    R(1,5)                 -0.0977                  1.7                    !
 ! R7    R(5,8)                 -0.26                    4.5                    !
 ! R10   R(8,11)                -0.0977                  1.7                    !
 ! A1    A(2,1,3)                0.0746                  1.3                    !
 ! A2    A(2,1,4)                0.0746                  1.3                    !
 ! A3    A(2,1,5)                0.2965                  5.1                    !
 ! A4    A(3,1,4)               -0.0954                  1.6                    !
 ! A5    A(3,1,5)               -0.1756                  3.0                    !
 ! A6    A(4,1,5)               -0.1756                  3.0                    !
 ! A9    A(1,5,8)                0.1924                  3.3                    !
 ! A11   A(6,5,8)               -0.1027                  1.8                    !
 ! A12   A(7,5,8)               -0.1027                  1.8                    !
 ! A13   A(5,8,9)               -0.1027                  1.8                    !
 ! A14   A(5,8,10)              -0.1027                  1.8                    !
 ! A15   A(5,8,11)               0.1924                  3.3                    !
 ! A19   A(8,11,12)             -0.1756                  3.0                    !
 ! A20   A(8,11,13)              0.2965                  5.1                    !
 ! A21   A(8,11,14)             -0.1756                  3.0                    !
 ! A22   A(12,11,13)             0.0746                  1.3                    !
 ! A23   A(12,11,14)            -0.0954                  1.6                    !
 ! A24   A(13,11,14)             0.0746                  1.3                    !
 ! D4    D(3,1,5,6)             -0.1795                  3.1                    !
 ! D5    D(3,1,5,7)             -0.168                   2.9                    !
 ! D6    D(3,1,5,8)             -0.1737                  3.0                    !
 ! D7    D(4,1,5,6)              0.168                   2.9                    !
 ! D8    D(4,1,5,7)              0.1795                  3.1                    !
 ! D9    D(4,1,5,8)              0.1737                  3.0                    !
 ! D13   D(6,5,8,9)              0.1363                  2.3                    !
 ! D17   D(7,5,8,10)            -0.1363                  2.3                    !
 ! D19   D(5,8,11,12)           -0.1737                  3.0                    !
 ! D21   D(5,8,11,14)            0.1737                  3.0                    !
 ! D22   D(9,8,11,12)           -0.1795                  3.1                    !
 ! D24   D(9,8,11,14)            0.168                   2.9                    !
 ! D25   D(10,8,11,12)          -0.168                   2.9                    !
 ! D27   D(10,8,11,14)           0.1795                  3.1                    !
 --------------------------------------------------------------------------------
                           ----------------------------
                           ! Normal Mode    14        !
 --------------------------                            --------------------------
 ! Name  Definition              Value          Relative Weight (%)             !
 --------------------------------------------------------------------------------
 ! A5    A(3,1,5)                0.2408                  3.3                    !
 ! A6    A(4,1,5)               -0.2408                  3.3                    !
 ! A7    A(1,5,6)               -0.1728                  2.3                    !
 ! A8    A(1,5,7)                0.1728                  2.3                    !
 ! A11   A(6,5,8)               -0.1695                  2.3                    !
 ! A12   A(7,5,8)                0.1695                  2.3                    !
 ! A13   A(5,8,9)                0.1695                  2.3                    !
 ! A14   A(5,8,10)              -0.1695                  2.3                    !
 ! A17   A(9,8,11)               0.1728                  2.3                    !
 ! A18   A(10,8,11)             -0.1728                  2.3                    !
 ! A19   A(8,11,12)             -0.2408                  3.3                    !
 ! A21   A(8,11,14)              0.2408                  3.3                    !
 ! D1    D(2,1,5,6)              0.3743                  5.1                    !
 ! D2    D(2,1,5,7)              0.3743                  5.1                    !
 ! D4    D(3,1,5,6)              0.0947                  1.3                    !
 ! D5    D(3,1,5,7)              0.0947                  1.3                    !
 ! D6    D(3,1,5,8)             -0.2438                  3.3                    !
 ! D7    D(4,1,5,6)              0.0947                  1.3                    !
 ! D8    D(4,1,5,7)              0.0947                  1.3                    !
 ! D9    D(4,1,5,8)             -0.2438                  3.3                    !
 ! D10   D(1,5,8,9)              0.339                   4.6                    !
 ! D11   D(1,5,8,10)             0.339                   4.6                    !
 ! D15   D(6,5,8,11)            -0.339                   4.6                    !
 ! D18   D(7,5,8,11)            -0.339                   4.6                    !
 ! D19   D(5,8,11,12)            0.2438                  3.3                    !
 ! D21   D(5,8,11,14)            0.2438                  3.3                    !
 ! D22   D(9,8,11,12)           -0.0947                  1.3                    !
 ! D23   D(9,8,11,13)           -0.3743                  5.1                    !
 ! D24   D(9,8,11,14)           -0.0947                  1.3                    !
 ! D25   D(10,8,11,12)          -0.0947                  1.3                    !
 ! D26   D(10,8,11,13)          -0.3743                  5.1                    !
 ! D27   D(10,8,11,14)          -0.0947                  1.3                    !
 --------------------------------------------------------------------------------
                           ----------------------------
                           ! Normal Mode    15        !
 --------------------------                            --------------------------
 ! Name  Definition              Value          Relative Weight (%)             !
 --------------------------------------------------------------------------------
 ! A1    A(2,1,3)                0.0863                  1.4                    !
 ! A2    A(2,1,4)               -0.0863                  1.4                    !
 ! A5    A(3,1,5)                0.1534                  2.4                    !
 ! A6    A(4,1,5)               -0.1534                  2.4                    !
 ! A7    A(1,5,6)               -0.2516                  4.0                    !
 ! A8    A(1,5,7)                0.2516                  4.0                    !
 ! A11   A(6,5,8)                0.141                   2.2                    !
 ! A12   A(7,5,8)               -0.141                   2.2                    !
 ! A13   A(5,8,9)                0.141                   2.2                    !
 ! A14   A(5,8,10)              -0.141                   2.2                    !
 ! A17   A(9,8,11)              -0.2516                  4.0                    !
 ! A18   A(10,8,11)              0.2516                  4.0                    !
 ! A19   A(8,11,12)              0.1534                  2.4                    !
 ! A21   A(8,11,14)             -0.1534                  2.4                    !
 ! A22   A(12,11,13)             0.0863                  1.4                    !
 ! A24   A(13,11,14)            -0.0863                  1.4                    !
 ! D1    D(2,1,5,6)              0.1172                  1.9                    !
 ! D2    D(2,1,5,7)              0.1172                  1.9                    !
 ! D3    D(2,1,5,8)              0.1192                  1.9                    !
 ! D4    D(3,1,5,6)             -0.0964                  1.5                    !
 ! D5    D(3,1,5,7)             -0.0964                  1.5                    !
 ! D6    D(3,1,5,8)             -0.0944                  1.5                    !
 ! D7    D(4,1,5,6)             -0.0964                  1.5                    !
 ! D8    D(4,1,5,7)             -0.0964                  1.5                    !
 ! D9    D(4,1,5,8)             -0.0944                  1.5                    !
 ! D10   D(1,5,8,9)             -0.1104                  1.8                    !
 ! D11   D(1,5,8,10)            -0.1104                  1.8                    !
 ! D12   D(1,5,8,11)             0.1102                  1.8                    !
 ! D13   D(6,5,8,9)             -0.331                   5.3                    !
 ! D14   D(6,5,8,10)            -0.331                   5.3                    !
 ! D15   D(6,5,8,11)            -0.1104                  1.8                    !
 ! D16   D(7,5,8,9)             -0.331                   5.3                    !
 ! D17   D(7,5,8,10)            -0.331                   5.3                    !
 ! D18   D(7,5,8,11)            -0.1104                  1.8                    !
 ! D19   D(5,8,11,12)           -0.0944                  1.5                    !
 ! D20   D(5,8,11,13)            0.1192                  1.9                    !
 ! D21   D(5,8,11,14)           -0.0944                  1.5                    !
 ! D22   D(9,8,11,12)           -0.0964                  1.5                    !
 ! D23   D(9,8,11,13)            0.1172                  1.9                    !
 ! D24   D(9,8,11,14)           -0.0964                  1.5                    !
 ! D25   D(10,8,11,12)          -0.0964                  1.5                    !
 ! D26   D(10,8,11,13)           0.1172                  1.9                    !
 ! D27   D(10,8,11,14)          -0.0964                  1.5                    !
 --------------------------------------------------------------------------------
                           ----------------------------
                           ! Normal Mode    16        !
 --------------------------                            --------------------------
 ! Name  Definition              Value          Relative Weight (%)             !
 --------------------------------------------------------------------------------
 ! R4    R(1,5)                  0.0656                  1.0                    !
 ! R10   R(8,11)                -0.0656                  1.0                    !
 ! A3    A(2,1,5)                0.1771                  2.8                    !
 ! A4    A(3,1,4)               -0.1178                  1.9                    !
 ! A7    A(1,5,6)               -0.2595                  4.1                    !
 ! A8    A(1,5,7)               -0.2595                  4.1                    !
 ! A9    A(1,5,8)                0.0487                  0.8                    !
 ! A11   A(6,5,8)                0.2425                  3.8                    !
 ! A12   A(7,5,8)                0.2425                  3.8                    !
 ! A13   A(5,8,9)               -0.2425                  3.8                    !
 ! A14   A(5,8,10)              -0.2425                  3.8                    !
 ! A15   A(5,8,11)              -0.0487                  0.8                    !
 ! A17   A(9,8,11)               0.2595                  4.1                    !
 ! A18   A(10,8,11)              0.2595                  4.1                    !
 ! A20   A(8,11,13)             -0.1771                  2.8                    !
 ! A23   A(12,11,14)             0.1178                  1.9                    !
 ! D1    D(2,1,5,6)             -0.1589                  2.5                    !
 ! D2    D(2,1,5,7)              0.1589                  2.5                    !
 ! D4    D(3,1,5,6)             -0.2486                  3.9                    !
 ! D5    D(3,1,5,7)              0.0693                  1.1                    !
 ! D6    D(3,1,5,8)             -0.0896                  1.4                    !
 ! D7    D(4,1,5,6)             -0.0693                  1.1                    !
 ! D8    D(4,1,5,7)              0.2486                  3.9                    !
 ! D9    D(4,1,5,8)              0.0896                  1.4                    !
 ! D10   D(1,5,8,9)              0.1266                  2.0                    !
 ! D11   D(1,5,8,10)            -0.1266                  2.0                    !
 ! D14   D(6,5,8,10)            -0.2532                  4.0                    !
 ! D15   D(6,5,8,11)            -0.1266                  2.0                    !
 ! D16   D(7,5,8,9)              0.2532                  4.0                    !
 ! D18   D(7,5,8,11)             0.1266                  2.0                    !
 ! D19   D(5,8,11,12)            0.0896                  1.4                    !
 ! D21   D(5,8,11,14)           -0.0896                  1.4                    !
 ! D22   D(9,8,11,12)            0.2486                  3.9                    !
 ! D23   D(9,8,11,13)            0.1589                  2.5                    !
 ! D24   D(9,8,11,14)            0.0693                  1.1                    !
 ! D25   D(10,8,11,12)          -0.0693                  1.1                    !
 ! D26   D(10,8,11,13)          -0.1589                  2.5                    !
 ! D27   D(10,8,11,14)          -0.2486                  3.9                    !
 --------------------------------------------------------------------------------
                           ----------------------------
                           ! Normal Mode    17        !
 --------------------------                            --------------------------
 ! Name  Definition              Value          Relative Weight (%)             !
 --------------------------------------------------------------------------------
 ! A5    A(3,1,5)                0.0464                  1.1                    !
 ! A6    A(4,1,5)               -0.0464                  1.1                    !
 ! A7    A(1,5,6)               -0.181                   4.2                    !
 ! A8    A(1,5,7)                0.181                   4.2                    !
 ! A11   A(6,5,8)                0.252                   5.8                    !
 ! A12   A(7,5,8)               -0.252                   5.8                    !
 ! A13   A(5,8,9)               -0.252                   5.8                    !
 ! A14   A(5,8,10)               0.252                   5.8                    !
 ! A17   A(9,8,11)               0.181                   4.2                    !
 ! A18   A(10,8,11)             -0.181                   4.2                    !
 ! A19   A(8,11,12)             -0.0464                  1.1                    !
 ! A21   A(8,11,14)              0.0464                  1.1                    !
 ! D1    D(2,1,5,6)             -0.1367                  3.2                    !
 ! D2    D(2,1,5,7)             -0.1367                  3.2                    !
 ! D3    D(2,1,5,8)              0.0569                  1.3                    !
 ! D4    D(3,1,5,6)             -0.1766                  4.1                    !
 ! D5    D(3,1,5,7)             -0.1766                  4.1                    !
 ! D7    D(4,1,5,6)             -0.1766                  4.1                    !
 ! D8    D(4,1,5,7)             -0.1766                  4.1                    !
 ! D10   D(1,5,8,9)              0.0526                  1.2                    !
 ! D11   D(1,5,8,10)             0.0526                  1.2                    !
 ! D15   D(6,5,8,11)            -0.0526                  1.2                    !
 ! D18   D(7,5,8,11)            -0.0526                  1.2                    !
 ! D20   D(5,8,11,13)           -0.0569                  1.3                    !
 ! D22   D(9,8,11,12)            0.1766                  4.1                    !
 ! D23   D(9,8,11,13)            0.1367                  3.2                    !
 ! D24   D(9,8,11,14)            0.1766                  4.1                    !
 ! D25   D(10,8,11,12)           0.1766                  4.1                    !
 ! D26   D(10,8,11,13)           0.1367                  3.2                    !
 ! D27   D(10,8,11,14)           0.1766                  4.1                    !
 --------------------------------------------------------------------------------
                           ----------------------------
                           ! Normal Mode    18        !
 --------------------------                            --------------------------
 ! Name  Definition              Value          Relative Weight (%)             !
 --------------------------------------------------------------------------------
 ! R4    R(1,5)                 -0.1178                  1.6                    !
 ! R7    R(5,8)                  0.2485                  3.4                    !
 ! R10   R(8,11)                -0.1178                  1.6                    !
 ! A3    A(2,1,5)               -0.1511                  2.1                    !
 ! A4    A(3,1,4)                0.171                   2.3                    !
 ! A7    A(1,5,6)                0.2796                  3.8                    !
 ! A8    A(1,5,7)                0.2796                  3.8                    !
 ! A11   A(6,5,8)               -0.2782                  3.8                    !
 ! A12   A(7,5,8)               -0.2782                  3.8                    !
 ! A13   A(5,8,9)               -0.2782                  3.8                    !
 ! A14   A(5,8,10)              -0.2782                  3.8                    !
 ! A17   A(9,8,11)               0.2796                  3.8                    !
 ! A18   A(10,8,11)              0.2796                  3.8                    !
 ! A20   A(8,11,13)             -0.1511                  2.1                    !
 ! A23   A(12,11,14)             0.171                   2.3                    !
 ! D1    D(2,1,5,6)              0.141                   1.9                    !
 ! D2    D(2,1,5,7)             -0.141                   1.9                    !
 ! D4    D(3,1,5,6)              0.22                    3.0                    !
 ! D5    D(3,1,5,7)             -0.062                   0.9                    !
 ! D6    D(3,1,5,8)              0.079                   1.1                    !
 ! D7    D(4,1,5,6)              0.062                   0.9                    !
 ! D8    D(4,1,5,7)             -0.22                    3.0                    !
 ! D9    D(4,1,5,8)             -0.079                   1.1                    !
 ! D10   D(1,5,8,9)              0.1756                  2.4                    !
 ! D11   D(1,5,8,10)            -0.1756                  2.4                    !
 ! D13   D(6,5,8,9)              0.3512                  4.8                    !
 ! D15   D(6,5,8,11)             0.1756                  2.4                    !
 ! D17   D(7,5,8,10)            -0.3512                  4.8                    !
 ! D18   D(7,5,8,11)            -0.1756                  2.4                    !
 ! D19   D(5,8,11,12)            0.079                   1.1                    !
 ! D21   D(5,8,11,14)           -0.079                   1.1                    !
 ! D22   D(9,8,11,12)            0.22                    3.0                    !
 ! D23   D(9,8,11,13)            0.141                   1.9                    !
 ! D24   D(9,8,11,14)            0.062                   0.9                    !
 ! D25   D(10,8,11,12)          -0.062                   0.9                    !
 ! D26   D(10,8,11,13)          -0.141                   1.9                    !
 ! D27   D(10,8,11,14)          -0.22                    3.0                    !
 --------------------------------------------------------------------------------
                           ----------------------------
                           ! Normal Mode    19        !
 --------------------------                            --------------------------
 ! Name  Definition              Value          Relative Weight (%)             !
 --------------------------------------------------------------------------------
 ! R4    R(1,5)                  0.1516                  3.0                    !
 ! R7    R(5,8)                 -0.07                    1.4                    !
 ! R10   R(8,11)                 0.1516                  3.0                    !
 ! A1    A(2,1,3)                0.2629                  5.2                    !
 ! A2    A(2,1,4)                0.2629                  5.2                    !
 ! A3    A(2,1,5)               -0.2284                  4.5                    !
 ! A4    A(3,1,4)                0.2221                  4.4                    !
 ! A5    A(3,1,5)               -0.2402                  4.7                    !
 ! A6    A(4,1,5)               -0.2402                  4.7                    !
 ! A7    A(1,5,6)               -0.0655                  1.3                    !
 ! A8    A(1,5,7)               -0.0655                  1.3                    !
 ! A11   A(6,5,8)                0.0892                  1.8                    !
 ! A12   A(7,5,8)                0.0892                  1.8                    !
 ! A13   A(5,8,9)                0.0892                  1.8                    !
 ! A14   A(5,8,10)               0.0892                  1.8                    !
 ! A17   A(9,8,11)              -0.0655                  1.3                    !
 ! A18   A(10,8,11)             -0.0655                  1.3                    !
 ! A19   A(8,11,12)             -0.2402                  4.7                    !
 ! A20   A(8,11,13)             -0.2284                  4.5                    !
 ! A21   A(8,11,14)             -0.2402                  4.7                    !
 ! A22   A(12,11,13)             0.2629                  5.2                    !
 ! A23   A(12,11,14)             0.2221                  4.4                    !
 ! A24   A(13,11,14)             0.2629                  5.2                    !
 ! D1    D(2,1,5,6)             -0.0566                  1.1                    !
 ! D2    D(2,1,5,7)              0.0566                  1.1                    !
 ! D4    D(3,1,5,6)             -0.0736                  1.4                    !
 ! D5    D(3,1,5,7)              0.0396                  0.8                    !
 ! D7    D(4,1,5,6)             -0.0396                  0.8                    !
 ! D8    D(4,1,5,7)              0.0736                  1.4                    !
 ! D13   D(6,5,8,9)             -0.0625                  1.2                    !
 ! D17   D(7,5,8,10)             0.0625                  1.2                    !
 ! D22   D(9,8,11,12)           -0.0736                  1.4                    !
 ! D23   D(9,8,11,13)           -0.0566                  1.1                    !
 ! D24   D(9,8,11,14)           -0.0396                  0.8                    !
 ! D25   D(10,8,11,12)           0.0396                  0.8                    !
 ! D26   D(10,8,11,13)           0.0566                  1.1                    !
 ! D27   D(10,8,11,14)           0.0736                  1.4                    !
 --------------------------------------------------------------------------------
                           ----------------------------
                           ! Normal Mode    20        !
 --------------------------                            --------------------------
 ! Name  Definition              Value          Relative Weight (%)             !
 --------------------------------------------------------------------------------
 ! R4    R(1,5)                 -0.1247                  3.0                    !
 ! R10   R(8,11)                 0.1247                  3.0                    !
 ! A1    A(2,1,3)               -0.2675                  6.4                    !
 ! A2    A(2,1,4)               -0.2675                  6.4                    !
 ! A3    A(2,1,5)                0.2239                  5.3                    !
 ! A4    A(3,1,4)               -0.2241                  5.3                    !
 ! A5    A(3,1,5)                0.2477                  5.9                    !
 ! A6    A(4,1,5)                0.2477                  5.9                    !
 ! A7    A(1,5,6)                0.0402                  1.0                    !
 ! A8    A(1,5,7)                0.0402                  1.0                    !
 ! A11   A(6,5,8)               -0.0411                  1.0                    !
 ! A12   A(7,5,8)               -0.0411                  1.0                    !
 ! A13   A(5,8,9)                0.0411                  1.0                    !
 ! A14   A(5,8,10)               0.0411                  1.0                    !
 ! A17   A(9,8,11)              -0.0402                  1.0                    !
 ! A18   A(10,8,11)             -0.0402                  1.0                    !
 ! A19   A(8,11,12)             -0.2477                  5.9                    !
 ! A20   A(8,11,13)             -0.2239                  5.3                    !
 ! A21   A(8,11,14)             -0.2477                  5.9                    !
 ! A22   A(12,11,13)             0.2675                  6.4                    !
 ! A23   A(12,11,14)             0.2241                  5.3                    !
 ! A24   A(13,11,14)             0.2675                  6.4                    !
 ! D1    D(2,1,5,6)              0.0295                  0.7                    !
 ! D2    D(2,1,5,7)             -0.0295                  0.7                    !
 ! D4    D(3,1,5,6)              0.0502                  1.2                    !
 ! D8    D(4,1,5,7)             -0.0502                  1.2                    !
 ! D14   D(6,5,8,10)             0.0336                  0.8                    !
 ! D16   D(7,5,8,9)             -0.0336                  0.8                    !
 ! D22   D(9,8,11,12)           -0.0502                  1.2                    !
 ! D23   D(9,8,11,13)           -0.0295                  0.7                    !
 ! D26   D(10,8,11,13)           0.0295                  0.7                    !
 ! D27   D(10,8,11,14)           0.0502                  1.2                    !
 --------------------------------------------------------------------------------
                           ----------------------------
                           ! Normal Mode    21        !
 --------------------------                            --------------------------
 ! Name  Definition              Value          Relative Weight (%)             !
 --------------------------------------------------------------------------------
 ! A4    A(3,1,4)                0.1105                  1.4                    !
 ! A7    A(1,5,6)               -0.1118                  1.4                    !
 ! A8    A(1,5,7)               -0.1118                  1.4                    !
 ! A10   A(6,5,7)                0.5108                  6.6                    !
 ! A11   A(6,5,8)               -0.1043                  1.3                    !
 ! A12   A(7,5,8)               -0.1043                  1.3                    !
 ! A13   A(5,8,9)               -0.1043                  1.3                    !
 ! A14   A(5,8,10)              -0.1043                  1.3                    !
 ! A16   A(9,8,10)               0.5108                  6.6                    !
 ! A17   A(9,8,11)              -0.1118                  1.4                    !
 ! A18   A(10,8,11)             -0.1118                  1.4                    !
 ! A23   A(12,11,14)             0.1105                  1.4                    !
 ! D1    D(2,1,5,6)              0.2443                  3.1                    !
 ! D2    D(2,1,5,7)             -0.2443                  3.1                    !
 ! D4    D(3,1,5,6)              0.3008                  3.9                    !
 ! D5    D(3,1,5,7)             -0.1878                  2.4                    !
 ! D7    D(4,1,5,6)              0.1878                  2.4                    !
 ! D8    D(4,1,5,7)             -0.3008                  3.9                    !
 ! D10   D(1,5,8,9)             -0.2473                  3.2                    !
 ! D11   D(1,5,8,10)             0.2473                  3.2                    !
 ! D13   D(6,5,8,9)             -0.4946                  6.4                    !
 ! D15   D(6,5,8,11)            -0.2473                  3.2                    !
 ! D17   D(7,5,8,10)             0.4946                  6.4                    !
 ! D18   D(7,5,8,11)             0.2473                  3.2                    !
 ! D22   D(9,8,11,12)            0.3008                  3.9                    !
 ! D23   D(9,8,11,13)            0.2443                  3.1                    !
 ! D24   D(9,8,11,14)            0.1878                  2.4                    !
 ! D25   D(10,8,11,12)          -0.1878                  2.4                    !
 ! D26   D(10,8,11,13)          -0.2443                  3.1                    !
 ! D27   D(10,8,11,14)          -0.3008                  3.9                    !
 --------------------------------------------------------------------------------
                           ----------------------------
                           ! Normal Mode    22        !
 --------------------------                            --------------------------
 ! Name  Definition              Value          Relative Weight (%)             !
 --------------------------------------------------------------------------------
 ! A1    A(2,1,3)                0.1473                  2.0                    !
 ! A2    A(2,1,4)                0.1473                  2.0                    !
 ! A3    A(2,1,5)               -0.0633                  0.9                    !
 ! A4    A(3,1,4)               -0.3172                  4.3                    !
 ! A7    A(1,5,6)                0.0984                  1.3                    !
 ! A8    A(1,5,7)                0.0984                  1.3                    !
 ! A10   A(6,5,7)               -0.3807                  5.1                    !
 ! A11   A(6,5,8)                0.0722                  1.0                    !
 ! A12   A(7,5,8)                0.0722                  1.0                    !
 ! A13   A(5,8,9)               -0.0722                  1.0                    !
 ! A14   A(5,8,10)              -0.0722                  1.0                    !
 ! A16   A(9,8,10)               0.3807                  5.1                    !
 ! A17   A(9,8,11)              -0.0984                  1.3                    !
 ! A18   A(10,8,11)             -0.0984                  1.3                    !
 ! A20   A(8,11,13)              0.0633                  0.9                    !
 ! A22   A(12,11,13)            -0.1473                  2.0                    !
 ! A23   A(12,11,14)             0.3172                  4.3                    !
 ! A24   A(13,11,14)            -0.1473                  2.0                    !
 ! D1    D(2,1,5,6)             -0.1733                  2.3                    !
 ! D2    D(2,1,5,7)              0.1733                  2.3                    !
 ! D4    D(3,1,5,6)             -0.3452                  4.6                    !
 ! D6    D(3,1,5,8)             -0.1719                  2.3                    !
 ! D8    D(4,1,5,7)              0.3452                  4.6                    !
 ! D9    D(4,1,5,8)              0.1719                  2.3                    !
 ! D10   D(1,5,8,9)             -0.1874                  2.5                    !
 ! D11   D(1,5,8,10)             0.1874                  2.5                    !
 ! D14   D(6,5,8,10)             0.3749                  5.0                    !
 ! D15   D(6,5,8,11)             0.1874                  2.5                    !
 ! D16   D(7,5,8,9)             -0.3749                  5.0                    !
 ! D18   D(7,5,8,11)            -0.1874                  2.5                    !
 ! D19   D(5,8,11,12)            0.1719                  2.3                    !
 ! D21   D(5,8,11,14)           -0.1719                  2.3                    !
 ! D22   D(9,8,11,12)            0.3452                  4.6                    !
 ! D23   D(9,8,11,13)            0.1733                  2.3                    !
 ! D26   D(10,8,11,13)          -0.1733                  2.3                    !
 ! D27   D(10,8,11,14)          -0.3452                  4.6                    !
 --------------------------------------------------------------------------------
                           ----------------------------
                           ! Normal Mode    23        !
 --------------------------                            --------------------------
 ! Name  Definition              Value          Relative Weight (%)             !
 --------------------------------------------------------------------------------
 ! A1    A(2,1,3)                0.3929                  7.0                    !
 ! A2    A(2,1,4)               -0.3929                  7.0                    !
 ! A5    A(3,1,5)               -0.1049                  1.9                    !
 ! A6    A(4,1,5)                0.1049                  1.9                    !
 ! A19   A(8,11,12)              0.1049                  1.9                    !
 ! A21   A(8,11,14)             -0.1049                  1.9                    !
 ! A22   A(12,11,13)            -0.3929                  7.0                    !
 ! A24   A(13,11,14)             0.3929                  7.0                    !
 ! D1    D(2,1,5,6)              0.2739                  4.9                    !
 ! D2    D(2,1,5,7)              0.2739                  4.9                    !
 ! D3    D(2,1,5,8)              0.2942                  5.3                    !
 ! D4    D(3,1,5,6)             -0.1526                  2.7                    !
 ! D5    D(3,1,5,7)             -0.1526                  2.7                    !
 ! D6    D(3,1,5,8)             -0.1323                  2.4                    !
 ! D7    D(4,1,5,6)             -0.1526                  2.7                    !
 ! D8    D(4,1,5,7)             -0.1526                  2.7                    !
 ! D9    D(4,1,5,8)             -0.1323                  2.4                    !
 ! D19   D(5,8,11,12)            0.1323                  2.4                    !
 ! D20   D(5,8,11,13)           -0.2942                  5.3                    !
 ! D21   D(5,8,11,14)            0.1323                  2.4                    !
 ! D22   D(9,8,11,12)            0.1526                  2.7                    !
 ! D23   D(9,8,11,13)           -0.2739                  4.9                    !
 ! D24   D(9,8,11,14)            0.1526                  2.7                    !
 ! D25   D(10,8,11,12)           0.1526                  2.7                    !
 ! D26   D(10,8,11,13)          -0.2739                  4.9                    !
 ! D27   D(10,8,11,14)           0.1526                  2.7                    !
 --------------------------------------------------------------------------------
                           ----------------------------
                           ! Normal Mode    24        !
 --------------------------                            --------------------------
 ! Name  Definition              Value          Relative Weight (%)             !
 --------------------------------------------------------------------------------
 ! A1    A(2,1,3)                0.3887                  6.7                    !
 ! A2    A(2,1,4)               -0.3887                  6.7                    !
 ! A5    A(3,1,5)               -0.1092                  1.9                    !
 ! A6    A(4,1,5)                0.1092                  1.9                    !
 ! A19   A(8,11,12)             -0.1092                  1.9                    !
 ! A21   A(8,11,14)              0.1092                  1.9                    !
 ! A22   A(12,11,13)             0.3887                  6.7                    !
 ! A24   A(13,11,14)            -0.3887                  6.7                    !
 ! D1    D(2,1,5,6)              0.2818                  4.9                    !
 ! D2    D(2,1,5,7)              0.2818                  4.9                    !
 ! D3    D(2,1,5,8)              0.2777                  4.8                    !
 ! D4    D(3,1,5,6)             -0.1365                  2.4                    !
 ! D5    D(3,1,5,7)             -0.1365                  2.4                    !
 ! D6    D(3,1,5,8)             -0.1406                  2.4                    !
 ! D7    D(4,1,5,6)             -0.1365                  2.4                    !
 ! D8    D(4,1,5,7)             -0.1365                  2.4                    !
 ! D9    D(4,1,5,8)             -0.1406                  2.4                    !
 ! D19   D(5,8,11,12)           -0.1406                  2.4                    !
 ! D20   D(5,8,11,13)            0.2777                  4.8                    !
 ! D21   D(5,8,11,14)           -0.1406                  2.4                    !
 ! D22   D(9,8,11,12)           -0.1365                  2.4                    !
 ! D23   D(9,8,11,13)            0.2818                  4.9                    !
 ! D24   D(9,8,11,14)           -0.1365                  2.4                    !
 ! D25   D(10,8,11,12)          -0.1365                  2.4                    !
 ! D26   D(10,8,11,13)           0.2818                  4.9                    !
 ! D27   D(10,8,11,14)          -0.1365                  2.4                    !
 --------------------------------------------------------------------------------
                           ----------------------------
                           ! Normal Mode    25        !
 --------------------------                            --------------------------
 ! Name  Definition              Value          Relative Weight (%)             !
 --------------------------------------------------------------------------------
 ! R7    R(5,8)                  0.068                   1.1                    !
 ! A1    A(2,1,3)                0.2213                  3.5                    !
 ! A2    A(2,1,4)                0.2213                  3.5                    !
 ! A3    A(2,1,5)               -0.1295                  2.1                    !
 ! A4    A(3,1,4)               -0.4416                  7.1                    !
 ! A5    A(3,1,5)                0.0622                  1.0                    !
 ! A6    A(4,1,5)                0.0622                  1.0                    !
 ! A10   A(6,5,7)                0.106                   1.7                    !
 ! A11   A(6,5,8)               -0.0506                  0.8                    !
 ! A12   A(7,5,8)               -0.0506                  0.8                    !
 ! A13   A(5,8,9)               -0.0506                  0.8                    !
 ! A14   A(5,8,10)              -0.0506                  0.8                    !
 ! A16   A(9,8,10)               0.106                   1.7                    !
 ! A19   A(8,11,12)              0.0622                  1.0                    !
 ! A20   A(8,11,13)             -0.1295                  2.1                    !
 ! A21   A(8,11,14)              0.0622                  1.0                    !
 ! A22   A(12,11,13)             0.2213                  3.5                    !
 ! A23   A(12,11,14)            -0.4416                  7.1                    !
 ! A24   A(13,11,14)             0.2213                  3.5                    !
 ! D1    D(2,1,5,6)              0.0661                  1.1                    !
 ! D2    D(2,1,5,7)             -0.0661                  1.1                    !
 ! D4    D(3,1,5,6)             -0.1697                  2.7                    !
 ! D5    D(3,1,5,7)             -0.302                   4.8                    !
 ! D6    D(3,1,5,8)             -0.2358                  3.8                    !
 ! D7    D(4,1,5,6)              0.302                   4.8                    !
 ! D8    D(4,1,5,7)              0.1697                  2.7                    !
 ! D9    D(4,1,5,8)              0.2358                  3.8                    !
 ! D13   D(6,5,8,9)             -0.0705                  1.1                    !
 ! D17   D(7,5,8,10)             0.0705                  1.1                    !
 ! D19   D(5,8,11,12)           -0.2358                  3.8                    !
 ! D21   D(5,8,11,14)            0.2358                  3.8                    !
 ! D22   D(9,8,11,12)           -0.1697                  2.7                    !
 ! D23   D(9,8,11,13)            0.0661                  1.1                    !
 ! D24   D(9,8,11,14)            0.302                   4.8                    !
 ! D25   D(10,8,11,12)          -0.302                   4.8                    !
 ! D26   D(10,8,11,13)          -0.0661                  1.1                    !
 ! D27   D(10,8,11,14)           0.1697                  2.7                    !
 --------------------------------------------------------------------------------
                           ----------------------------
                           ! Normal Mode    26        !
 --------------------------                            --------------------------
 ! Name  Definition              Value          Relative Weight (%)             !
 --------------------------------------------------------------------------------
 ! A1    A(2,1,3)                0.1655                  2.2                    !
 ! A2    A(2,1,4)                0.1655                  2.2                    !
 ! A3    A(2,1,5)               -0.094                   1.3                    !
 ! A4    A(3,1,4)               -0.3425                  4.6                    !
 ! A10   A(6,5,7)                0.3583                  4.8                    !
 ! A11   A(6,5,8)               -0.0947                  1.3                    !
 ! A12   A(7,5,8)               -0.0947                  1.3                    !
 ! A13   A(5,8,9)                0.0947                  1.3                    !
 ! A14   A(5,8,10)               0.0947                  1.3                    !
 ! A16   A(9,8,10)              -0.3583                  4.8                    !
 ! A20   A(8,11,13)              0.094                   1.3                    !
 ! A22   A(12,11,13)            -0.1655                  2.2                    !
 ! A23   A(12,11,14)             0.3425                  4.6                    !
 ! A24   A(13,11,14)            -0.1655                  2.2                    !
 ! D1    D(2,1,5,6)              0.1749                  2.4                    !
 ! D2    D(2,1,5,7)             -0.1749                  2.4                    !
 ! D5    D(3,1,5,7)             -0.3561                  4.8                    !
 ! D6    D(3,1,5,8)             -0.1812                  2.4                    !
 ! D7    D(4,1,5,6)              0.3561                  4.8                    !
 ! D9    D(4,1,5,8)              0.1812                  2.4                    !
 ! D10   D(1,5,8,9)              0.1616                  2.2                    !
 ! D11   D(1,5,8,10)            -0.1616                  2.2                    !
 ! D14   D(6,5,8,10)            -0.3232                  4.3                    !
 ! D15   D(6,5,8,11)            -0.1616                  2.2                    !
 ! D16   D(7,5,8,9)              0.3232                  4.3                    !
 ! D18   D(7,5,8,11)             0.1616                  2.2                    !
 ! D19   D(5,8,11,12)            0.1812                  2.4                    !
 ! D21   D(5,8,11,14)           -0.1812                  2.4                    !
 ! D23   D(9,8,11,13)           -0.1749                  2.4                    !
 ! D24   D(9,8,11,14)           -0.3561                  4.8                    !
 ! D25   D(10,8,11,12)           0.3561                  4.8                    !
 ! D26   D(10,8,11,13)           0.1749                  2.4                    !
 --------------------------------------------------------------------------------
                           ----------------------------
                           ! Normal Mode    27        !
 --------------------------                            --------------------------
 ! Name  Definition              Value          Relative Weight (%)             !
 --------------------------------------------------------------------------------
 ! R1    R(1,2)                  0.0768                  2.5                    !
 ! R2    R(1,3)                  0.017                   0.6                    !
 ! R3    R(1,4)                  0.017                   0.6                    !
 ! R4    R(1,5)                  0.0239                  0.8                    !
 ! R5    R(5,6)                 -0.5244                 17.2                    !
 ! R6    R(5,7)                 -0.5244                 17.2                    !
 ! R7    R(5,8)                  0.0538                  1.8                    !
 ! R8    R(8,9)                 -0.5244                 17.2                    !
 ! R9    R(8,10)                -0.5244                 17.2                    !
 ! R10   R(8,11)                 0.0239                  0.8                    !
 ! R11   R(11,12)                0.017                   0.6                    !
 ! R12   R(11,13)                0.0768                  2.5                    !
 ! R13   R(11,14)                0.017                   0.6                    !
 ! A3    A(2,1,5)               -0.018                   0.6                    !
 ! A9    A(1,5,8)               -0.0428                  1.4                    !
 ! A10   A(6,5,7)                0.0237                  0.8                    !
 ! A15   A(5,8,11)              -0.0428                  1.4                    !
 ! A16   A(9,8,10)               0.0237                  0.8                    !
 ! A20   A(8,11,13)             -0.018                   0.6                    !
 ! D1    D(2,1,5,6)              0.0163                  0.5                    !
 ! D2    D(2,1,5,7)             -0.0163                  0.5                    !
 ! D4    D(3,1,5,6)              0.0223                  0.7                    !
 ! D5    D(3,1,5,7)             -0.0103                  0.3                    !
 ! D7    D(4,1,5,6)              0.0103                  0.3                    !
 ! D8    D(4,1,5,7)             -0.0223                  0.7                    !
 ! D10   D(1,5,8,9)             -0.0187                  0.6                    !
 ! D11   D(1,5,8,10)             0.0187                  0.6                    !
 ! D13   D(6,5,8,9)             -0.0373                  1.2                    !
 ! D15   D(6,5,8,11)            -0.0187                  0.6                    !
 ! D17   D(7,5,8,10)             0.0373                  1.2                    !
 ! D18   D(7,5,8,11)             0.0187                  0.6                    !
 ! D22   D(9,8,11,12)            0.0223                  0.7                    !
 ! D23   D(9,8,11,13)            0.0163                  0.5                    !
 ! D24   D(9,8,11,14)            0.0103                  0.3                    !
 ! D25   D(10,8,11,12)          -0.0103                  0.3                    !
 ! D26   D(10,8,11,13)          -0.0163                  0.5                    !
 ! D27   D(10,8,11,14)          -0.0223                  0.7                    !
 --------------------------------------------------------------------------------
                           ----------------------------
                           ! Normal Mode    28        !
 --------------------------                            --------------------------
 ! Name  Definition              Value          Relative Weight (%)             !
 --------------------------------------------------------------------------------
 ! R2    R(1,3)                 -0.1131                  3.7                    !
 ! R3    R(1,4)                 -0.1131                  3.7                    !
 ! R4    R(1,5)                  0.0344                  1.1                    !
 ! R5    R(5,6)                 -0.5153                 16.7                    !
 ! R6    R(5,7)                 -0.5153                 16.7                    !
 ! R8    R(8,9)                  0.5153                 16.7                    !
 ! R9    R(8,10)                 0.5153                 16.7                    !
 ! R10   R(8,11)                -0.0344                  1.1                    !
 ! R11   R(11,12)                0.1131                  3.7                    !
 ! R13   R(11,14)                0.1131                  3.7                    !
 ! A3    A(2,1,5)               -0.0204                  0.7                    !
 ! A10   A(6,5,7)                0.0232                  0.7                    !
 ! A16   A(9,8,10)              -0.0232                  0.7                    !
 ! A20   A(8,11,13)              0.0204                  0.7                    !
 ! D4    D(3,1,5,6)              0.0232                  0.8                    !
 ! D8    D(4,1,5,7)             -0.0232                  0.8                    !
 ! D14   D(6,5,8,10)            -0.0221                  0.7                    !
 ! D16   D(7,5,8,9)              0.0221                  0.7                    !
 ! D22   D(9,8,11,12)           -0.0232                  0.8                    !
 ! D27   D(10,8,11,14)           0.0232                  0.8                    !
 --------------------------------------------------------------------------------
                           ----------------------------
                           ! Normal Mode    29        !
 --------------------------                            --------------------------
 ! Name  Definition              Value          Relative Weight (%)             !
 --------------------------------------------------------------------------------
 ! R1    R(1,2)                 -0.3635                 11.6                    !
 ! R2    R(1,3)                 -0.4352                 13.9                    !
 ! R3    R(1,4)                 -0.4352                 13.9                    !
 ! R5    R(5,6)                  0.1002                  3.2                    !
 ! R6    R(5,7)                  0.1002                  3.2                    !
 ! R8    R(8,9)                 -0.1002                  3.2                    !
 ! R9    R(8,10)                -0.1002                  3.2                    !
 ! R11   R(11,12)                0.4352                 13.9                    !
 ! R12   R(11,13)                0.3635                 11.6                    !
 ! R13   R(11,14)                0.4352                 13.9                    !
 --------------------------------------------------------------------------------
                           ----------------------------
                           ! Normal Mode    30        !
 --------------------------                            --------------------------
 ! Name  Definition              Value          Relative Weight (%)             !
 --------------------------------------------------------------------------------
 ! R1    R(1,2)                 -0.3421                 11.5                    !
 ! R2    R(1,3)                 -0.4532                 15.2                    !
 ! R3    R(1,4)                 -0.4532                 15.2                    !
 ! R4    R(1,5)                  0.0377                  1.3                    !
 ! R5    R(5,6)                 -0.0412                  1.4                    !
 ! R6    R(5,7)                 -0.0412                  1.4                    !
 ! R8    R(8,9)                 -0.0412                  1.4                    !
 ! R9    R(8,10)                -0.0412                  1.4                    !
 ! R10   R(8,11)                 0.0377                  1.3                    !
 ! R11   R(11,12)               -0.4532                 15.2                    !
 ! R12   R(11,13)               -0.3421                 11.5                    !
 ! R13   R(11,14)               -0.4532                 15.2                    !
 --------------------------------------------------------------------------------
                           ----------------------------
                           ! Normal Mode    31        !
 --------------------------                            --------------------------
 ! Name  Definition              Value          Relative Weight (%)             !
 --------------------------------------------------------------------------------
 ! R2    R(1,3)                  0.1054                  2.7                    !
 ! R3    R(1,4)                 -0.1054                  2.7                    !
 ! R5    R(5,6)                 -0.5401                 13.9                    !
 ! R6    R(5,7)                  0.5401                 13.9                    !
 ! R8    R(8,9)                  0.5401                 13.9                    !
 ! R9    R(8,10)                -0.5401                 13.9                    !
 ! R11   R(11,12)               -0.1054                  2.7                    !
 ! R13   R(11,14)                0.1054                  2.7                    !
 ! A5    A(3,1,5)               -0.025                   0.6                    !
 ! A6    A(4,1,5)                0.025                   0.6                    !
 ! A7    A(1,5,6)                0.0306                  0.8                    !
 ! A8    A(1,5,7)               -0.0306                  0.8                    !
 ! A11   A(6,5,8)                0.0456                  1.2                    !
 ! A12   A(7,5,8)               -0.0456                  1.2                    !
 ! A13   A(5,8,9)               -0.0456                  1.2                    !
 ! A14   A(5,8,10)               0.0456                  1.2                    !
 ! A17   A(9,8,11)              -0.0306                  0.8                    !
 ! A18   A(10,8,11)              0.0306                  0.8                    !
 ! A19   A(8,11,12)              0.025                   0.6                    !
 ! A21   A(8,11,14)             -0.025                   0.6                    !
 ! D1    D(2,1,5,6)             -0.0363                  0.9                    !
 ! D2    D(2,1,5,7)             -0.0363                  0.9                    !
 ! D3    D(2,1,5,8)              0.0436                  1.1                    !
 ! D6    D(3,1,5,8)              0.0666                  1.7                    !
 ! D9    D(4,1,5,8)              0.0666                  1.7                    !
 ! D10   D(1,5,8,9)             -0.071                   1.8                    !
 ! D11   D(1,5,8,10)            -0.071                   1.8                    !
 ! D15   D(6,5,8,11)             0.071                   1.8                    !
 ! D18   D(7,5,8,11)             0.071                   1.8                    !
 ! D19   D(5,8,11,12)           -0.0666                  1.7                    !
 ! D20   D(5,8,11,13)           -0.0436                  1.1                    !
 ! D21   D(5,8,11,14)           -0.0666                  1.7                    !
 ! D23   D(9,8,11,13)            0.0363                  0.9                    !
 ! D26   D(10,8,11,13)           0.0363                  0.9                    !
 --------------------------------------------------------------------------------
                           ----------------------------
                           ! Normal Mode    32        !
 --------------------------                            --------------------------
 ! Name  Definition              Value          Relative Weight (%)             !
 --------------------------------------------------------------------------------
 ! R2    R(1,3)                  0.2165                  5.6                    !
 ! R3    R(1,4)                 -0.2165                  5.6                    !
 ! R5    R(5,6)                 -0.5068                 13.2                    !
 ! R6    R(5,7)                  0.5068                 13.2                    !
 ! R8    R(8,9)                 -0.5068                 13.2                    !
 ! R9    R(8,10)                 0.5068                 13.2                    !
 ! R11   R(11,12)                0.2165                  5.6                    !
 ! R13   R(11,14)               -0.2165                  5.6                    !
 ! A5    A(3,1,5)               -0.0318                  0.8                    !
 ! A6    A(4,1,5)                0.0318                  0.8                    !
 ! A7    A(1,5,6)                0.035                   0.9                    !
 ! A8    A(1,5,7)               -0.035                   0.9                    !
 ! A17   A(9,8,11)               0.035                   0.9                    !
 ! A18   A(10,8,11)             -0.035                   0.9                    !
 ! A19   A(8,11,12)             -0.0318                  0.8                    !
 ! A21   A(8,11,14)              0.0318                  0.8                    !
 ! D1    D(2,1,5,6)             -0.0416                  1.1                    !
 ! D2    D(2,1,5,7)             -0.0416                  1.1                    !
 ! D12   D(1,5,8,11)            -0.0653                  1.7                    !
 ! D13   D(6,5,8,9)              0.0327                  0.9                    !
 ! D14   D(6,5,8,10)             0.0327                  0.9                    !
 ! D16   D(7,5,8,9)              0.0327                  0.9                    !
 ! D17   D(7,5,8,10)             0.0327                  0.9                    !
 ! D23   D(9,8,11,13)           -0.0416                  1.1                    !
 ! D26   D(10,8,11,13)          -0.0416                  1.1                    !
 --------------------------------------------------------------------------------
                           ----------------------------
                           ! Normal Mode    33        !
 --------------------------                            --------------------------
 ! Name  Definition              Value          Relative Weight (%)             !
 --------------------------------------------------------------------------------
 ! R2    R(1,3)                 -0.5407                 16.2                    !
 ! R3    R(1,4)                  0.5407                 16.2                    !
 ! R5    R(5,6)                 -0.1054                  3.2                    !
 ! R6    R(5,7)                  0.1054                  3.2                    !
 ! R8    R(8,9)                  0.1054                  3.2                    !
 ! R9    R(8,10)                -0.1054                  3.2                    !
 ! R11   R(11,12)                0.5407                 16.2                    !
 ! R13   R(11,14)               -0.5407                 16.2                    !
 ! A1    A(2,1,3)                0.0257                  0.8                    !
 ! A2    A(2,1,4)               -0.0257                  0.8                    !
 ! A5    A(3,1,5)                0.0259                  0.8                    !
 ! A6    A(4,1,5)               -0.0259                  0.8                    !
 ! A7    A(1,5,6)               -0.0147                  0.4                    !
 ! A8    A(1,5,7)                0.0147                  0.4                    !
 ! A11   A(6,5,8)                0.0112                  0.3                    !
 ! A12   A(7,5,8)               -0.0112                  0.3                    !
 ! A13   A(5,8,9)               -0.0112                  0.3                    !
 ! A14   A(5,8,10)               0.0112                  0.3                    !
 ! A17   A(9,8,11)               0.0147                  0.4                    !
 ! A18   A(10,8,11)             -0.0147                  0.4                    !
 ! A19   A(8,11,12)             -0.0259                  0.8                    !
 ! A21   A(8,11,14)              0.0259                  0.8                    !
 ! A22   A(12,11,13)            -0.0257                  0.8                    !
 ! A24   A(13,11,14)             0.0257                  0.8                    !
 ! D1    D(2,1,5,6)              0.0319                  1.0                    !
 ! D2    D(2,1,5,7)              0.0319                  1.0                    !
 ! D3    D(2,1,5,8)              0.0357                  1.1                    !
 ! D4    D(3,1,5,6)             -0.0181                  0.5                    !
 ! D5    D(3,1,5,7)             -0.0181                  0.5                    !
 ! D6    D(3,1,5,8)             -0.0143                  0.4                    !
 ! D7    D(4,1,5,6)             -0.0181                  0.5                    !
 ! D8    D(4,1,5,7)             -0.0181                  0.5                    !
 ! D9    D(4,1,5,8)             -0.0143                  0.4                    !
 ! D10   D(1,5,8,9)              0.0108                  0.3                    !
 ! D11   D(1,5,8,10)             0.0108                  0.3                    !
 ! D15   D(6,5,8,11)            -0.0108                  0.3                    !
 ! D18   D(7,5,8,11)            -0.0108                  0.3                    !
 ! D19   D(5,8,11,12)            0.0143                  0.4                    !
 ! D20   D(5,8,11,13)           -0.0357                  1.1                    !
 ! D21   D(5,8,11,14)            0.0143                  0.4                    !
 ! D22   D(9,8,11,12)            0.0181                  0.5                    !
 ! D23   D(9,8,11,13)           -0.0319                  1.0                    !
 ! D24   D(9,8,11,14)            0.0181                  0.5                    !
 ! D25   D(10,8,11,12)           0.0181                  0.5                    !
 ! D26   D(10,8,11,13)          -0.0319                  1.0                    !
 ! D27   D(10,8,11,14)           0.0181                  0.5                    !
 --------------------------------------------------------------------------------
                           ----------------------------
                           ! Normal Mode    34        !
 --------------------------                            --------------------------
 ! Name  Definition              Value          Relative Weight (%)             !
 --------------------------------------------------------------------------------
 ! R2    R(1,3)                 -0.5065                 13.9                    !
 ! R3    R(1,4)                  0.5065                 13.9                    !
 ! R5    R(5,6)                 -0.2162                  5.9                    !
 ! R6    R(5,7)                  0.2162                  5.9                    !
 ! R8    R(8,9)                 -0.2162                  5.9                    !
 ! R9    R(8,10)                 0.2162                  5.9                    !
 ! R11   R(11,12)               -0.5065                 13.9                    !
 ! R13   R(11,14)                0.5065                 13.9                    !
 ! A1    A(2,1,3)                0.0249                  0.7                    !
 ! A2    A(2,1,4)               -0.0249                  0.7                    !
 ! A5    A(3,1,5)                0.0189                  0.5                    !
 ! A6    A(4,1,5)               -0.0189                  0.5                    !
 ! A19   A(8,11,12)              0.0189                  0.5                    !
 ! A21   A(8,11,14)             -0.0189                  0.5                    !
 ! A22   A(12,11,13)             0.0249                  0.7                    !
 ! A24   A(13,11,14)            -0.0249                  0.7                    !
 ! D1    D(2,1,5,6)              0.0252                  0.7                    !
 ! D2    D(2,1,5,7)              0.0252                  0.7                    !
 ! D3    D(2,1,5,8)              0.0246                  0.7                    !
 ! D4    D(3,1,5,6)             -0.0192                  0.5                    !
 ! D5    D(3,1,5,7)             -0.0192                  0.5                    !
 ! D6    D(3,1,5,8)             -0.0198                  0.5                    !
 ! D7    D(4,1,5,6)             -0.0192                  0.5                    !
 ! D8    D(4,1,5,7)             -0.0192                  0.5                    !
 ! D9    D(4,1,5,8)             -0.0198                  0.5                    !
 ! D10   D(1,5,8,9)              0.0196                  0.5                    !
 ! D11   D(1,5,8,10)             0.0196                  0.5                    !
 ! D12   D(1,5,8,11)             0.0252                  0.7                    !
 ! D13   D(6,5,8,9)              0.0139                  0.4                    !
 ! D14   D(6,5,8,10)             0.0139                  0.4                    !
 ! D15   D(6,5,8,11)             0.0196                  0.5                    !
 ! D16   D(7,5,8,9)              0.0139                  0.4                    !
 ! D17   D(7,5,8,10)             0.0139                  0.4                    !
 ! D18   D(7,5,8,11)             0.0196                  0.5                    !
 ! D19   D(5,8,11,12)           -0.0198                  0.5                    !
 ! D20   D(5,8,11,13)            0.0246                  0.7                    !
 ! D21   D(5,8,11,14)           -0.0198                  0.5                    !
 ! D22   D(9,8,11,12)           -0.0192                  0.5                    !
 ! D23   D(9,8,11,13)            0.0252                  0.7                    !
 ! D24   D(9,8,11,14)           -0.0192                  0.5                    !
 ! D25   D(10,8,11,12)          -0.0192                  0.5                    !
 ! D26   D(10,8,11,13)           0.0252                  0.7                    !
 ! D27   D(10,8,11,14)          -0.0192                  0.5                    !
 --------------------------------------------------------------------------------
                           ----------------------------
                           ! Normal Mode    35        !
 --------------------------                            --------------------------
 ! Name  Definition              Value          Relative Weight (%)             !
 --------------------------------------------------------------------------------
 ! R1    R(1,2)                 -0.6794                 20.2                    !
 ! R2    R(1,3)                  0.2653                  7.9                    !
 ! R3    R(1,4)                  0.2653                  7.9                    !
 ! R5    R(5,6)                 -0.0398                  1.2                    !
 ! R6    R(5,7)                 -0.0398                  1.2                    !
 ! R8    R(8,9)                 -0.0398                  1.2                    !
 ! R9    R(8,10)                -0.0398                  1.2                    !
 ! R11   R(11,12)                0.2653                  7.9                    !
 ! R12   R(11,13)               -0.6794                 20.2                    !
 ! R13   R(11,14)                0.2653                  7.9                    !
 ! A3    A(2,1,5)                0.0319                  0.9                    !
 ! A4    A(3,1,4)               -0.0278                  0.8                    !
 ! A20   A(8,11,13)              0.0319                  0.9                    !
 ! A23   A(12,11,14)            -0.0278                  0.8                    !
 ! D4    D(3,1,5,6)             -0.0349                  1.0                    !
 ! D5    D(3,1,5,7)             -0.0242                  0.7                    !
 ! D6    D(3,1,5,8)             -0.0295                  0.9                    !
 ! D7    D(4,1,5,6)              0.0242                  0.7                    !
 ! D8    D(4,1,5,7)              0.0349                  1.0                    !
 ! D9    D(4,1,5,8)              0.0295                  0.9                    !
 ! D19   D(5,8,11,12)           -0.0295                  0.9                    !
 ! D21   D(5,8,11,14)            0.0295                  0.9                    !
 ! D22   D(9,8,11,12)           -0.0349                  1.0                    !
 ! D24   D(9,8,11,14)            0.0242                  0.7                    !
 ! D25   D(10,8,11,12)          -0.0242                  0.7                    !
 ! D27   D(10,8,11,14)           0.0349                  1.0                    !
 --------------------------------------------------------------------------------
                           ----------------------------
                           ! Normal Mode    36        !
 --------------------------                            --------------------------
 ! Name  Definition              Value          Relative Weight (%)             !
 --------------------------------------------------------------------------------
 ! R1    R(1,2)                 -0.6719                 19.8                    !
 ! R2    R(1,3)                  0.2726                  8.0                    !
 ! R3    R(1,4)                  0.2726                  8.0                    !
 ! R5    R(5,6)                 -0.0523                  1.5                    !
 ! R6    R(5,7)                 -0.0523                  1.5                    !
 ! R8    R(8,9)                  0.0523                  1.5                    !
 ! R9    R(8,10)                 0.0523                  1.5                    !
 ! R11   R(11,12)               -0.2726                  8.0                    !
 ! R12   R(11,13)                0.6719                 19.8                    !
 ! R13   R(11,14)               -0.2726                  8.0                    !
 ! A3    A(2,1,5)                0.0322                  0.9                    !
 ! A4    A(3,1,4)               -0.0282                  0.8                    !
 ! A20   A(8,11,13)             -0.0322                  0.9                    !
 ! A23   A(12,11,14)             0.0282                  0.8                    !
 ! D4    D(3,1,5,6)             -0.034                   1.0                    !
 ! D5    D(3,1,5,7)             -0.0247                  0.7                    !
 ! D6    D(3,1,5,8)             -0.0293                  0.9                    !
 ! D7    D(4,1,5,6)              0.0247                  0.7                    !
 ! D8    D(4,1,5,7)              0.034                   1.0                    !
 ! D9    D(4,1,5,8)              0.0293                  0.9                    !
 ! D19   D(5,8,11,12)            0.0293                  0.9                    !
 ! D21   D(5,8,11,14)           -0.0293                  0.9                    !
 ! D22   D(9,8,11,12)            0.034                   1.0                    !
 ! D24   D(9,8,11,14)           -0.0247                  0.7                    !
 ! D25   D(10,8,11,12)           0.0247                  0.7                    !
 ! D27   D(10,8,11,14)          -0.034                   1.0                    !
 --------------------------------------------------------------------------------
 Max01P=     43 Av01P=   25.64 Stan. Dev.=   10.06
 Max05P=     18 Av05P=    4.58 Stan. Dev.=    3.39
 Max10P=      6 Av10P=    1.25 Stan. Dev.=    1.95
 MaxNDP=     93 AvNDP=   56.78 Stan. Dev.=   20.01
 ***** Axes restored to original set *****
 -------------------------------------------------------------------
 Center     Atomic                   Forces (Hartrees/Bohr)
 Number     Number              X              Y              Z
 -------------------------------------------------------------------
      1        6           0.000000608   -0.000000826    0.000000516
      2        1           0.000000645   -0.000000849    0.000000564
      3        1           0.000000652   -0.000000452   -0.000000220
      4        1          -0.000000184   -0.000000747    0.000000292
      5        6           0.000001045    0.000000346    0.000001907
      6        1           0.000000324    0.000000446   -0.000000505
      7        1          -0.000000731    0.000000074    0.000000140
      8        6          -0.000001045   -0.000000346   -0.000001907
      9        1           0.000000731   -0.000000074   -0.000000140
     10        1          -0.000000324   -0.000000446    0.000000505
     11        6          -0.000000608    0.000000826   -0.000000516
     12        1           0.000000184    0.000000747   -0.000000292
     13        1          -0.000000645    0.000000849   -0.000000564
     14        1          -0.000000652    0.000000452    0.000000220
 -------------------------------------------------------------------
 Cartesian Forces:  Max     0.000001907 RMS     0.000000693
 FormGI is forming the generalized inverse of G from B-inverse, IUseBI=4.
 Leave Link  716 at Wed Aug 12 19:06:44 2026, MaxMem= 12884901888 cpu:               1.8 elap:               0.1
 (Enter /home/falbo/g16/l103.exe)

 GradGradGradGradGradGradGradGradGradGradGradGradGradGradGradGradGradGrad
 Berny optimization.
 Red2BG is reusing G-inverse.
 Internal  Forces:  Max     0.000000954 RMS     0.000000335
 Search for a local minimum.
 Step number   1 out of a maximum of    2
 All quantities printed in internal units (Hartrees-Bohrs-Radians)
 Second derivative matrix not updated -- analytic derivatives used.
 ITU=  0
     Eigenvalues ---    0.00198   0.00240   0.00304   0.03309   0.03888
     Eigenvalues ---    0.04048   0.04072   0.04744   0.04758   0.04792
     Eigenvalues ---    0.04802   0.07007   0.07393   0.09855   0.12255
     Eigenvalues ---    0.12710   0.12726   0.13309   0.14055   0.16217
     Eigenvalues ---    0.16346   0.18168   0.23258   0.29862   0.30729
     Eigenvalues ---    0.32092   0.33677   0.33880   0.34667   0.34691
     Eigenvalues ---    0.34736   0.34948   0.34948   0.35149   0.35930
     Eigenvalues ---    0.36032
 Angle between quadratic step and forces=  46.73 degrees.
 Linear search not attempted -- first point.
 Iteration  1 RMS(Cart)=  0.00000329 RMS(Int)=  0.00000000
 Iteration  2 RMS(Cart)=  0.00000000 RMS(Int)=  0.00000000
 ITry= 1 IFail=0 DXMaxC= 1.04D-05 DCOld= 1.00D+10 DXMaxT= 7.00D-02 DXLimC= 3.00D+00 Rises=F
 ClnCor:  largest displacement from symmetrization is 7.94D-09 for atom     4.
 Variable       Old X    -DE/DX   Delta X   Delta X   Delta X     New X
                                 (Linear)    (Quad)   (Total)
    R1        2.06338   0.00000   0.00000   0.00000   0.00000   2.06338
    R2        2.06571   0.00000   0.00000   0.00000   0.00000   2.06571
    R3        2.06571   0.00000   0.00000   0.00000   0.00000   2.06571
    R4        2.88737   0.00000   0.00000   0.00000   0.00000   2.88737
    R5        2.06966   0.00000   0.00000  -0.00000  -0.00000   2.06966
    R6        2.06966   0.00000   0.00000  -0.00000  -0.00000   2.06966
    R7        2.88782   0.00000   0.00000   0.00000   0.00000   2.88782
    R8        2.06966   0.00000   0.00000  -0.00000  -0.00000   2.06966
    R9        2.06966   0.00000   0.00000  -0.00000  -0.00000   2.06966
   R10        2.88737   0.00000   0.00000   0.00000   0.00000   2.88737
   R11        2.06571   0.00000   0.00000   0.00000   0.00000   2.06571
   R12        2.06338   0.00000   0.00000   0.00000   0.00000   2.06338
   R13        2.06571   0.00000   0.00000   0.00000   0.00000   2.06571
    A1        1.88395  -0.00000   0.00000  -0.00000  -0.00000   1.88395
    A2        1.88395  -0.00000   0.00000  -0.00000  -0.00000   1.88395
    A3        1.94734   0.00000   0.00000   0.00000   0.00000   1.94734
    A4        1.88007   0.00000   0.00000   0.00000   0.00000   1.88007
    A5        1.93306   0.00000   0.00000   0.00000   0.00000   1.93306
    A6        1.93306   0.00000   0.00000   0.00000   0.00000   1.93306
    A7        1.91501  -0.00000   0.00000  -0.00000  -0.00000   1.91501
    A8        1.91501  -0.00000   0.00000  -0.00000  -0.00000   1.91501
    A9        1.96311   0.00000   0.00000  -0.00000  -0.00000   1.96311
   A10        1.85880   0.00000   0.00000   0.00001   0.00001   1.85881
   A11        1.90446  -0.00000   0.00000   0.00000   0.00000   1.90446
   A12        1.90446  -0.00000   0.00000   0.00000   0.00000   1.90446
   A13        1.90446  -0.00000   0.00000   0.00000   0.00000   1.90446
   A14        1.90446  -0.00000   0.00000   0.00000   0.00000   1.90446
   A15        1.96311   0.00000   0.00000  -0.00000  -0.00000   1.96311
   A16        1.85880   0.00000   0.00000   0.00001   0.00001   1.85881
   A17        1.91501  -0.00000   0.00000  -0.00000  -0.00000   1.91501
   A18        1.91501  -0.00000   0.00000  -0.00000  -0.00000   1.91501
   A19        1.93306   0.00000   0.00000   0.00000   0.00000   1.93306
   A20        1.94734   0.00000   0.00000   0.00000   0.00000   1.94734
   A21        1.93306   0.00000   0.00000   0.00000   0.00000   1.93306
   A22        1.88395  -0.00000   0.00000  -0.00000  -0.00000   1.88395
   A23        1.88007   0.00000   0.00000   0.00000   0.00000   1.88007
   A24        1.88395  -0.00000   0.00000  -0.00000  -0.00000   1.88395
    D1        1.01825   0.00000   0.00000   0.00000   0.00000   1.01826
    D2       -1.01825  -0.00000   0.00000  -0.00000  -0.00000  -1.01826
    D3        3.14159   0.00000   0.00000  -0.00000   0.00000  -3.14159
    D4       -1.08091   0.00000   0.00000   0.00000   0.00000  -1.08090
    D5       -3.11741  -0.00000   0.00000  -0.00000  -0.00000  -3.11742
    D6        1.04243   0.00000   0.00000   0.00000   0.00000   1.04243
    D7        3.11741   0.00000   0.00000   0.00000   0.00000   3.11742
    D8        1.08091  -0.00000   0.00000  -0.00000  -0.00000   1.08090
    D9       -1.04243  -0.00000   0.00000  -0.00000  -0.00000  -1.04243
   D10       -1.01226  -0.00000   0.00000  -0.00001  -0.00001  -1.01227
   D11        1.01226   0.00000   0.00000   0.00001   0.00001   1.01227
   D12        3.14159  -0.00000   0.00000  -0.00000  -0.00000   3.14159
   D13        1.11707  -0.00000   0.00000  -0.00001  -0.00001   1.11705
   D14        3.14159   0.00000   0.00000  -0.00000   0.00000  -3.14159
   D15       -1.01226  -0.00000   0.00000  -0.00001  -0.00001  -1.01227
   D16       -3.14159  -0.00000   0.00000  -0.00000  -0.00000   3.14159
   D17       -1.11707   0.00000   0.00000   0.00001   0.00001  -1.11705
   D18        1.01226   0.00000   0.00000   0.00001   0.00001   1.01227
   D19        1.04243   0.00000   0.00000   0.00000   0.00000   1.04243
   D20        3.14159  -0.00000   0.00000  -0.00000   0.00000  -3.14159
   D21       -1.04243  -0.00000   0.00000  -0.00000  -0.00000  -1.04243
   D22       -1.08091   0.00000   0.00000   0.00000   0.00000  -1.08090
   D23        1.01825   0.00000   0.00000   0.00000   0.00000   1.01826
   D24        3.11741   0.00000   0.00000   0.00000   0.00000   3.11742
   D25       -3.11741  -0.00000   0.00000  -0.00000  -0.00000  -3.11742
   D26       -1.01825  -0.00000   0.00000  -0.00000  -0.00000  -1.01826
   D27        1.08091  -0.00000   0.00000  -0.00000  -0.00000   1.08090
         Item               Value     Threshold  Converged?
 Maximum Force            0.000001     0.000015     YES
 RMS     Force            0.000000     0.000010     YES
 Maximum Displacement     0.000010     0.000060     YES
 RMS     Displacement     0.000003     0.000040     YES
 Predicted change in Energy=-2.900572D-11
 Optimization completed.
    -- Stationary point found.
                           ----------------------------
                           !   Optimized Parameters   !
                           ! (Angstroms and Degrees)  !
 --------------------------                            --------------------------
 ! Name  Definition              Value          Derivative Info.                !
 --------------------------------------------------------------------------------
 ! R1    R(1,2)                  1.0919         -DE/DX =    0.0                 !
 ! R2    R(1,3)                  1.0931         -DE/DX =    0.0                 !
 ! R3    R(1,4)                  1.0931         -DE/DX =    0.0                 !
 ! R4    R(1,5)                  1.5279         -DE/DX =    0.0                 !
 ! R5    R(5,6)                  1.0952         -DE/DX =    0.0                 !
 ! R6    R(5,7)                  1.0952         -DE/DX =    0.0                 !
 ! R7    R(5,8)                  1.5282         -DE/DX =    0.0                 !
 ! R8    R(8,9)                  1.0952         -DE/DX =    0.0                 !
 ! R9    R(8,10)                 1.0952         -DE/DX =    0.0                 !
 ! R10   R(8,11)                 1.5279         -DE/DX =    0.0                 !
 ! R11   R(11,12)                1.0931         -DE/DX =    0.0                 !
 ! R12   R(11,13)                1.0919         -DE/DX =    0.0                 !
 ! R13   R(11,14)                1.0931         -DE/DX =    0.0                 !
 ! A1    A(2,1,3)              107.9424         -DE/DX =    0.0                 !
 ! A2    A(2,1,4)              107.9424         -DE/DX =    0.0                 !
 ! A3    A(2,1,5)              111.5745         -DE/DX =    0.0                 !
 ! A4    A(3,1,4)              107.7202         -DE/DX =    0.0                 !
 ! A5    A(3,1,5)              110.7564         -DE/DX =    0.0                 !
 ! A6    A(4,1,5)              110.7564         -DE/DX =    0.0                 !
 ! A7    A(1,5,6)              109.7221         -DE/DX =    0.0                 !
 ! A8    A(1,5,7)              109.7221         -DE/DX =    0.0                 !
 ! A9    A(1,5,8)              112.4779         -DE/DX =    0.0                 !
 ! A10   A(6,5,7)              106.5016         -DE/DX =    0.0                 !
 ! A11   A(6,5,8)              109.1177         -DE/DX =    0.0                 !
 ! A12   A(7,5,8)              109.1177         -DE/DX =    0.0                 !
 ! A13   A(5,8,9)              109.1177         -DE/DX =    0.0                 !
 ! A14   A(5,8,10)             109.1177         -DE/DX =    0.0                 !
 ! A15   A(5,8,11)             112.4779         -DE/DX =    0.0                 !
 ! A16   A(9,8,10)             106.5016         -DE/DX =    0.0                 !
 ! A17   A(9,8,11)             109.7221         -DE/DX =    0.0                 !
 ! A18   A(10,8,11)            109.7221         -DE/DX =    0.0                 !
 ! A19   A(8,11,12)            110.7564         -DE/DX =    0.0                 !
 ! A20   A(8,11,13)            111.5745         -DE/DX =    0.0                 !
 ! A21   A(8,11,14)            110.7564         -DE/DX =    0.0                 !
 ! A22   A(12,11,13)           107.9424         -DE/DX =    0.0                 !
 ! A23   A(12,11,14)           107.7202         -DE/DX =    0.0                 !
 ! A24   A(13,11,14)           107.9424         -DE/DX =    0.0                 !
 ! D1    D(2,1,5,6)             58.3417         -DE/DX =    0.0                 !
 ! D2    D(2,1,5,7)            -58.3417         -DE/DX =    0.0                 !
 ! D3    D(2,1,5,8)           -180.0            -DE/DX =    0.0                 !
 ! D4    D(3,1,5,6)            -61.9314         -DE/DX =    0.0                 !
 ! D5    D(3,1,5,7)           -178.6147         -DE/DX =    0.0                 !
 ! D6    D(3,1,5,8)             59.727          -DE/DX =    0.0                 !
 ! D7    D(4,1,5,6)            178.6147         -DE/DX =    0.0                 !
 ! D8    D(4,1,5,7)             61.9314         -DE/DX =    0.0                 !
 ! D9    D(4,1,5,8)            -59.727          -DE/DX =    0.0                 !
 ! D10   D(1,5,8,9)            -57.9984         -DE/DX =    0.0                 !
 ! D11   D(1,5,8,10)            57.9984         -DE/DX =    0.0                 !
 ! D12   D(1,5,8,11)           180.0            -DE/DX =    0.0                 !
 ! D13   D(6,5,8,9)             64.0032         -DE/DX =    0.0                 !
 ! D14   D(6,5,8,10)          -180.0            -DE/DX =    0.0                 !
 ! D15   D(6,5,8,11)           -57.9984         -DE/DX =    0.0                 !
 ! D16   D(7,5,8,9)            180.0            -DE/DX =    0.0                 !
 ! D17   D(7,5,8,10)           -64.0032         -DE/DX =    0.0                 !
 ! D18   D(7,5,8,11)            57.9984         -DE/DX =    0.0                 !
 ! D19   D(5,8,11,12)           59.727          -DE/DX =    0.0                 !
 ! D20   D(5,8,11,13)         -180.0            -DE/DX =    0.0                 !
 ! D21   D(5,8,11,14)          -59.727          -DE/DX =    0.0                 !
 ! D22   D(9,8,11,12)          -61.9314         -DE/DX =    0.0                 !
 ! D23   D(9,8,11,13)           58.3417         -DE/DX =    0.0                 !
 ! D24   D(9,8,11,14)          178.6147         -DE/DX =    0.0                 !
 ! D25   D(10,8,11,12)        -178.6147         -DE/DX =    0.0                 !
 ! D26   D(10,8,11,13)         -58.3417         -DE/DX =    0.0                 !
 ! D27   D(10,8,11,14)          61.9314         -DE/DX =    0.0                 !
 --------------------------------------------------------------------------------
 GradGradGradGradGradGradGradGradGradGradGradGradGradGradGradGradGradGrad

 Leave Link  103 at Wed Aug 12 19:06:44 2026, MaxMem= 12884901888 cpu:               1.5 elap:               0.1
 (Enter /home/falbo/g16/l9999.exe)
 Dipole is zero, so no output in dipole orientation.

 ----------------------------------------------------------------------

 Electric dipole moment (input orientation):
 (Debye = 10**-18 statcoulomb cm , SI units = C m)
                  (au)            (Debye)         (10**-30 SI)
   Tot        0.000000D+00      0.000000D+00      0.000000D+00
   x          0.000000D+00      0.000000D+00      0.000000D+00
   y          0.000000D+00      0.000000D+00      0.000000D+00
   z          0.000000D+00      0.000000D+00      0.000000D+00

 Dipole polarizability, Alpha (input orientation).
 (esu units = cm**3 , SI units = C**2 m**2 J**-1)
 Alpha(0;0):
               (au)            (10**-24 esu)      (10**-40 SI)
   iso        0.473636D+02      0.701856D+01      0.780921D+01
   aniso      0.853851D+01      0.126528D+01      0.140781D+01
   xx         0.443582D+02      0.657321D+01      0.731369D+01
   yx         0.227014D+00      0.336401D-01      0.374296D-01
   yy         0.496561D+02      0.735827D+01      0.818718D+01
   zx         0.137587D+01      0.203884D+00      0.226851D+00
   zy         0.386776D+01      0.573143D+00      0.637708D+00
   zz         0.480765D+02      0.712421D+01      0.792675D+01

 ----------------------------------------------------------------------
 1\1\GINC-WN01\Freq\RM052X\6-31+G(d)\C4H10\FALBO\12-Aug-2026\0\\#P Geom
 =AllCheck Guess=TCheck SCRF=Check GenChk RM052X/6-31+G(d) Freq\\HessFi
 t high-level Opt+Freq starting from 01_conf_000\\0,1\C,-2.4922827922,0
 .3557254578,-0.0048680992\H,-2.1383262114,-0.6770549199,-0.0224753329\
 H,-2.1429207121,0.8470280366,-0.916730078\H,-3.584865982,0.3377972465,
 -0.0342774172\C,-1.9960779867,1.0986467846,1.2346528803\H,-0.901236951
 ,1.0851196628,1.2600601654\H,-2.3346424962,0.5789047228,2.1372866203\C
 ,-2.4798972816,2.547491366,1.2801571085\H,-2.141332772,3.0672334278,0.
 3775233685\H,-3.5747383172,2.5610184878,1.2547498234\C,-1.983692476,3.
 2904126928,2.519678088\H,-0.8911092862,3.3083409041,2.549087406\H,-2.3
 376490569,4.3231930705,2.5372853217\H,-2.3330545561,2.799110114,3.4315
 400668\\Version=ES64L-G16RevB.01\State=1-AG\HF=-158.418725\RMSD=1.502e
 -09\RMSF=6.932e-07\ZeroPoint=0.1345701\Thermal=0.1403279\Dipole=0.,0.,
 0.\DipoleDeriv=0.1099528,0.0060027,-0.0191355,-0.0126868,0.0331393,-0.
 0730378,-0.0299205,-0.0424987,0.0503682,0.0482176,0.07788,-0.0047494,0
 .0552821,-0.1758382,-0.0565109,-0.0177898,-0.0195856,0.038257,0.036108
 9,-0.0480754,0.0633578,-0.0467071,0.0102916,0.1164199,0.0362294,0.0444
 695,-0.1129827,-0.1729396,-0.0275182,-0.0382233,0.0227154,0.0681407,-0
 .0071207,0.0186827,-0.0194889,0.0382167,0.1432831,0.0103443,-0.0309996
 ,0.0199942,0.0748432,-0.019879,-0.025431,-0.0356472,0.1037821,-0.19585
 35,0.0167909,-0.0338838,-0.021655,0.0172605,-0.0202527,-0.0213252,-0.0
 148916,0.0321727,0.0312306,-0.0354243,0.0636337,-0.0169427,-0.0278371,
 0.0603813,0.0395544,0.0876424,-0.1498139,0.1432831,0.0103443,-0.030999
 6,0.0199942,0.0748432,-0.019879,-0.025431,-0.0356471,0.1037821,0.03123
 06,-0.0354243,0.0636337,-0.0169427,-0.0278371,0.0603813,0.0395544,0.08
 76424,-0.1498139,-0.1958535,0.0167909,-0.0338838,-0.021655,0.0172605,-
 0.0202527,-0.0213251,-0.0148916,0.0321726,0.1099528,0.0060027,-0.01913
 55,-0.0126868,0.0331393,-0.0730378,-0.0299205,-0.0424987,0.0503682,-0.
 1729396,-0.0275182,-0.0382233,0.0227154,0.0681407,-0.0071207,0.0186827
 ,-0.0194889,0.0382167,0.0482176,0.0778799,-0.0047494,0.0552821,-0.1758
 382,-0.0565109,-0.0177897,-0.0195856,0.038257,0.036109,-0.0480754,0.06
 33578,-0.0467071,0.0102916,0.1164199,0.0362294,0.0444695,-0.1129827\Po
 lar=44.3582393,0.2270145,49.6560673,1.3758746,3.8677604,48.0765405\Qua
 drupole=0.2797143,-0.0216093,-0.258105,-0.0136447,-0.3437668,-0.314800
 8\PG=C02H [SGH(C4H2),X(H8)]\NImag=0\\0.57881040,-0.01819734,0.57629349
 ,-0.02611693,-0.03670207,0.52451216,-0.08019705,0.08621471,0.00102268,
 0.08243473,0.08570503,-0.29541258,-0.00135797,-0.09392019,0.32008986,0
 .00072856,-0.00052515,-0.04948828,0.00066080,0.00304815,0.05170064,-0.
 07972784,-0.03998634,0.07419007,0.00358268,0.00486267,-0.01087559,0.08
 163484,-0.04008827,-0.10661626,0.10342663,-0.01184628,-0.01379215,0.02
 659963,0.04572780,0.11269057,0.07371182,0.10284862,-0.23438137,-0.0010
 4761,0.00009767,0.00111223,-0.07967426,-0.11153618,0.25721377,-0.32103
 691,-0.00315359,-0.00369883,-0.01003590,0.00016269,0.00031070,-0.01009
 887,0.00011456,0.00033695,0.34918796,-0.00276858,-0.05033315,0.0009272
 1,0.03299304,0.00208176,0.00016569,-0.01645846,-0.00066358,-0.00105275
 ,0.00410575,0.04992358,-0.00305723,0.00104267,-0.04935541,-0.00021423,
 0.00032497,-0.00114311,0.02874711,-0.00116203,0.00123855,0.00576845,0.
 00193594,0.05242765,-0.09646863,-0.01932722,-0.03496190,0.00355090,0.0
 0529026,0.01122784,0.00403610,0.00646925,0.00969630,-0.01104100,-0.017
 01160,-0.03021193,0.59417005,-0.02053368,-0.10900859,-0.04919701,-0.01
 267833,-0.01341891,-0.02762224,0.00588683,0.00757630,0.01281758,-0.000
 21367,-0.00099011,-0.00080137,0.01512663,0.49966277,-0.03565810,-0.047
 22564,-0.16741612,0.00085883,0.00173880,0.00095463,-0.01082976,-0.0146
 5013,-0.02420252,-0.00032851,0.00016987,-0.00055900,-0.02111096,-0.040
 35759,0.55464715,-0.00966596,-0.00040746,-0.00013179,0.00032025,-0.000
 57279,-0.00007172,0.00042722,0.00034470,-0.00044170,0.00102939,-0.0010
 3889,-0.00194175,-0.31350681,0.00164119,-0.00246560,0.34143415,-0.0179
 2473,-0.00049097,-0.00043181,-0.00004911,0.00013283,0.00073400,0.00081
 165,0.00050945,0.00032219,-0.00089527,-0.00118291,-0.00345539,0.001360
 60,-0.04911361,0.00179070,-0.00286371,0.05569316,-0.02956919,-0.000496
 98,-0.00107173,0.00067381,0.00026813,0.00108544,0.00020548,0.00093972,
 0.00097030,-0.00227240,-0.00306202,-0.00456266,-0.00139708,0.00180711,
 -0.05114574,0.00426716,0.00179150,0.05361751,0.00366981,0.00566050,-0.
 01050310,0.00014119,0.00023283,0.00076325,0.00016272,-0.00091044,-0.00
 263572,0.00056846,0.00073898,0.00022133,-0.07982126,-0.04047469,0.0700
 6668,-0.01088366,-0.01650415,0.02835788,0.08157994,0.00599175,0.008434
 98,-0.01584887,0.00056607,0.00065693,0.00061369,-0.00139877,-0.0012072
 7,-0.00357964,0.00018778,0.00041076,0.00096867,-0.04003963,-0.10775275
 ,0.10324799,-0.00041620,-0.00011696,-0.00079498,0.04355890,0.12089065,
 0.00901689,0.01229861,-0.02333345,0.00051222,-0.00032067,0.00074040,-0
 .00250400,-0.00340973,-0.00367163,-0.00047448,0.00048882,0.00092776,0.
 06908731,0.10297915,-0.22619215,0.00089527,-0.00064792,0.00066110,-0.0
 7525555,-0.11086388,0.24827423,0.00423965,-0.01164393,0.00106194,-0.00
 077465,-0.00232725,-0.00293298,0.00002516,0.00053288,0.00027218,0.0004
 8461,-0.00150043,-0.00055064,-0.09643528,0.03978881,-0.00000579,-0.012
 10518,0.03470544,0.00006436,0.00364632,-0.01142381,-0.00023863,0.59417
 006,0.00388751,-0.01937486,-0.00452681,-0.00058528,0.00002883,-0.00105
 422,0.00037945,0.00172677,0.00173928,0.00066400,0.00105188,0.00137386,
 0.03978881,-0.18991062,0.00296382,0.00058570,-0.00215974,0.00010812,0.
 00652554,-0.01831736,-0.00022968,0.01512663,0.49966277,0.01002456,-0.0
 2990550,-0.00139938,-0.00192776,-0.00390063,-0.00520248,0.00034620,-0.
 00079175,0.00073226,0.00053581,0.00061888,0.00094770,-0.00000579,0.002
 96382,-0.08067925,0.00024737,-0.00090100,-0.00044560,-0.00975298,0.027
 20218,-0.00003948,-0.02111096,-0.04035759,0.55464715,0.00004039,-0.000
 52646,-0.00018216,-0.00012765,-0.00005378,-0.00023931,0.00017369,-0.00
 031897,0.00004307,-0.00008551,-0.00002472,0.00018912,0.00364632,0.0065
 2554,-0.00975298,0.00059279,-0.00061586,-0.00058517,0.00034276,0.00271
 233,-0.00048733,-0.07982126,-0.04047469,0.07006668,0.08157994,-0.00036
 226,0.00142473,0.00160432,0.00029752,0.00048075,-0.00027173,0.00010101
 ,-0.00013712,-0.00133184,-0.00003550,-0.00004555,-0.00007782,-0.011423
 82,-0.01831736,0.02720218,0.00026082,0.00143666,-0.00024184,0.00271233
 ,-0.00615846,-0.00062623,-0.04003963,-0.10775275,0.10324799,0.04355890
 ,0.12089065,-0.00025351,-0.00050625,0.00105209,-0.00009647,0.00004448,
 0.00026367,0.00031009,0.00037617,0.00035349,-0.00006784,0.00007259,-0.
 00002275,-0.00023863,-0.00022967,-0.00003948,-0.00044397,0.00034454,0.
 00003382,-0.00048733,-0.00062623,0.00095289,0.06908731,0.10297915,-0.2
 2619215,-0.07525555,-0.11086388,0.24827423,0.00057856,-0.00068676,-0.0
 0022059,0.00048552,0.00006151,0.00001819,-0.00007534,0.00006593,-0.000
 00514,0.00046151,0.00058912,0.00070951,-0.01210517,0.00058570,0.000247
 37,0.00090757,0.00243685,-0.00041524,0.00059279,0.00026082,-0.00044397
 ,-0.31350681,0.00164118,-0.00246560,-0.01088366,-0.00041620,0.00089527
 ,0.34143415,0.00093356,0.00175863,0.00091403,-0.00033125,0.00022295,0.
 00033652,-0.00012555,-0.00004660,-0.00008912,-0.00093846,-0.00021941,-
 0.00039813,0.03470544,-0.00215974,-0.00090100,0.00243685,-0.00642348,-
 0.00031011,-0.00061586,0.00143666,0.00034454,0.00136060,-0.04911361,0.
 00179070,-0.01650415,-0.00011696,-0.00064792,-0.00286371,0.05569316,0.
 00088054,0.00010866,0.00018002,-0.00014857,0.00008805,-0.00009168,0.00
 013510,0.00009097,-0.00003186,-0.00019667,-0.00029632,0.00014797,0.000
 06436,0.00010811,-0.00044560,-0.00041524,-0.00031011,0.00065311,-0.000
 58517,-0.00024184,0.00003382,-0.00139708,0.00180711,-0.05114574,0.0283
 5788,-0.00079498,0.00066110,0.00426716,0.00179150,0.05361751,-0.001420
 12,0.00256725,-0.00012983,0.00069529,0.00077100,0.00058992,-0.00004300
 ,-0.00009409,-0.00022934,0.00052541,0.00011283,0.00006184,0.00423966,0
 .00388751,0.01002456,0.00057856,0.00093356,0.00088054,0.00004039,-0.00
 036226,-0.00025351,-0.09646864,-0.02053368,-0.03565810,0.00366981,0.00
 599175,0.00901689,-0.00966596,-0.01792473,-0.02956919,0.57881040,0.002
 56725,-0.00581869,0.00108765,-0.00059226,-0.00082156,-0.00179188,0.000
 22629,0.00004731,-0.00034355,-0.00014740,-0.00008247,0.00011081,-0.011
 64393,-0.01937486,-0.02990550,-0.00068676,0.00175863,0.00010866,-0.000
 52646,0.00142473,-0.00050625,-0.01932722,-0.10900859,-0.04722564,0.005
 66050,0.00843498,0.01229861,-0.00040746,-0.00049097,-0.00049698,-0.018
 19734,0.57629349,-0.00012983,0.00108765,-0.00001853,-0.00019677,0.0004
 3572,0.00053646,-0.00010523,-0.00017734,0.00031109,-0.00002755,-0.0001
 5369,-0.00012754,0.00106194,-0.00452681,-0.00139938,-0.00022059,0.0009
 1403,0.00018002,-0.00018216,0.00160432,0.00105209,-0.03496190,-0.04919
 701,-0.16741612,-0.01050310,-0.01584887,-0.02333345,-0.00013179,-0.000
 43181,-0.00107173,-0.02611693,-0.03670207,0.52451215,0.00052542,-0.000
 14740,-0.00002755,0.00000809,-0.00009788,-0.00006897,-0.00003874,0.000
 03559,-0.00000888,0.00007151,0.00021139,0.00019221,0.00048461,0.000664
 00,0.00053581,0.00046151,-0.00093846,-0.00019667,-0.00008551,-0.000035
 50,-0.00006784,-0.01104100,-0.00021367,-0.00032851,0.00056846,0.000187
 78,-0.00047448,0.00102939,-0.00089527,-0.00227240,-0.32103691,-0.00315
 359,-0.00369883,0.34918796,0.00011283,-0.00008247,-0.00015369,0.000063
 77,0.00000101,0.00001633,-0.00001219,0.00002060,0.00006246,0.00021139,
 0.00002760,0.00010699,-0.00150043,0.00105188,0.00061888,0.00058912,-0.
 00021941,-0.00029632,-0.00002472,-0.00004555,0.00007259,-0.01701160,-0
 .00099012,0.00016987,0.00073898,0.00041076,0.00048882,-0.00103889,-0.0
 0118291,-0.00306202,-0.00276858,-0.05033315,0.00092721,0.00410575,0.04
 992358,0.00006184,0.00011082,-0.00012754,0.00012357,0.00000766,0.00003
 336,-0.00003735,0.00002317,-0.00003353,0.00019221,0.00010699,0.0000810
 1,-0.00055064,0.00137386,0.00094770,0.00070951,-0.00039813,0.00014797,
 0.00018912,-0.00007782,-0.00002275,-0.03021194,-0.00080137,-0.00055900
 ,0.00022133,0.00096867,0.00092776,-0.00194175,-0.00345539,-0.00456266,
 -0.00305723,0.00104267,-0.04935541,0.00576845,0.00193594,0.05242765,0.
 00069529,-0.00059226,-0.00019677,-0.00007728,-0.00012635,-0.00019869,-
 0.00000612,-0.00000605,-0.00002179,0.00000809,0.00006377,0.00012357,-0
 .00077465,-0.00058528,-0.00192776,0.00048552,-0.00033125,-0.00014857,-
 0.00012765,0.00029752,-0.00009647,0.00355090,-0.01267833,0.00085883,0.
 00014119,0.00056607,0.00051222,0.00032025,-0.00004911,0.00067381,-0.08
 019705,0.08621471,0.00102267,-0.01003590,0.03299304,-0.00021423,0.0824
 3473,0.00077100,-0.00082156,0.00043572,-0.00012636,-0.00026674,-0.0003
 6021,0.00001224,0.00001702,-0.00011414,-0.00009788,0.00000101,0.000007
 66,-0.00232725,0.00002883,-0.00390063,0.00006151,0.00022295,0.00008805
 ,-0.00005378,0.00048075,0.00004448,0.00529026,-0.01341891,0.00173880,0
 .00023283,0.00065693,-0.00032067,-0.00057279,0.00013283,0.00026813,0.0
 8570503,-0.29541258,-0.00135797,0.00016269,0.00208176,0.00032497,-0.09
 392019,0.32008986,0.00058992,-0.00179188,0.00053646,-0.00019869,-0.000
 36021,-0.00053284,0.00008802,0.00011143,0.00003156,-0.00006897,0.00001
 633,0.00003336,-0.00293298,-0.00105423,-0.00520248,0.00001819,0.000336
 52,-0.00009168,-0.00023931,-0.00027173,0.00026367,0.01122784,-0.027622
 24,0.00095463,0.00076325,0.00061369,0.00074040,-0.00007172,0.00073400,
 0.00108544,0.00072856,-0.00052515,-0.04948828,0.00031070,0.00016569,-0
 .00114311,0.00066080,0.00304815,0.05170064,-0.00004299,0.00022629,-0.0
 0010523,-0.00000612,0.00001224,0.00008802,-0.00005250,-0.00002661,0.00
 000413,-0.00003874,-0.00001219,-0.00003735,0.00002516,0.00037945,0.000
 34620,-0.00007534,-0.00012555,0.00013510,0.00017369,0.00010101,0.00031
 009,0.00403610,0.00588683,-0.01082976,0.00016272,-0.00139877,-0.002504
 00,0.00042722,0.00081165,0.00020548,-0.07972784,-0.03998634,0.07419007
 ,-0.01009887,-0.01645846,0.02874711,0.00358268,0.00486267,-0.01087559,
 0.08163484,-0.00009409,0.00004731,-0.00017734,-0.00000605,0.00001702,0
 .00011143,-0.00002661,-0.00012504,0.00015943,0.00003559,0.00002060,0.0
 0002317,0.00053288,0.00172677,-0.00079175,0.00006593,-0.00004660,0.000
 09097,-0.00031897,-0.00013712,0.00037617,0.00646924,0.00757630,-0.0146
 5013,-0.00091044,-0.00120727,-0.00340973,0.00034470,0.00050945,0.00093
 972,-0.04008827,-0.10661626,0.10342663,0.00011456,-0.00066358,-0.00116
 203,-0.01184628,-0.01379215,0.02659963,0.04572780,0.11269057,-0.000229
 34,-0.00034355,0.00031109,-0.00002179,-0.00011414,0.00003156,0.0000041
 3,0.00015943,0.00035766,-0.00000888,0.00006246,-0.00003353,0.00027218,
 0.00173928,0.00073226,-0.00000514,-0.00008912,-0.00003186,0.00004307,-
 0.00133184,0.00035349,0.00969630,0.01281758,-0.02420252,-0.00263572,-0
 .00357964,-0.00367163,-0.00044170,0.00032219,0.00097030,0.07371182,0.1
 0284862,-0.23438137,0.00033695,-0.00105275,0.00123855,-0.00104761,0.00
 009767,0.00111223,-0.07967426,-0.11153618,0.25721377\\-0.00000061,0.00
 000083,-0.00000052,-0.00000065,0.00000085,-0.00000056,-0.00000065,0.00
 000045,0.00000022,0.00000018,0.00000075,-0.00000029,-0.00000104,-0.000
 00035,-0.00000191,-0.00000032,-0.00000045,0.00000051,0.00000073,-0.000
 00007,-0.00000014,0.00000104,0.00000035,0.00000191,-0.00000073,0.00000
 007,0.00000014,0.00000032,0.00000045,-0.00000051,0.00000061,-0.0000008
 3,0.00000052,-0.00000018,-0.00000075,0.00000029,0.00000065,-0.00000085
 ,0.00000056,0.00000065,-0.00000045,-0.00000022\\\@


 CHEMISTRY BEGAN BY SAYING IT WOULD CHANGE THE BASER
 METALS INTO GOLD.  BY NOT DOING THAT IT HAS DONE MUCH
 GREATER THINGS.  --  RALPH WALDO EMERSON
 Job cpu time:       0 days  0 hours  6 minutes 47.1 seconds.
 Elapsed time:       0 days  0 hours  0 minutes  9.0 seconds.
 File lengths (MBytes):  RWF=     87 Int=      0 D2E=      0 Chk=      3 Scr=      2
 Normal termination of Gaussian 16 at Wed Aug 12 19:06:44 2026.
