HessFit high-level Opt+Freq starting from 01_conf_000                   
Freq      RM052X                                                      6-31+G(d)           
Number of atoms                            I               14
Info1-9                                    I   N=           9
          23          23        1002           0           0         100
           6          18       -3802
Full Title                                 C   N=           5
HessFit high-level Opt+Freq starting from 01_conf_000       
Route                                      C   N=           6
#p m052x/6-31+G(d) opt(calcall,tight,maxstep=7) freq=intmode
s           
Charge                                     I                0
Multiplicity                               I                1
Number of electrons                        I               34
Number of alpha electrons                  I               17
Number of beta electrons                   I               17
Number of basis functions                  I               96
Number of independent functions            I               96
Number of point charges in /Mol/           I                0
Number of translation vectors              I                0
Atomic numbers                             I   N=          14
           6           1           1           1           6           1
           1           6           1           1           6           1
           1           1
Nuclear charges                            R   N=          14
  6.00000000E+00  1.00000000E+00  1.00000000E+00  1.00000000E+00  6.00000000E+00
  1.00000000E+00  1.00000000E+00  6.00000000E+00  1.00000000E+00  1.00000000E+00
  6.00000000E+00  1.00000000E+00  1.00000000E+00  1.00000000E+00
Current cartesian coordinates              R   N=          42
 -1.33421300E+00  3.43941114E+00  2.22044605E-16 -3.25303215E+00  4.19813755E+00
  4.44089210E-16 -3.60435188E-01  4.17148917E+00 -1.66822387E+00 -3.60435188E-01
  4.17148917E+00  1.66822387E+00 -1.33421300E+00  5.52045934E-01  2.15105711E-16
 -2.35676256E+00 -1.46380169E-01 -1.65834404E+00 -2.35676256E+00 -1.46380169E-01
  1.65834404E+00  1.33421300E+00 -5.52045934E-01  6.93889390E-18  2.35676256E+00
  1.46380169E-01 -1.65834404E+00  2.35676256E+00  1.46380169E-01  1.65834404E+00
  1.33421300E+00 -3.43941114E+00  8.88178420E-16  3.60435188E-01 -4.17148917E+00
 -1.66822387E+00  3.25303215E+00 -4.19813755E+00  1.33226763E-15  3.60435188E-01
 -4.17148917E+00  1.66822387E+00
Number of symbols in /Mol/                 I                0
Force Field                                I                0
Atom Types                                 C   N=          14
                                                            
                                                            
                                                
Int Atom Types                             I   N=          14
           0           0           0           0           0           0
           0           0           0           0           0           0
           0           0
MM charges                                 R   N=          14
  0.00000000E+00  0.00000000E+00  0.00000000E+00  0.00000000E+00  0.00000000E+00
  0.00000000E+00  0.00000000E+00  0.00000000E+00  0.00000000E+00  0.00000000E+00
  0.00000000E+00  0.00000000E+00  0.00000000E+00  0.00000000E+00
Integer atomic weights                     I   N=          14
          12           1           1           1          12           1
           1          12           1           1          12           1
           1           1
Real atomic weights                        R   N=          14
  1.20000000E+01  1.00782504E+00  1.00782504E+00  1.00782504E+00  1.20000000E+01
  1.00782504E+00  1.00782504E+00  1.20000000E+01  1.00782504E+00  1.00782504E+00
  1.20000000E+01  1.00782504E+00  1.00782504E+00  1.00782504E+00
Atom fragment info                         I   N=          14
           0           0           0           0           0           0
           0           0           0           0           0           0
           0           0
Atom residue num                           I   N=          14
           0           0           0           0           0           0
           0           0           0           0           0           0
           0           0
Nuclear spins                              I   N=          14
           0           1           1           1           0           1
           1           0           1           1           0           1
           1           1
Nuclear ZEff                               R   N=          14
 -3.60000000E+00 -1.00000000E+00 -1.00000000E+00 -1.00000000E+00 -3.60000000E+00
 -1.00000000E+00 -1.00000000E+00 -3.60000000E+00 -1.00000000E+00 -1.00000000E+00
 -3.60000000E+00 -1.00000000E+00 -1.00000000E+00 -1.00000000E+00
Nuclear ZNuc                               R   N=          14
  6.00000000E+00  1.00000000E+00  1.00000000E+00  1.00000000E+00  6.00000000E+00
  1.00000000E+00  1.00000000E+00  6.00000000E+00  1.00000000E+00  1.00000000E+00
  6.00000000E+00  1.00000000E+00  1.00000000E+00  1.00000000E+00
Nuclear QMom                               R   N=          14
  0.00000000E+00  0.00000000E+00  0.00000000E+00  0.00000000E+00  0.00000000E+00
  0.00000000E+00  0.00000000E+00  0.00000000E+00  0.00000000E+00  0.00000000E+00
  0.00000000E+00  0.00000000E+00  0.00000000E+00  0.00000000E+00
Nuclear GFac                               R   N=          14
  0.00000000E+00  2.79284600E+00  2.79284600E+00  2.79284600E+00  0.00000000E+00
  2.79284600E+00  2.79284600E+00  0.00000000E+00  2.79284600E+00  2.79284600E+00
  0.00000000E+00  2.79284600E+00  2.79284600E+00  2.79284600E+00
MicOpt                                     I   N=          14
          -1          -1          -1          -1          -1          -1
          -1          -1          -1          -1          -1          -1
          -1          -1
Number of residues                         I                0
Number of secondary structures             I                0
Redundant internal dimensions              I   N=           4
          64          13          24          27
Redundant internal coordinate indices      I   N=         256
           1           2           0           0           1           3
           0           0           1           4           0           0
           1           5           0           0           5           6
           0           0           5           7           0           0
           5           8           0           0           8           9
           0           0           8          10           0           0
           8          11           0           0          11          12
           0           0          11          13           0           0
          11          14           0           0           2           1
           3           0           2           1           4           0
           2           1           5           0           3           1
           4           0           3           1           5           0
           4           1           5           0           1           5
           6           0           1           5           7           0
           1           5           8           0           6           5
           7           0           6           5           8           0
           7           5           8           0           5           8
           9           0           5           8          10           0
           5           8          11           0           9           8
          10           0           9           8          11           0
          10           8          11           0           8          11
          12           0           8          11          13           0
           8          11          14           0          12          11
          13           0          12          11          14           0
          13          11          14           0           2           1
           5           6           2           1           5           7
           2           1           5           8           3           1
           5           6           3           1           5           7
           3           1           5           8           4           1
           5           6           4           1           5           7
           4           1           5           8           1           5
           8           9           1           5           8          10
           1           5           8          11           6           5
           8           9           6           5           8          10
           6           5           8          11           7           5
           8           9           7           5           8          10
           7           5           8          11           5           8
          11          12           5           8          11          13
           5           8          11          14           9           8
          11          12           9           8          11          13
           9           8          11          14          10           8
          11          12          10           8          11          13
          10           8          11          14
Redundant internal coordinates             R   N=          64
  2.06337895E+00  2.06570868E+00  2.06570868E+00  2.88736521E+00  2.06966460E+00
  2.06966460E+00  2.88782204E+00  2.06966460E+00  2.06966460E+00  2.88736521E+00
  2.06570868E+00  2.06337895E+00  2.06570868E+00  1.88394955E+00  1.88394955E+00
  1.94734232E+00  1.88007238E+00  1.93306395E+00  1.93306395E+00  1.91501214E+00
  1.91501214E+00  1.96310946E+00  1.85880373E+00  1.90446369E+00  1.90446369E+00
  1.90446369E+00  1.90446369E+00  1.96310946E+00  1.85880373E+00  1.91501214E+00
  1.91501214E+00  1.93306395E+00  1.94734232E+00  1.93306395E+00  1.88394955E+00
  1.88007238E+00  1.88394955E+00  1.01825389E+00 -1.01825389E+00  3.14159265E+00
 -1.08090631E+00 -3.11741408E+00  1.04243246E+00  3.11741408E+00  1.08090631E+00
 -1.04243246E+00 -1.01226301E+00  1.01226301E+00  3.14159265E+00  1.11706663E+00
  3.14159265E+00 -1.01226301E+00 -3.14159264E+00 -1.11706663E+00  1.01226301E+00
  1.04243246E+00  3.14159265E+00 -1.04243246E+00 -1.08090631E+00  1.01825389E+00
  3.11741408E+00 -3.11741408E+00 -1.01825389E+00  1.08090631E+00
ZRed-IntVec                                I   N=          64
           0           0           0           0           0           0
           0           0           0           0           0           0
           0           0           0           0           0           0
           0           0           0           0           0           0
           0           0           0           0           0           0
           0           0           0           0           0           0
           0           0           0           0           0           0
           0           0           0           0           0           0
           0           0           0           0           0           0
           0           0           0           0           0           0
           0           0           0           0
ZRed-FPVec                                 R   N=          64
  0.00000000E+00  0.00000000E+00  0.00000000E+00  0.00000000E+00  0.00000000E+00
  0.00000000E+00  0.00000000E+00  0.00000000E+00  0.00000000E+00  0.00000000E+00
  0.00000000E+00  0.00000000E+00  0.00000000E+00  0.00000000E+00  0.00000000E+00
  0.00000000E+00  0.00000000E+00  0.00000000E+00  0.00000000E+00  0.00000000E+00
  0.00000000E+00  0.00000000E+00  0.00000000E+00  0.00000000E+00  0.00000000E+00
  0.00000000E+00  0.00000000E+00  0.00000000E+00  0.00000000E+00  0.00000000E+00
  0.00000000E+00  0.00000000E+00  0.00000000E+00  0.00000000E+00  0.00000000E+00
  0.00000000E+00  0.00000000E+00  0.00000000E+00  0.00000000E+00  0.00000000E+00
  0.00000000E+00  0.00000000E+00  0.00000000E+00  0.00000000E+00  0.00000000E+00
  0.00000000E+00  0.00000000E+00  0.00000000E+00  0.00000000E+00  0.00000000E+00
  0.00000000E+00  0.00000000E+00  0.00000000E+00  0.00000000E+00  0.00000000E+00
  0.00000000E+00  0.00000000E+00  0.00000000E+00  0.00000000E+00  0.00000000E+00
  0.00000000E+00  0.00000000E+00  0.00000000E+00  0.00000000E+00
ZRed-Constraint1                           R   N=          64
  2.06337895E+00  2.06570868E+00  2.06570868E+00  2.88736521E+00  2.06966460E+00
  2.06966460E+00  2.88782204E+00  2.06966460E+00  2.06966460E+00  2.88736521E+00
  2.06570868E+00  2.06337895E+00  2.06570868E+00  1.88394955E+00  1.88394955E+00
  1.94734232E+00  1.88007238E+00  1.93306395E+00  1.93306395E+00  1.91501214E+00
  1.91501214E+00  1.96310946E+00  1.85880373E+00  1.90446369E+00  1.90446369E+00
  1.90446369E+00  1.90446369E+00  1.96310946E+00  1.85880373E+00  1.91501214E+00
  1.91501214E+00  1.93306395E+00  1.94734232E+00  1.93306395E+00  1.88394955E+00
  1.88007238E+00  1.88394955E+00  1.01825389E+00 -1.01825389E+00  3.14159265E+00
 -1.08090631E+00 -3.11741408E+00  1.04243246E+00  3.11741408E+00  1.08090631E+00
 -1.04243246E+00 -1.01226301E+00  1.01226301E+00 -3.14159264E+00  1.11706663E+00
  3.14159265E+00 -1.01226301E+00  3.14159265E+00 -1.11706663E+00  1.01226301E+00
  1.04243246E+00  3.14159265E+00 -1.04243246E+00 -1.08090631E+00  1.01825389E+00
  3.11741408E+00 -3.11741408E+00 -1.01825389E+00  1.08090631E+00
ZRed-Constraint2                           R   N=          64
  2.05532975E+00  2.05610496E+00  2.05610497E+00  2.87934661E+00  2.06468978E+00
  2.06468979E+00  2.88533268E+00  2.06468978E+00  2.06468979E+00  2.87934660E+00
  2.05610497E+00  2.05532975E+00  2.05610495E+00  1.89172332E+00  1.89172330E+00
  1.93173283E+00  1.88958820E+00  1.92893431E+00  1.92893430E+00  1.90938705E+00
  1.90938704E+00  1.95371928E+00  1.87777554E+00  1.90600564E+00  1.90600564E+00
  1.90600565E+00  1.90600564E+00  1.95371927E+00  1.87777555E+00  1.90938705E+00
  1.90938704E+00  1.92893431E+00  1.93173282E+00  1.92893431E+00  1.89172330E+00
  1.88958820E+00  1.89172330E+00  1.02646183E+00 -1.02646203E+00  3.14159255E+00
 -1.06942785E+00 -3.12235170E+00  1.04570288E+00  3.12235148E+00  1.06942762E+00
 -1.04570310E+00 -1.02451006E+00  1.02450940E+00  3.14159231E+00  1.09257288E+00
  3.14159233E+00 -1.02451006E+00  3.14159232E+00 -1.09257353E+00  1.02450939E+00
  1.04570287E+00  3.14159252E+00 -1.04570313E+00 -1.06942786E+00  1.02646179E+00
  3.12235145E+00 -3.12235173E+00 -1.02646207E+00  1.06942759E+00
SymInf integers                            I   N=          26
           4           4           1           1           1          -1
          -1           1           1           1          -1          -1
          -1          -1           0           0           0           0
           0           0           0           0           0           0
           0           0
RotTr to input orientation                 R   N=          12
 -4.77002994E-01  8.24860449E-01 -3.03435962E-01 -3.24756696E-01 -4.86228010E-01
 -8.11243126E-01 -8.16701434E-01 -2.88422539E-01  4.99811171E-01 -4.22918370E+00
  3.44510126E+00  2.37615107E+00
Number of contracted shells                I               40
Number of primitive shells                 I               88
Pure/Cartesian d shells                    I                1
Pure/Cartesian f shells                    I                0
Highest angular momentum                   I                2
Largest degree of contraction              I                6
Shell types                                I   N=          40
           0          -1          -1          -1           2           0
           0           0           0           0           0           0
          -1          -1          -1           2           0           0
           0           0           0          -1          -1          -1
           2           0           0           0           0           0
          -1          -1          -1           2           0           0
           0           0           0           0
Number of primitives per shell             I   N=          40
           6           3           1           1           1           3
           1           3           1           3           1           6
           3           1           1           1           3           1
           3           1           6           3           1           1
           1           3           1           3           1           6
           3           1           1           1           3           1
           3           1           3           1
Shell to atom map                          I   N=          40
           1           1           1           1           1           2
           2           3           3           4           4           5
           5           5           5           5           6           6
           7           7           8           8           8           8
           8           9           9          10          10          11
          11          11          11          11          12          12
          13          13          14          14
Primitive exponents                        R   N=          88
  3.04752488E+03  4.57369518E+02  1.03948685E+02  2.92101553E+01  9.28666296E+00
  3.16392696E+00  7.86827235E+00  1.88128854E+00  5.44249258E-01  1.68714478E-01
  4.38000000E-02  8.00000000E-01  1.87311370E+01  2.82539436E+00  6.40121692E-01
  1.61277759E-01  1.87311370E+01  2.82539436E+00  6.40121692E-01  1.61277759E-01
  1.87311370E+01  2.82539436E+00  6.40121692E-01  1.61277759E-01  3.04752488E+03
  4.57369518E+02  1.03948685E+02  2.92101553E+01  9.28666296E+00  3.16392696E+00
  7.86827235E+00  1.88128854E+00  5.44249258E-01  1.68714478E-01  4.38000000E-02
  8.00000000E-01  1.87311370E+01  2.82539436E+00  6.40121692E-01  1.61277759E-01
  1.87311370E+01  2.82539436E+00  6.40121692E-01  1.61277759E-01  3.04752488E+03
  4.57369518E+02  1.03948685E+02  2.92101553E+01  9.28666296E+00  3.16392696E+00
  7.86827235E+00  1.88128854E+00  5.44249258E-01  1.68714478E-01  4.38000000E-02
  8.00000000E-01  1.87311370E+01  2.82539436E+00  6.40121692E-01  1.61277759E-01
  1.87311370E+01  2.82539436E+00  6.40121692E-01  1.61277759E-01  3.04752488E+03
  4.57369518E+02  1.03948685E+02  2.92101553E+01  9.28666296E+00  3.16392696E+00
  7.86827235E+00  1.88128854E+00  5.44249258E-01  1.68714478E-01  4.38000000E-02
  8.00000000E-01  1.87311370E+01  2.82539436E+00  6.40121692E-01  1.61277759E-01
  1.87311370E+01  2.82539436E+00  6.40121692E-01  1.61277759E-01  1.87311370E+01
  2.82539436E+00  6.40121692E-01  1.61277759E-01
Contraction coefficients                   R   N=          88
  1.83473713E-03  1.40373228E-02  6.88426223E-02  2.32184443E-01  4.67941348E-01
  3.62311985E-01 -1.19332420E-01 -1.60854152E-01  1.14345644E+00  1.00000000E+00
  1.00000000E+00  1.00000000E+00  3.34946043E-02  2.34726953E-01  8.13757326E-01
  1.00000000E+00  3.34946043E-02  2.34726953E-01  8.13757326E-01  1.00000000E+00
  3.34946043E-02  2.34726953E-01  8.13757326E-01  1.00000000E+00  1.83473713E-03
  1.40373228E-02  6.88426223E-02  2.32184443E-01  4.67941348E-01  3.62311985E-01
 -1.19332420E-01 -1.60854152E-01  1.14345644E+00  1.00000000E+00  1.00000000E+00
  1.00000000E+00  3.34946043E-02  2.34726953E-01  8.13757326E-01  1.00000000E+00
  3.34946043E-02  2.34726953E-01  8.13757326E-01  1.00000000E+00  1.83473713E-03
  1.40373228E-02  6.88426223E-02  2.32184443E-01  4.67941348E-01  3.62311985E-01
 -1.19332420E-01 -1.60854152E-01  1.14345644E+00  1.00000000E+00  1.00000000E+00
  1.00000000E+00  3.34946043E-02  2.34726953E-01  8.13757326E-01  1.00000000E+00
  3.34946043E-02  2.34726953E-01  8.13757326E-01  1.00000000E+00  1.83473713E-03
  1.40373228E-02  6.88426223E-02  2.32184443E-01  4.67941348E-01  3.62311985E-01
 -1.19332420E-01 -1.60854152E-01  1.14345644E+00  1.00000000E+00  1.00000000E+00
  1.00000000E+00  3.34946043E-02  2.34726953E-01  8.13757326E-01  1.00000000E+00
  3.34946043E-02  2.34726953E-01  8.13757326E-01  1.00000000E+00  3.34946043E-02
  2.34726953E-01  8.13757326E-01  1.00000000E+00
P(S=P) Contraction coefficients            R   N=          88
  0.00000000E+00  0.00000000E+00  0.00000000E+00  0.00000000E+00  0.00000000E+00
  0.00000000E+00  6.89990666E-02  3.16423961E-01  7.44308291E-01  1.00000000E+00
  1.00000000E+00  0.00000000E+00  0.00000000E+00  0.00000000E+00  0.00000000E+00
  0.00000000E+00  0.00000000E+00  0.00000000E+00  0.00000000E+00  0.00000000E+00
  0.00000000E+00  0.00000000E+00  0.00000000E+00  0.00000000E+00  0.00000000E+00
  0.00000000E+00  0.00000000E+00  0.00000000E+00  0.00000000E+00  0.00000000E+00
  6.89990666E-02  3.16423961E-01  7.44308291E-01  1.00000000E+00  1.00000000E+00
  0.00000000E+00  0.00000000E+00  0.00000000E+00  0.00000000E+00  0.00000000E+00
  0.00000000E+00  0.00000000E+00  0.00000000E+00  0.00000000E+00  0.00000000E+00
  0.00000000E+00  0.00000000E+00  0.00000000E+00  0.00000000E+00  0.00000000E+00
  6.89990666E-02  3.16423961E-01  7.44308291E-01  1.00000000E+00  1.00000000E+00
  0.00000000E+00  0.00000000E+00  0.00000000E+00  0.00000000E+00  0.00000000E+00
  0.00000000E+00  0.00000000E+00  0.00000000E+00  0.00000000E+00  0.00000000E+00
  0.00000000E+00  0.00000000E+00  0.00000000E+00  0.00000000E+00  0.00000000E+00
  6.89990666E-02  3.16423961E-01  7.44308291E-01  1.00000000E+00  1.00000000E+00
  0.00000000E+00  0.00000000E+00  0.00000000E+00  0.00000000E+00  0.00000000E+00
  0.00000000E+00  0.00000000E+00  0.00000000E+00  0.00000000E+00  0.00000000E+00
  0.00000000E+00  0.00000000E+00  0.00000000E+00
Coordinates of each shell                  R   N=         120
 -1.33421300E+00  3.43941114E+00  2.22044605E-16 -1.33421300E+00  3.43941114E+00
  2.22044605E-16 -1.33421300E+00  3.43941114E+00  2.22044605E-16 -1.33421300E+00
  3.43941114E+00  2.22044605E-16 -1.33421300E+00  3.43941114E+00  2.22044605E-16
 -3.25303215E+00  4.19813755E+00  6.66133815E-16 -3.25303215E+00  4.19813755E+00
  6.66133815E-16 -3.60435188E-01  4.17148917E+00 -1.66822387E+00 -3.60435188E-01
  4.17148917E+00 -1.66822387E+00 -3.60435188E-01  4.17148917E+00  1.66822387E+00
 -3.60435188E-01  4.17148917E+00  1.66822387E+00 -1.33421300E+00  5.52045934E-01
  2.15105711E-16 -1.33421300E+00  5.52045934E-01  2.15105711E-16 -1.33421300E+00
  5.52045934E-01  2.15105711E-16 -1.33421300E+00  5.52045934E-01  2.15105711E-16
 -1.33421300E+00  5.52045934E-01  2.15105711E-16 -2.35676256E+00 -1.46380169E-01
 -1.65834404E+00 -2.35676256E+00 -1.46380169E-01 -1.65834404E+00 -2.35676256E+00
 -1.46380169E-01  1.65834404E+00 -2.35676256E+00 -1.46380169E-01  1.65834404E+00
  1.33421300E+00 -5.52045934E-01  6.93889390E-18  1.33421300E+00 -5.52045934E-01
  6.93889390E-18  1.33421300E+00 -5.52045934E-01  6.93889390E-18  1.33421300E+00
 -5.52045934E-01  6.93889390E-18  1.33421300E+00 -5.52045934E-01  6.93889390E-18
  2.35676256E+00  1.46380169E-01 -1.65834404E+00  2.35676256E+00  1.46380169E-01
 -1.65834404E+00  2.35676256E+00  1.46380169E-01  1.65834404E+00  2.35676256E+00
  1.46380169E-01  1.65834404E+00  1.33421300E+00 -3.43941114E+00  8.88178420E-16
  1.33421300E+00 -3.43941114E+00  8.88178420E-16  1.33421300E+00 -3.43941114E+00
  8.88178420E-16  1.33421300E+00 -3.43941114E+00  8.88178420E-16  1.33421300E+00
 -3.43941114E+00  8.88178420E-16  3.60435188E-01 -4.17148917E+00 -1.66822387E+00
  3.60435188E-01 -4.17148917E+00 -1.66822387E+00  3.25303215E+00 -4.19813755E+00
  1.33226763E-15  3.25303215E+00 -4.19813755E+00  1.33226763E-15  3.60435188E-01
 -4.17148917E+00  1.66822387E+00  3.60435188E-01 -4.17148917E+00  1.66822387E+00
Num ILSW                                   I              100
ILSW                                       I   N=         100
           0           1           0           0           2           0
           0           0           0           0        3428          -1
           5           0           0           0           2           0
           0           0           0           0           1           0
           1           0           0           0           0           0
           0           0      100000           0          -1           0
           0           0           0           0           0           0
           0           0           0           1           0           0
           0 -2000000000           1           0           0           0
           0           0           4          52           0           0
           0           0          38           0           0           0
           0           0           0          14           0           1
           0           0           0           0           0           0
           0           0           0           0           0           0
           0           0           0           0           0           0
           0           0           0           0           0           0
           0           0           0           0
Num RLSW                                   I               52
RLSW                                       R   N=          52
  4.40000000E-01  4.40000000E-01  1.00000000E+00  1.00000000E+00  5.60000000E-01
  0.00000000E+00  0.00000000E+00  1.00000000E+00  0.00000000E+00  0.00000000E+00
  0.00000000E+00  0.00000000E+00  1.00000000E+00  0.00000000E+00  0.00000000E+00
  0.00000000E+00  0.00000000E+00  1.00000000E+00  0.00000000E+00  0.00000000E+00
  0.00000000E+00  0.00000000E+00  1.00000000E+00  0.00000000E+00  0.00000000E+00
  0.00000000E+00  0.00000000E+00  1.00000000E+00  0.00000000E+00  0.00000000E+00
  0.00000000E+00  0.00000000E+00  1.00000000E+00  0.00000000E+00  0.00000000E+00
  0.00000000E+00  0.00000000E+00  0.00000000E+00  1.00000000E+00  1.00000000E+00
  0.00000000E+00  1.00000000E+00  0.00000000E+00  0.00000000E+00  0.00000000E+00
  0.00000000E+00  0.00000000E+00  0.00000000E+00  0.00000000E+00  0.00000000E+00
  0.00000000E+00  0.00000000E+00
MxBond                                     I                4
NBond                                      I   N=          14
           4           1           1           1           4           1
           1           4           1           1           4           1
           1           1
IBond                                      I   N=          56
           2           3           4           5           1           0
           0           0           1           0           0           0
           1           0           0           0           1           6
           7           8           5           0           0           0
           5           0           0           0           5           9
          10          11           8           0           0           0
           8           0           0           0           8          12
          13          14          11           0           0           0
          11           0           0           0          11           0
           0           0
RBond                                      R   N=          56
  1.00000000E+00  1.00000000E+00  1.00000000E+00  1.00000000E+00  1.00000000E+00
  0.00000000E+00  0.00000000E+00  0.00000000E+00  1.00000000E+00  0.00000000E+00
  0.00000000E+00  0.00000000E+00  1.00000000E+00  0.00000000E+00  0.00000000E+00
  0.00000000E+00  1.00000000E+00  1.00000000E+00  1.00000000E+00  1.00000000E+00
  1.00000000E+00  0.00000000E+00  0.00000000E+00  0.00000000E+00  1.00000000E+00
  0.00000000E+00  0.00000000E+00  0.00000000E+00  1.00000000E+00  1.00000000E+00
  1.00000000E+00  1.00000000E+00  1.00000000E+00  0.00000000E+00  0.00000000E+00
  0.00000000E+00  1.00000000E+00  0.00000000E+00  0.00000000E+00  0.00000000E+00
  1.00000000E+00  1.00000000E+00  1.00000000E+00  1.00000000E+00  1.00000000E+00
  0.00000000E+00  0.00000000E+00  0.00000000E+00  1.00000000E+00  0.00000000E+00
  0.00000000E+00  0.00000000E+00  1.00000000E+00  0.00000000E+00  0.00000000E+00
  0.00000000E+00
Virial Ratio                               R      2.010008590006396E+00
SCF Energy                                 R     -1.584187250447509E+02
Total Energy                               R     -1.584187250447509E+02
RMS Force                                  R      6.932482089406810E-07
RMS Density                                R      1.502069063636991E-09
NImag                                      I                0
Job Status                                 I                1
Nuclear derivative order                   I                2
External E-field                           R   N=          35
  0.00000000E+00  0.00000000E+00  0.00000000E+00  0.00000000E+00  0.00000000E+00
  0.00000000E+00  0.00000000E+00  0.00000000E+00  0.00000000E+00  0.00000000E+00
  0.00000000E+00  0.00000000E+00  0.00000000E+00  0.00000000E+00  0.00000000E+00
  0.00000000E+00  0.00000000E+00  0.00000000E+00  0.00000000E+00  0.00000000E+00
  0.00000000E+00  0.00000000E+00  0.00000000E+00  0.00000000E+00  0.00000000E+00
  0.00000000E+00  0.00000000E+00  0.00000000E+00  0.00000000E+00  0.00000000E+00
  0.00000000E+00  0.00000000E+00  0.00000000E+00  0.00000000E+00  0.00000000E+00
IOpCl                                      I                0
IROHF                                      I                0
Alpha Orbital Energies                     R   N=          96
 -1.05647609E+01 -1.05643875E+01 -1.05573354E+01 -1.05573327E+01 -9.03832471E-01
 -8.26507905E-01 -7.24368544E-01 -6.66168179E-01 -5.48184712E-01 -4.99435513E-01
 -4.91038761E-01 -4.83746456E-01 -4.35508092E-01 -4.17389190E-01 -3.95734251E-01
 -3.87399092E-01 -3.82861885E-01  6.11005307E-02  6.51288351E-02  7.51865765E-02
  8.25626610E-02  9.43914925E-02  1.12155155E-01  1.18020269E-01  1.18188802E-01
  1.26049926E-01  1.28267798E-01  1.51232708E-01  1.56831244E-01  1.75523576E-01
  1.91616231E-01  2.08149641E-01  2.35532445E-01  2.45281525E-01  2.61820765E-01
  2.67610153E-01  2.74833131E-01  2.87990038E-01  3.21240575E-01  3.34214364E-01
  3.38414052E-01  3.46274373E-01  3.82868317E-01  4.08094288E-01  4.11074844E-01
  4.16789951E-01  6.72649267E-01  6.83615208E-01  7.00648242E-01  7.11515814E-01
  7.25698359E-01  7.66189530E-01  7.72056012E-01  7.82690435E-01  8.02088376E-01
  8.84973479E-01  8.86112423E-01  9.39205745E-01  1.00334435E+00  1.04065537E+00
  1.04928333E+00  1.06698176E+00  1.08632361E+00  1.09914674E+00  1.16614805E+00
  1.19552281E+00  1.21072792E+00  1.23376287E+00  1.23698840E+00  1.43447172E+00
  1.51497553E+00  1.51727053E+00  1.55522329E+00  1.71947855E+00  1.72602713E+00
  1.92518812E+00  1.98353866E+00  1.99968576E+00  2.05755146E+00  2.07971340E+00
  2.11327841E+00  2.16614222E+00  2.27318274E+00  2.34820783E+00  2.39373694E+00
  2.41408002E+00  2.50173194E+00  2.50441763E+00  2.51345080E+00  2.66109805E+00
  2.76020390E+00  2.82385858E+00  4.23456001E+00  4.34634582E+00  4.43326499E+00
  4.58606857E+00
Alpha MO coefficients                      R   N=        9216
  1.69391252E-02  5.11828147E-04 -5.14690375E-05  4.84857618E-05  0.00000000E+00
  3.64799533E-03  3.29849951E-04 -1.86622900E-03  0.00000000E+00 -3.72445393E-03
  5.44248183E-04  1.04273092E-03  0.00000000E+00 -2.47170459E-04 -4.48662078E-04
 -2.80922628E-04 -1.88468205E-05  0.00000000E+00  0.00000000E+00 -1.40475498E-04
  3.33218050E-04 -1.52967004E-04 -1.09535103E-04 -1.52967004E-04 -1.09535103E-04
  7.02405176E-01  3.18974606E-02  6.44017512E-05  2.58637345E-05  0.00000000E+00
 -1.09244231E-02  8.55153954E-04 -1.31604808E-03  0.00000000E+00  3.28412007E-03
 -9.02109397E-05  2.84655867E-03  0.00000000E+00 -5.67489263E-03 -5.55489764E-03
 -5.41434801E-03  5.59938425E-05  0.00000000E+00  0.00000000E+00 -7.64451416E-07
  2.54951709E-03 -7.64451416E-07  2.54951709E-03  7.02405176E-01  3.18974606E-02
 -6.44017512E-05 -2.58637345E-05  0.00000000E+00 -1.09244231E-02 -8.55153954E-04
  1.31604808E-03  0.00000000E+00  3.28412007E-03  9.02109397E-05 -2.84655867E-03
  0.00000000E+00 -5.67489263E-03 -5.55489764E-03 -5.41434801E-03  5.59938425E-05
  0.00000000E+00  0.00000000E+00 -7.64451416E-07  2.54951709E-03 -7.64451416E-07
  2.54951709E-03  1.69391252E-02  5.11828147E-04  5.14690375E-05 -4.84857618E-05
  0.00000000E+00  3.64799533E-03 -3.29849951E-04  1.86622900E-03  0.00000000E+00
 -3.72445393E-03 -5.44248183E-04 -1.04273092E-03  0.00000000E+00 -2.47170459E-04
 -4.48662078E-04 -2.80922628E-04 -1.88468205E-05  0.00000000E+00  0.00000000E+00
 -1.52967004E-04 -1.09535103E-04 -1.40475498E-04  3.33218050E-04 -1.52967004E-04
 -1.09535103E-04  1.89308291E-02  7.99269505E-04  1.19108436E-04 -9.02169754E-05
  0.00000000E+00  3.47565046E-03 -2.22971222E-04 -1.89378015E-03  0.00000000E+00
  3.50009864E-03 -3.42525695E-04 -8.11143804E-04  0.00000000E+00 -2.73551115E-04
 -3.87629075E-04 -1.66335199E-04 -4.40149294E-05  0.00000000E+00  0.00000000E+00
 -9.71377441E-05 -4.00374907E-04 -1.31407328E-04  2.85401419E-04 -1.31407328E-04
  2.85401419E-04  7.02593125E-01  3.23101748E-02  5.12300658E-05  1.11440547E-04
  0.00000000E+00 -1.91704019E-02 -2.85995665E-03  4.83612443E-04  0.00000000E+00
 -5.65530121E-03  7.20508613E-05 -9.63836567E-04  0.00000000E+00 -5.17088582E-03
 -5.27914963E-03 -5.21696342E-03  3.47497035E-06  0.00000000E+00  0.00000000E+00
  2.79049260E-04  2.69344734E-03  2.79049260E-04  2.69344734E-03 -7.02593125E-01
 -3.23101748E-02  5.12300658E-05  1.11440547E-04  0.00000000E+00  1.91704019E-02
 -2.85995665E-03  4.83612443E-04  0.00000000E+00  5.65530121E-03  7.20508613E-05
 -9.63836567E-04  0.00000000E+00  5.17088582E-03  5.27914963E-03  5.21696342E-03
 -3.47497035E-06  0.00000000E+00  0.00000000E+00 -2.79049260E-04 -2.69344734E-03
 -2.79049260E-04 -2.69344734E-03 -1.89308291E-02 -7.99269505E-04  1.19108436E-04
 -9.02169754E-05  0.00000000E+00 -3.47565046E-03 -2.22971222E-04 -1.89378015E-03
  0.00000000E+00 -3.50009864E-03 -3.42525695E-04 -8.11143804E-04  0.00000000E+00
  2.73551115E-04  3.87629075E-04  1.66335199E-04  4.40149294E-05  0.00000000E+00
  0.00000000E+00  1.31407328E-04 -2.85401419E-04  9.71377441E-05  4.00374907E-04
  1.31407328E-04 -2.85401419E-04  7.02435252E-01  3.21682515E-02  5.49025908E-05
 -8.98816733E-05  0.00000000E+00 -1.46526775E-02 -4.19986184E-04  1.73251116E-03
  0.00000000E+00 -1.60733770E-02 -8.10991826E-04  3.75936933E-03  0.00000000E+00
 -5.40055098E-03 -5.59563432E-03 -5.42934077E-03  2.39865283E-05  0.00000000E+00
  0.00000000E+00  5.59417432E-05  2.40480434E-03  1.23282747E-04  2.71135311E-03
  1.23282747E-04  2.71135311E-03 -1.91238180E-02 -9.72413236E-04  1.36836292E-05
 -1.35907819E-04  0.00000000E+00  4.71937293E-03  1.48883081E-04  2.66885167E-03
  0.00000000E+00  2.58269770E-02  3.69503109E-03  4.10063257E-03  0.00000000E+00
  1.69610411E-05 -4.23289834E-05  8.49104771E-05 -3.34879020E-07  0.00000000E+00
  0.00000000E+00 -7.17471999E-05 -2.02775300E-04 -7.17471999E-05 -2.02775300E-04
  1.91238180E-02  9.72413236E-04  1.36836292E-05 -1.35907819E-04  0.00000000E+00
 -4.71937293E-03  1.48883081E-04  2.66885167E-03  0.00000000E+00 -2.58269770E-02
  3.69503109E-03  4.10063257E-03  0.00000000E+00 -1.69610411E-05  4.23289834E-05
 -8.49104771E-05  3.34879020E-07  0.00000000E+00  0.00000000E+00  7.17471999E-05
  2.02775300E-04  7.17471999E-05  2.02775300E-04 -7.02435252E-01 -3.21682515E-02
  5.49025908E-05 -8.98816733E-05  0.00000000E+00  1.46526775E-02 -4.19986184E-04
  1.73251116E-03  0.00000000E+00  1.60733770E-02 -8.10991826E-04  3.75936933E-03
  0.00000000E+00  5.40055098E-03  5.59563432E-03  5.42934077E-03 -2.39865283E-05
  0.00000000E+00  0.00000000E+00 -1.23282747E-04 -2.71135311E-03 -5.59417432E-05
 -2.40480434E-03 -1.23282747E-04 -2.71135311E-03  7.02403460E-01  3.17930112E-02
  9.84370183E-06 -7.64993323E-05  0.00000000E+00 -1.18563506E-02  6.78244799E-05
  4.81895418E-04  0.00000000E+00 -4.85535736E-03  3.18794922E-04  9.93352142E-04
  0.00000000E+00 -5.55578631E-03 -5.58788219E-03 -5.55145018E-03 -1.48313783E-05
  0.00000000E+00  0.00000000E+00  3.42432380E-05  2.39214897E-03  3.71664543E-05
  2.32820954E-03  3.71664543E-05  2.32820954E-03 -1.71940242E-02 -9.92107552E-04
 -2.60695270E-05  9.45106683E-05  0.00000000E+00  3.55611983E-03 -3.00981074E-04
  9.56922936E-04  0.00000000E+00  4.45366897E-03 -1.53514780E-04  2.10328520E-03
  0.00000000E+00 -1.23620319E-05 -1.71015448E-04  3.44826817E-06 -1.77838207E-05
  0.00000000E+00  0.00000000E+00 -1.57928535E-04 -3.88309598E-04 -1.57928535E-04
 -3.88309598E-04 -1.71940242E-02 -9.92107552E-04  2.60695270E-05 -9.45106683E-05
  0.00000000E+00  3.55611983E-03  3.00981074E-04 -9.56922936E-04  0.00000000E+00
  4.45366897E-03  1.53514780E-04 -2.10328520E-03  0.00000000E+00 -1.23620319E-05
 -1.71015448E-04  3.44826817E-06 -1.77838207E-05  0.00000000E+00  0.00000000E+00
 -1.57928535E-04 -3.88309598E-04 -1.57928535E-04 -3.88309598E-04  7.02403460E-01
  3.17930112E-02 -9.84370183E-06  7.64993323E-05  0.00000000E+00 -1.18563506E-02
 -6.78244799E-05 -4.81895418E-04  0.00000000E+00 -4.85535736E-03 -3.18794922E-04
 -9.93352142E-04  0.00000000E+00 -5.55578631E-03 -5.58788219E-03 -5.55145018E-03
 -1.48313783E-05  0.00000000E+00  0.00000000E+00  3.71664543E-05  2.32820954E-03
  3.42432380E-05  2.39214897E-03  3.71664543E-05  2.32820954E-03 -8.23131141E-02
  1.51849120E-01  6.62469454E-03 -4.69680397E-02  0.00000000E+00  1.32140866E-01
  1.62538495E-03 -4.02122392E-03  0.00000000E+00  1.43491132E-02 -2.52654456E-03
 -2.79198398E-03  0.00000000E+00 -1.57972973E-03  4.45236925E-03 -1.47590732E-03
 -5.13406576E-04  0.00000000E+00  0.00000000E+00  4.08932362E-02  8.45986474E-04
  4.46454051E-02  1.28602550E-03  4.46454051E-02  1.28602550E-03 -1.26869591E-01
  2.34529303E-01  3.98793071E-02  3.41674830E-03  0.00000000E+00  2.00775166E-01
  2.26217919E-03 -2.92387969E-03  0.00000000E+00  2.50766192E-03  4.30101297E-03
 -7.60520045E-03  0.00000000E+00  9.82885365E-04 -3.53934356E-04 -2.69660627E-03
 -1.78375085E-03  0.00000000E+00  0.00000000E+00  6.77346156E-02  3.31421109E-04
  6.77346156E-02  3.31421109E-04 -1.26869591E-01  2.34529303E-01 -3.98793071E-02
 -3.41674830E-03  0.00000000E+00  2.00775166E-01 -2.26217919E-03  2.92387969E-03
  0.00000000E+00  2.50766192E-03 -4.30101297E-03  7.60520045E-03  0.00000000E+00
  9.82885365E-04 -3.53934356E-04 -2.69660627E-03 -1.78375085E-03  0.00000000E+00
  0.00000000E+00  6.77346156E-02  3.31421109E-04  6.77346156E-02  3.31421109E-04
 -8.23131141E-02  1.51849120E-01 -6.62469454E-03  4.69680397E-02  0.00000000E+00
  1.32140866E-01 -1.62538495E-03  4.02122392E-03  0.00000000E+00  1.43491132E-02
  2.52654456E-03  2.79198398E-03  0.00000000E+00 -1.57972973E-03  4.45236925E-03
 -1.47590732E-03 -5.13406576E-04  0.00000000E+00  0.00000000E+00  4.46454051E-02
  1.28602550E-03  4.08932362E-02  8.45986474E-04  4.46454051E-02  1.28602550E-03
 -1.27873789E-01  2.38965869E-01 -4.74341093E-03 -2.24726678E-02  0.00000000E+00
  2.34768810E-01  1.49137260E-03  3.28506589E-04  0.00000000E+00  1.16142692E-01
  4.08805434E-03 -2.89658320E-02  0.00000000E+00  2.65956535E-04  4.66487136E-04
  1.33079805E-04  1.79730706E-04  0.00000000E+00  0.00000000E+00  8.14365555E-02
  1.11958682E-02  7.85186967E-02  7.25906339E-03  7.85186967E-02  7.25906339E-03
 -7.00218457E-02  1.31738262E-01 -3.92633188E-02  8.59214829E-02  0.00000000E+00
  1.23569796E-01 -1.20224307E-02  1.63045962E-02  0.00000000E+00 -3.60998246E-02
  1.19723559E-02 -3.88348544E-02  0.00000000E+00 -6.82929531E-03  5.08336158E-03
 -2.21343703E-04  3.98862793E-03  0.00000000E+00  0.00000000E+00  4.05669845E-02
  3.37112375E-03  4.05669845E-02  3.37112375E-03  7.00218457E-02 -1.31738262E-01
 -3.92633188E-02  8.59214829E-02  0.00000000E+00 -1.23569796E-01 -1.20224307E-02
  1.63045962E-02  0.00000000E+00  3.60998246E-02  1.19723559E-02 -3.88348544E-02
  0.00000000E+00  6.82929531E-03 -5.08336158E-03  2.21343703E-04 -3.98862793E-03
  0.00000000E+00  0.00000000E+00 -4.05669845E-02 -3.37112375E-03 -4.05669845E-02
 -3.37112375E-03  1.27873789E-01 -2.38965869E-01 -4.74341093E-03 -2.24726678E-02
  0.00000000E+00 -2.34768810E-01  1.49137260E-03  3.28506589E-04  0.00000000E+00
 -1.16142692E-01  4.08805434E-03 -2.89658320E-02  0.00000000E+00 -2.65956535E-04
 -4.66487136E-04 -1.33079805E-04 -1.79730706E-04  0.00000000E+00  0.00000000E+00
 -7.85186967E-02 -7.25906339E-03 -8.14365555E-02 -1.11958682E-02 -7.85186967E-02
 -7.25906339E-03 -1.12652879E-01  2.14356929E-01 -1.29334022E-02  8.51894292E-02
  0.00000000E+00  2.46773056E-01 -3.66624617E-03  2.68480843E-02  0.00000000E+00
  1.09886678E-01  1.81252489E-03 -2.82737533E-02  0.00000000E+00  4.75208829E-03
 -8.84571850E-03  4.30678375E-03  5.38167608E-04  0.00000000E+00  0.00000000E+00
  1.00920208E-01  2.73397482E-02  9.18959041E-02  2.25073050E-02  9.18959041E-02
  2.25073050E-02  7.58942378E-02 -1.46053317E-01 -4.47535103E-02  9.84684634E-02
  0.00000000E+00 -1.59748408E-01 -7.65843387E-03  2.62577490E-02  0.00000000E+00
 -1.02528983E-01 -1.11716401E-03 -1.94722218E-02  0.00000000E+00 -5.76277756E-03
  1.19872890E-02 -2.61713590E-03  1.74832719E-04  0.00000000E+00  0.00000000E+00
 -5.85983426E-02 -1.28145270E-02 -5.85983426E-02 -1.28145270E-02  7.58942378E-02
 -1.46053317E-01  4.47535103E-02 -9.84684634E-02  0.00000000E+00 -1.59748408E-01
  7.65843387E-03 -2.62577490E-02  0.00000000E+00 -1.02528983E-01  1.11716401E-03
  1.94722218E-02  0.00000000E+00 -5.76277756E-03  1.19872890E-02 -2.61713590E-03
  1.74832719E-04  0.00000000E+00  0.00000000E+00 -5.85983426E-02 -1.28145270E-02
 -5.85983426E-02 -1.28145270E-02 -1.12652879E-01  2.14356929E-01  1.29334022E-02
 -8.51894292E-02  0.00000000E+00  2.46773056E-01  3.66624617E-03 -2.68480843E-02
  0.00000000E+00  1.09886678E-01 -1.81252489E-03  2.82737533E-02  0.00000000E+00
  4.75208829E-03 -8.84571850E-03  4.30678375E-03  5.38167608E-04  0.00000000E+00
  0.00000000E+00  9.18959041E-02  2.25073050E-02  1.00920208E-01  2.73397482E-02
  9.18959041E-02  2.25073050E-02  4.97421716E-02 -9.72028474E-02 -4.52680838E-02
 -1.00793367E-01  0.00000000E+00 -1.12276315E-01 -1.98643224E-02 -3.49640787E-02
  0.00000000E+00 -1.06295401E-01 -4.47316106E-03  2.59941333E-02  0.00000000E+00
 -3.86669337E-03  9.45085222E-03 -5.55478485E-03  1.68699321E-03  0.00000000E+00
  0.00000000E+00 -3.68858412E-02 -1.54373434E-02 -6.76515557E-02 -2.62349877E-02
 -6.76515557E-02 -2.62349877E-02 -1.03533593E-01  2.02916254E-01 -1.38059484E-01
 -5.95740404E-02  0.00000000E+00  2.37609664E-01 -5.02177662E-02 -3.15249005E-02
  0.00000000E+00  2.04417169E-01  2.48778972E-02  1.86966681E-02  0.00000000E+00
 -7.87266952E-03 -5.79224657E-03  9.77369421E-03  5.77684167E-03  0.00000000E+00
  0.00000000E+00  1.23152189E-01  4.41209862E-02  1.23152189E-01  4.41209862E-02
  1.03533593E-01 -2.02916254E-01 -1.38059484E-01 -5.95740404E-02  0.00000000E+00
 -2.37609664E-01 -5.02177662E-02 -3.15249005E-02  0.00000000E+00 -2.04417169E-01
  2.48778972E-02  1.86966681E-02  0.00000000E+00  7.87266952E-03  5.79224657E-03
 -9.77369421E-03 -5.77684167E-03  0.00000000E+00  0.00000000E+00 -1.23152189E-01
 -4.41209862E-02 -1.23152189E-01 -4.41209862E-02 -4.97421716E-02  9.72028474E-02
 -4.52680838E-02 -1.00793367E-01  0.00000000E+00  1.12276315E-01 -1.98643224E-02
 -3.49640787E-02  0.00000000E+00  1.06295401E-01 -4.47316106E-03  2.59941333E-02
  0.00000000E+00  3.86669337E-03 -9.45085222E-03  5.55478485E-03 -1.68699321E-03
  0.00000000E+00  0.00000000E+00  6.76515557E-02  2.62349877E-02  3.68858412E-02
  1.54373434E-02  6.76515557E-02  2.62349877E-02  0.00000000E+00  0.00000000E+00
  0.00000000E+00  0.00000000E+00  1.69812929E-01  0.00000000E+00  0.00000000E+00
  0.00000000E+00  7.37093040E-02  0.00000000E+00  0.00000000E+00  0.00000000E+00
  1.38882517E-03  0.00000000E+00  0.00000000E+00  0.00000000E+00  0.00000000E+00
  7.52787388E-03 -1.22635330E-04  0.00000000E+00  0.00000000E+00 -7.91958269E-02
 -5.12617482E-02  7.91958269E-02  5.12617482E-02  0.00000000E+00  0.00000000E+00
  0.00000000E+00  0.00000000E+00  2.61651652E-01  0.00000000E+00  0.00000000E+00
  0.00000000E+00  1.25735796E-01  0.00000000E+00  0.00000000E+00  0.00000000E+00
  1.36326543E-02  0.00000000E+00  0.00000000E+00  0.00000000E+00  0.00000000E+00
 -6.41838793E-03 -6.51610607E-03 -1.19759237E-01 -6.88070338E-02  1.19759237E-01
  6.88070338E-02  0.00000000E+00  0.00000000E+00  0.00000000E+00  0.00000000E+00
  2.61651652E-01  0.00000000E+00  0.00000000E+00  0.00000000E+00  1.25735796E-01
  0.00000000E+00  0.00000000E+00  0.00000000E+00  1.36326543E-02  0.00000000E+00
  0.00000000E+00  0.00000000E+00  0.00000000E+00  6.41838793E-03  6.51610607E-03
 -1.19759237E-01 -6.88070338E-02  1.19759237E-01  6.88070338E-02  0.00000000E+00
  0.00000000E+00  0.00000000E+00  0.00000000E+00  1.69812929E-01  0.00000000E+00
  0.00000000E+00  0.00000000E+00  7.37093040E-02  0.00000000E+00  0.00000000E+00
  0.00000000E+00  1.38882517E-03  0.00000000E+00  0.00000000E+00  0.00000000E+00
  0.00000000E+00 -7.52787388E-03  1.22635330E-04 -7.91958269E-02 -5.12617482E-02
  0.00000000E+00  0.00000000E+00  7.91958269E-02  5.12617482E-02 -3.25559501E-03
  4.69380894E-03  2.55860466E-01  4.43064130E-02  0.00000000E+00  2.10502171E-02
  1.27046276E-01  1.62156779E-02  0.00000000E+00  3.89022414E-02  1.05774055E-02
 -7.28663285E-03  0.00000000E+00 -8.86560090E-03 -1.88325095E-03  1.13112869E-02
  4.38751238E-03  0.00000000E+00  0.00000000E+00 -1.31921005E-01 -8.96190435E-02
  8.44974481E-02  5.34780130E-02  8.44974481E-02  5.34780130E-02  2.99940626E-03
 -2.17818161E-03  2.22412060E-01 -4.90963795E-02  0.00000000E+00 -2.71795350E-02
  1.00567761E-01 -2.39458646E-02  0.00000000E+00 -4.35080164E-02  1.50825812E-02
 -1.49158876E-02  0.00000000E+00  2.11384296E-03  1.20424601E-03 -7.23739548E-03
 -4.04665278E-04  0.00000000E+00  0.00000000E+00 -5.65992095E-02 -3.49704172E-02
 -5.65992095E-02 -3.49704172E-02  2.99940626E-03 -2.17818161E-03 -2.22412060E-01
  4.90963795E-02  0.00000000E+00 -2.71795350E-02 -1.00567761E-01  2.39458646E-02
  0.00000000E+00 -4.35080164E-02 -1.50825812E-02  1.49158876E-02  0.00000000E+00
  2.11384296E-03  1.20424601E-03 -7.23739548E-03 -4.04665278E-04  0.00000000E+00
  0.00000000E+00 -5.65992095E-02 -3.49704172E-02 -5.65992095E-02 -3.49704172E-02
 -3.25559501E-03  4.69380894E-03 -2.55860466E-01 -4.43064130E-02  0.00000000E+00
  2.10502171E-02 -1.27046276E-01 -1.62156779E-02  0.00000000E+00  3.89022414E-02
 -1.05774055E-02  7.28663285E-03  0.00000000E+00 -8.86560090E-03 -1.88325095E-03
  1.13112869E-02  4.38751238E-03  0.00000000E+00  0.00000000E+00  8.44974481E-02
  5.34780130E-02 -1.31921005E-01 -8.96190435E-02  8.44974481E-02  5.34780130E-02
  7.22986964E-03 -1.07256970E-02  1.91830610E-01 -2.20315121E-01  0.00000000E+00
 -4.06701407E-02  1.00436799E-01 -9.49478009E-02  0.00000000E+00 -1.88907247E-01
  5.10839950E-03  3.38035960E-02  0.00000000E+00 -1.41389610E-02  8.15717809E-03
  1.17995987E-03  5.08545707E-03  0.00000000E+00  0.00000000E+00 -1.66818456E-01
 -1.10438483E-01  1.90359984E-03  3.22012512E-03  1.90359984E-03  3.22012512E-03
 -3.20468336E-02  6.60128802E-02  6.39375334E-02  2.00604747E-01  0.00000000E+00
  8.87007471E-02  3.64314817E-02  9.06536572E-02  0.00000000E+00  2.85450453E-01
  3.70997634E-02  5.76057225E-02  0.00000000E+00 -2.16607858E-03  2.40367146E-04
 -4.64582051E-03  7.62443219E-03  0.00000000E+00  0.00000000E+00 -2.98879607E-02
 -2.65707509E-02 -2.98879607E-02 -2.65707509E-02  3.20468336E-02 -6.60128802E-02
  6.39375334E-02  2.00604747E-01  0.00000000E+00 -8.87007471E-02  3.64314817E-02
  9.06536572E-02  0.00000000E+00 -2.85450453E-01  3.70997634E-02  5.76057225E-02
  0.00000000E+00  2.16607858E-03 -2.40367146E-04  4.64582051E-03 -7.62443219E-03
  0.00000000E+00  0.00000000E+00  2.98879607E-02  2.65707509E-02  2.98879607E-02
  2.65707509E-02 -7.22986964E-03  1.07256970E-02  1.91830610E-01 -2.20315121E-01
  0.00000000E+00  4.06701407E-02  1.00436799E-01 -9.49478009E-02  0.00000000E+00
  1.88907247E-01  5.10839950E-03  3.38035960E-02  0.00000000E+00  1.41389610E-02
 -8.15717809E-03 -1.17995987E-03 -5.08545707E-03  0.00000000E+00  0.00000000E+00
 -1.90359984E-03 -3.22012512E-03  1.66818456E-01  1.10438483E-01 -1.90359984E-03
 -3.22012512E-03  0.00000000E+00  0.00000000E+00  0.00000000E+00  0.00000000E+00
  2.82116535E-01  0.00000000E+00  0.00000000E+00  0.00000000E+00  1.42380203E-01
  0.00000000E+00  0.00000000E+00  0.00000000E+00  1.68334600E-02  0.00000000E+00
  0.00000000E+00  0.00000000E+00  0.00000000E+00  1.29855911E-02  6.86745231E-03
  0.00000000E+00  0.00000000E+00 -1.40713512E-01 -9.74349300E-02  1.40713512E-01
  9.74349300E-02  0.00000000E+00  0.00000000E+00  0.00000000E+00  0.00000000E+00
  1.55326039E-01  0.00000000E+00  0.00000000E+00  0.00000000E+00  8.48495341E-02
  0.00000000E+00  0.00000000E+00  0.00000000E+00  1.10451032E-02  0.00000000E+00
  0.00000000E+00  0.00000000E+00  0.00000000E+00 -1.05484996E-02  3.10887587E-03
 -7.42420902E-02 -4.53274799E-02  7.42420902E-02  4.53274799E-02  0.00000000E+00
  0.00000000E+00  0.00000000E+00  0.00000000E+00 -1.55326039E-01  0.00000000E+00
  0.00000000E+00  0.00000000E+00 -8.48495341E-02  0.00000000E+00  0.00000000E+00
  0.00000000E+00 -1.10451032E-02  0.00000000E+00  0.00000000E+00  0.00000000E+00
  0.00000000E+00 -1.05484996E-02  3.10887587E-03  7.42420902E-02  4.53274799E-02
 -7.42420902E-02 -4.53274799E-02  0.00000000E+00  0.00000000E+00  0.00000000E+00
  0.00000000E+00 -2.82116535E-01  0.00000000E+00  0.00000000E+00  0.00000000E+00
 -1.42380203E-01  0.00000000E+00  0.00000000E+00  0.00000000E+00 -1.68334600E-02
  0.00000000E+00  0.00000000E+00  0.00000000E+00  0.00000000E+00  1.29855911E-02
  6.86745231E-03  1.40713512E-01  9.74349300E-02  0.00000000E+00  0.00000000E+00
 -1.40713512E-01 -9.74349300E-02  3.45007672E-03 -1.07962147E-02  2.48433191E-01
  1.63170339E-01  0.00000000E+00  3.61598975E-03  1.28765769E-01  7.81657235E-02
  0.00000000E+00  1.47157321E-01  3.02131852E-02 -2.56963208E-02  0.00000000E+00
 -7.64186944E-03 -4.61430558E-03  1.60511310E-02  1.25895448E-02  0.00000000E+00
  0.00000000E+00 -1.21753913E-01 -1.02735207E-01  1.12668249E-01  8.57772400E-02
  1.12668249E-01  8.57772400E-02 -6.91470344E-03  7.58538072E-03 -5.62721547E-02
 -1.86373696E-01  0.00000000E+00  5.17173517E-02 -1.67811569E-02 -9.87452793E-02
  0.00000000E+00 -6.73415952E-02 -2.90466897E-03 -6.18192389E-02  0.00000000E+00
 -1.75835984E-03 -4.21037039E-03  8.34430385E-03  6.25673845E-03  0.00000000E+00
  0.00000000E+00  6.35129580E-02  4.60996909E-02  6.35129580E-02  4.60996909E-02
  6.91470344E-03 -7.58538072E-03 -5.62721547E-02 -1.86373696E-01  0.00000000E+00
 -5.17173517E-02 -1.67811569E-02 -9.87452793E-02  0.00000000E+00  6.73415952E-02
 -2.90466897E-03 -6.18192389E-02  0.00000000E+00  1.75835984E-03  4.21037039E-03
 -8.34430385E-03 -6.25673845E-03  0.00000000E+00  0.00000000E+00 -6.35129580E-02
 -4.60996909E-02 -6.35129580E-02 -4.60996909E-02 -3.45007672E-03  1.07962147E-02
  2.48433191E-01  1.63170339E-01  0.00000000E+00 -3.61598975E-03  1.28765769E-01
  7.81657235E-02  0.00000000E+00 -1.47157321E-01  3.02131852E-02 -2.56963208E-02
  0.00000000E+00  7.64186944E-03  4.61430558E-03 -1.60511310E-02 -1.25895448E-02
  0.00000000E+00  0.00000000E+00 -1.12668249E-01 -8.57772400E-02  1.21753913E-01
  1.02735207E-01 -1.12668249E-01 -8.57772400E-02  0.00000000E+00  0.00000000E+00
  0.00000000E+00  0.00000000E+00  2.69747325E-01  0.00000000E+00  0.00000000E+00
  0.00000000E+00  1.45350728E-01  0.00000000E+00  0.00000000E+00  0.00000000E+00
  2.98283804E-02  0.00000000E+00  0.00000000E+00  0.00000000E+00  0.00000000E+00
  1.48749138E-02  1.59754157E-02  0.00000000E+00  0.00000000E+00 -1.50788029E-01
 -1.28276893E-01  1.50788029E-01  1.28276893E-01  0.00000000E+00  0.00000000E+00
  0.00000000E+00  0.00000000E+00 -1.81919722E-01  0.00000000E+00  0.00000000E+00
  0.00000000E+00 -1.01799198E-01  0.00000000E+00  0.00000000E+00  0.00000000E+00
 -2.21786692E-02  0.00000000E+00  0.00000000E+00  0.00000000E+00  0.00000000E+00
  6.55723734E-03  1.41519361E-02  9.77761587E-02  7.84119374E-02 -9.77761587E-02
 -7.84119374E-02  0.00000000E+00  0.00000000E+00  0.00000000E+00  0.00000000E+00
 -1.81919722E-01  0.00000000E+00  0.00000000E+00  0.00000000E+00 -1.01799198E-01
  0.00000000E+00  0.00000000E+00  0.00000000E+00 -2.21786692E-02  0.00000000E+00
  0.00000000E+00  0.00000000E+00  0.00000000E+00 -6.55723734E-03 -1.41519361E-02
  9.77761587E-02  7.84119374E-02 -9.77761587E-02 -7.84119374E-02  0.00000000E+00
  0.00000000E+00  0.00000000E+00  0.00000000E+00  2.69747325E-01  0.00000000E+00
  0.00000000E+00  0.00000000E+00  1.45350728E-01  0.00000000E+00  0.00000000E+00
  0.00000000E+00  2.98283804E-02  0.00000000E+00  0.00000000E+00  0.00000000E+00
  0.00000000E+00 -1.48749138E-02 -1.59754157E-02 -1.50788029E-01 -1.28276893E-01
  0.00000000E+00  0.00000000E+00  1.50788029E-01  1.28276893E-01  2.34388929E-02
 -5.19221576E-02  5.75601767E-02  2.57610374E-01  0.00000000E+00 -6.89302861E-02
  3.88955337E-02  1.32256325E-01  0.00000000E+00  6.07312757E-02  1.64977082E-03
  4.22972642E-03  0.00000000E+00  4.33593830E-03 -7.54039346E-03  9.47125891E-03
  5.89564918E-03  0.00000000E+00  0.00000000E+00  2.22121832E-03  5.09148154E-03
  6.40488783E-02  6.08967224E-02  6.40488783E-02  6.08967224E-02  1.33704427E-02
 -3.47178015E-02 -1.70359558E-01 -2.40378443E-01  0.00000000E+00 -2.47153584E-02
 -9.39762167E-02 -1.20268441E-01  0.00000000E+00 -2.34677398E-02 -1.10557086E-02
 -5.87861051E-02  0.00000000E+00  6.09668009E-03 -1.45989691E-02  1.55757868E-02
  1.24841147E-02  0.00000000E+00  0.00000000E+00  1.07343971E-01  9.74991593E-02
  1.07343971E-01  9.74991593E-02  1.33704427E-02 -3.47178015E-02  1.70359558E-01
  2.40378443E-01  0.00000000E+00 -2.47153584E-02  9.39762167E-02  1.20268441E-01
  0.00000000E+00 -2.34677398E-02  1.10557086E-02  5.87861051E-02  0.00000000E+00
  6.09668009E-03 -1.45989691E-02  1.55757868E-02  1.24841147E-02  0.00000000E+00
  0.00000000E+00  1.07343971E-01  9.74991593E-02  1.07343971E-01  9.74991593E-02
  2.34388929E-02 -5.19221576E-02 -5.75601767E-02 -2.57610374E-01  0.00000000E+00
 -6.89302861E-02 -3.88955337E-02 -1.32256325E-01  0.00000000E+00  6.07312757E-02
 -1.64977082E-03 -4.22972642E-03  0.00000000E+00  4.33593830E-03 -7.54039346E-03
  9.47125891E-03  5.89564918E-03  0.00000000E+00  0.00000000E+00  6.40488783E-02
  6.08967224E-02  2.22121832E-03  5.09148154E-03  6.40488783E-02  6.08967224E-02
  0.00000000E+00  0.00000000E+00  0.00000000E+00  0.00000000E+00 -1.39047728E-01
  0.00000000E+00  0.00000000E+00  0.00000000E+00 -7.17416341E-02  0.00000000E+00
  0.00000000E+00  0.00000000E+00 -2.11180055E-02  0.00000000E+00  0.00000000E+00
  0.00000000E+00  0.00000000E+00 -1.11466016E-02 -1.33671625E-02  0.00000000E+00
  0.00000000E+00  9.05470112E-02  9.69096043E-02 -9.05470112E-02 -9.69096043E-02
  0.00000000E+00  0.00000000E+00  0.00000000E+00  0.00000000E+00  2.74909446E-01
  0.00000000E+00  0.00000000E+00  0.00000000E+00  1.43441755E-01  0.00000000E+00
  0.00000000E+00  0.00000000E+00  4.55940540E-02  0.00000000E+00  0.00000000E+00
  0.00000000E+00  0.00000000E+00 -2.52180527E-02 -1.44178593E-02 -1.67776353E-01
 -1.70914580E-01  1.67776353E-01  1.70914580E-01  0.00000000E+00  0.00000000E+00
  0.00000000E+00  0.00000000E+00 -2.74909446E-01  0.00000000E+00  0.00000000E+00
  0.00000000E+00 -1.43441755E-01  0.00000000E+00  0.00000000E+00  0.00000000E+00
 -4.55940540E-02  0.00000000E+00  0.00000000E+00  0.00000000E+00  0.00000000E+00
 -2.52180527E-02 -1.44178593E-02  1.67776353E-01  1.70914580E-01 -1.67776353E-01
 -1.70914580E-01  0.00000000E+00  0.00000000E+00  0.00000000E+00  0.00000000E+00
  1.39047728E-01  0.00000000E+00  0.00000000E+00  0.00000000E+00  7.17416341E-02
  0.00000000E+00  0.00000000E+00  0.00000000E+00  2.11180055E-02  0.00000000E+00
  0.00000000E+00  0.00000000E+00  0.00000000E+00 -1.11466016E-02 -1.33671625E-02
 -9.05470112E-02 -9.69096043E-02  0.00000000E+00  0.00000000E+00  9.05470112E-02
  9.69096043E-02  1.18548671E-02 -2.67541039E-02 -1.74832520E-01  1.62638970E-01
  0.00000000E+00 -3.31240352E-02 -9.65542014E-02  8.88362461E-02  0.00000000E+00
  3.91449314E-02 -3.65241297E-02  8.03872462E-03  0.00000000E+00  1.32733215E-02
 -3.33035322E-03 -6.11149429E-03 -1.60022338E-02  0.00000000E+00  0.00000000E+00
  1.53683050E-01  1.44176917E-01 -3.56305632E-02 -3.39031001E-02 -3.56305632E-02
 -3.39031001E-02 -1.51903143E-02  3.31623944E-02  2.86503069E-01 -1.81290644E-01
  0.00000000E+00  4.87851712E-02  1.48389380E-01 -8.19209789E-02  0.00000000E+00
 -4.17883869E-02  3.22433116E-02 -4.72673748E-02  0.00000000E+00  1.05244307E-02
 -8.31312449E-03 -6.80293663E-03 -1.05709220E-02  0.00000000E+00  0.00000000E+00
 -4.48444693E-02 -4.41995017E-02 -4.48444693E-02 -4.41995017E-02 -1.51903143E-02
  3.31623944E-02 -2.86503069E-01  1.81290644E-01  0.00000000E+00  4.87851712E-02
 -1.48389380E-01  8.19209789E-02  0.00000000E+00 -4.17883869E-02 -3.22433116E-02
  4.72673748E-02  0.00000000E+00  1.05244307E-02 -8.31312449E-03 -6.80293663E-03
 -1.05709220E-02  0.00000000E+00  0.00000000E+00 -4.48444693E-02 -4.41995017E-02
 -4.48444693E-02 -4.41995017E-02  1.18548671E-02 -2.67541039E-02  1.74832520E-01
 -1.62638970E-01  0.00000000E+00 -3.31240352E-02  9.65542014E-02 -8.88362461E-02
  0.00000000E+00  3.91449314E-02  3.65241297E-02 -8.03872462E-03  0.00000000E+00
  1.32733215E-02 -3.33035322E-03 -6.11149429E-03 -1.60022338E-02  0.00000000E+00
  0.00000000E+00 -3.56305632E-02 -3.39031001E-02  1.53683050E-01  1.44176917E-01
 -3.56305632E-02 -3.39031001E-02  3.66273490E-02 -6.15368186E-02  7.34899031E-03
 -9.47695728E-02  0.00000000E+00 -3.25170409E-01 -4.40362788E-02 -1.03463007E-01
  0.00000000E+00  8.21247855E-01 -2.31602727E-01  1.96404107E-01  0.00000000E+00
  1.44576423E-03 -1.65686937E-03  5.54019614E-04 -2.88430533E-03  0.00000000E+00
  0.00000000E+00  1.10170121E-02 -7.73987334E-02 -2.36650941E-03 -2.13786803E-02
 -2.36650941E-03 -2.13786803E-02  3.00505528E-02 -4.70905023E-02  8.62638724E-02
  5.87170899E-02  0.00000000E+00 -3.19591128E-01  1.09543372E-01  7.46844860E-02
  0.00000000E+00  2.63196540E-01 -1.76175444E-01 -7.32646515E-01  0.00000000E+00
 -1.82736474E-03  1.95910096E-03 -5.88932461E-04 -1.39856601E-03  0.00000000E+00
  0.00000000E+00 -6.89780950E-03 -9.41443967E-02 -6.89780950E-03 -9.41443967E-02
  3.00505528E-02 -4.70905023E-02 -8.62638724E-02 -5.87170899E-02  0.00000000E+00
 -3.19591128E-01 -1.09543372E-01 -7.46844860E-02  0.00000000E+00  2.63196540E-01
  1.76175444E-01  7.32646515E-01  0.00000000E+00 -1.82736474E-03  1.95910096E-03
 -5.88932461E-04 -1.39856601E-03  0.00000000E+00  0.00000000E+00 -6.89780950E-03
 -9.41443967E-02 -6.89780950E-03 -9.41443967E-02  3.66273490E-02 -6.15368186E-02
 -7.34899031E-03  9.47695728E-02  0.00000000E+00 -3.25170409E-01  4.40362788E-02
  1.03463007E-01  0.00000000E+00  8.21247855E-01  2.31602727E-01 -1.96404107E-01
  0.00000000E+00  1.44576423E-03 -1.65686937E-03  5.54019614E-04 -2.88430533E-03
  0.00000000E+00  0.00000000E+00 -2.36650941E-03 -2.13786803E-02  1.10170121E-02
 -7.73987334E-02 -2.36650941E-03 -2.13786803E-02 -5.22177087E-02  1.07181611E-01
 -1.09346149E-02  4.27368744E-02  0.00000000E+00  4.00632269E-01  1.05467409E-02
  5.84430146E-02  0.00000000E+00  7.51619958E+00  3.01311463E-01 -2.66997742E+00
  0.00000000E+00  1.87998200E-03 -4.85437305E-03  4.73552575E-03 -6.83553230E-04
  0.00000000E+00  0.00000000E+00  9.49991040E-04 -5.42051114E-03  5.91602411E-03
 -6.19168605E-02  5.91602411E-03 -6.19168605E-02  5.90079382E-03 -1.73564413E-02
  1.13786204E-02 -3.65964176E-02  0.00000000E+00  5.31980399E-04 -5.70087858E-03
 -2.74860385E-02  0.00000000E+00 -4.54738618E+00  8.20230398E-01 -3.25528630E+00
  0.00000000E+00 -6.52174104E-03  9.16847112E-03 -3.43329301E-03 -3.04236667E-04
  0.00000000E+00  0.00000000E+00 -4.50061780E-03 -2.35052430E-02 -4.50061780E-03
 -2.35052430E-02 -5.90079382E-03  1.73564413E-02  1.13786204E-02 -3.65964176E-02
  0.00000000E+00 -5.31980399E-04 -5.70087858E-03 -2.74860385E-02  0.00000000E+00
  4.54738618E+00  8.20230398E-01 -3.25528630E+00  0.00000000E+00  6.52174104E-03
 -9.16847112E-03  3.43329301E-03  3.04236667E-04  0.00000000E+00  0.00000000E+00
  4.50061780E-03  2.35052430E-02  4.50061780E-03  2.35052430E-02  5.22177087E-02
 -1.07181611E-01 -1.09346149E-02  4.27368744E-02  0.00000000E+00 -4.00632269E-01
  1.05467409E-02  5.84430146E-02  0.00000000E+00 -7.51619958E+00  3.01311463E-01
 -2.66997742E+00  0.00000000E+00 -1.87998200E-03  4.85437305E-03 -4.73552575E-03
  6.83553230E-04  0.00000000E+00  0.00000000E+00 -5.91602411E-03  6.19168605E-02
 -9.49991040E-04  5.42051114E-03 -5.91602411E-03  6.19168605E-02 -1.61339062E-03
  6.54095648E-03 -8.73080675E-02 -2.83798943E-03  0.00000000E+00  2.85620370E-02
 -1.12674873E-01  2.41195458E-02  0.00000000E+00 -4.58682928E+00  1.13114953E-03
  1.39283819E+00  0.00000000E+00  1.08815102E-03  5.77371420E-03 -4.23818949E-03
 -2.43461759E-04  0.00000000E+00  0.00000000E+00  4.57981466E-03  6.65476891E-02
 -7.18805364E-03 -4.70517902E-02 -7.18805364E-03 -4.70517902E-02 -3.43296681E-02
  7.30338234E-02 -4.96873887E-02 -3.83353611E-02  0.00000000E+00  2.70562737E-01
 -6.36836339E-02 -1.15555952E-01  0.00000000E+00  1.11583505E+01  2.59300530E+00
  8.18144378E-01  0.00000000E+00 -6.74123822E-03  3.55764249E-03  6.06887830E-03
 -3.52793996E-03  0.00000000E+00  0.00000000E+00 -4.18844623E-03 -6.73704640E-02
 -4.18844623E-03 -6.73704640E-02  3.43296681E-02 -7.30338234E-02 -4.96873887E-02
 -3.83353611E-02  0.00000000E+00 -2.70562737E-01 -6.36836339E-02 -1.15555952E-01
  0.00000000E+00 -1.11583505E+01  2.59300530E+00  8.18144378E-01  0.00000000E+00
  6.74123822E-03 -3.55764249E-03 -6.06887830E-03  3.52793996E-03  0.00000000E+00
  0.00000000E+00  4.18844623E-03  6.73704640E-02  4.18844623E-03  6.73704640E-02
  1.61339062E-03 -6.54095648E-03 -8.73080675E-02 -2.83798943E-03  0.00000000E+00
 -2.85620370E-02 -1.12674873E-01  2.41195458E-02  0.00000000E+00  4.58682928E+00
  1.13114953E-03  1.39283819E+00  0.00000000E+00 -1.08815102E-03 -5.77371420E-03
  4.23818949E-03  2.43461759E-04  0.00000000E+00  0.00000000E+00  7.18805364E-03
  4.70517902E-02 -4.57981466E-03 -6.65476891E-02  7.18805364E-03  4.70517902E-02
  0.00000000E+00  0.00000000E+00  0.00000000E+00  0.00000000E+00 -1.08445130E-01
  0.00000000E+00  0.00000000E+00  0.00000000E+00 -1.34136831E-01  0.00000000E+00
  0.00000000E+00  0.00000000E+00  5.41150892E-01  0.00000000E+00  0.00000000E+00
  0.00000000E+00  0.00000000E+00 -5.86893293E-03  1.70132106E-03  0.00000000E+00
  0.00000000E+00  5.39340378E-03  6.34964529E-02 -5.39340378E-03 -6.34964529E-02
  0.00000000E+00  0.00000000E+00  0.00000000E+00  0.00000000E+00 -1.19983989E-01
  0.00000000E+00  0.00000000E+00  0.00000000E+00 -2.01533129E-01  0.00000000E+00
  0.00000000E+00  0.00000000E+00  1.86370889E-01  0.00000000E+00  0.00000000E+00
  0.00000000E+00  0.00000000E+00 -2.04388139E-03 -5.89063200E-04 -1.31905002E-02
 -2.83769180E-02  1.31905002E-02  2.83769180E-02  0.00000000E+00  0.00000000E+00
  0.00000000E+00  0.00000000E+00 -1.19983989E-01  0.00000000E+00  0.00000000E+00
  0.00000000E+00 -2.01533129E-01  0.00000000E+00  0.00000000E+00  0.00000000E+00
  1.86370889E-01  0.00000000E+00  0.00000000E+00  0.00000000E+00  0.00000000E+00
  2.04388139E-03  5.89063200E-04 -1.31905002E-02 -2.83769180E-02  1.31905002E-02
  2.83769180E-02  0.00000000E+00  0.00000000E+00  0.00000000E+00  0.00000000E+00
 -1.08445130E-01  0.00000000E+00  0.00000000E+00  0.00000000E+00 -1.34136831E-01
  0.00000000E+00  0.00000000E+00  0.00000000E+00  5.41150892E-01  0.00000000E+00
  0.00000000E+00  0.00000000E+00  0.00000000E+00  5.86893293E-03 -1.70132106E-03
  5.39340378E-03  6.34964529E-02  0.00000000E+00  0.00000000E+00 -5.39340378E-03
 -6.34964529E-02  1.72436875E-02 -4.27692249E-02  1.27638418E-02 -1.36102367E-02
  0.00000000E+00 -9.58010909E-02  1.36495342E-03  1.13657238E-02  0.00000000E+00
 -4.75190431E+00 -5.14531215E-02  2.36426131E+00  0.00000000E+00 -1.13312471E-02
  1.36017966E-02 -5.92783870E-03  3.98402787E-03  0.00000000E+00  0.00000000E+00
 -3.29832831E-02 -4.55832391E-02 -5.26767453E-03  4.17540102E-02 -5.26767453E-03
  4.17540102E-02 -3.64932040E-02  6.90310365E-02 -6.91726352E-02  3.46377035E-02
  0.00000000E+00  3.59342142E-01 -1.03770368E-01  3.14645834E-02  0.00000000E+00
  4.86840492E+00  2.60987983E-01  1.70394080E+00  0.00000000E+00  1.18615460E-03
 -3.26606234E-03  1.41228689E-03 -1.52837362E-03  0.00000000E+00  0.00000000E+00
 -1.71554967E-03 -2.77232004E-02 -1.71554967E-03 -2.77232004E-02 -3.64932040E-02
  6.90310365E-02  6.91726352E-02 -3.46377035E-02  0.00000000E+00  3.59342142E-01
  1.03770368E-01 -3.14645834E-02  0.00000000E+00  4.86840492E+00 -2.60987983E-01
 -1.70394080E+00  0.00000000E+00  1.18615460E-03 -3.26606234E-03  1.41228689E-03
 -1.52837362E-03  0.00000000E+00  0.00000000E+00 -1.71554967E-03 -2.77232004E-02
 -1.71554967E-03 -2.77232004E-02  1.72436875E-02 -4.27692249E-02 -1.27638418E-02
  1.36102367E-02  0.00000000E+00 -9.58010909E-02 -1.36495342E-03 -1.13657238E-02
  0.00000000E+00 -4.75190431E+00  5.14531215E-02 -2.36426131E+00  0.00000000E+00
 -1.13312471E-02  1.36017966E-02 -5.92783870E-03  3.98402787E-03  0.00000000E+00
  0.00000000E+00 -5.26767453E-03  4.17540102E-02 -3.29832831E-02 -4.55832391E-02
 -5.26767453E-03  4.17540102E-02 -9.18536270E-03  6.90188330E-03 -1.07549496E-01
 -1.77156486E-02  0.00000000E+00  1.46799785E-01 -2.76016849E-02 -7.28664324E-02
  0.00000000E+00 -1.07856506E+00  1.55507475E+00  4.40041691E-01  0.00000000E+00
  5.67840708E-03  3.48201315E-03 -1.25342354E-02 -6.85758908E-04  0.00000000E+00
  0.00000000E+00  1.87439437E-02  2.39660780E-01 -2.01759931E-02 -8.65636105E-02
 -2.01759931E-02 -8.65636105E-02 -9.28641152E-03  1.00458442E-02  1.64601799E-02
  7.71661148E-03  0.00000000E+00  1.56185725E-01 -1.49154573E-02 -6.05845932E-02
  0.00000000E+00  1.00324183E+00 -1.26414043E+00  8.24430611E-01  0.00000000E+00
  1.55086074E-03  3.55416381E-03 -1.01146258E-02 -2.53589314E-03  0.00000000E+00
  0.00000000E+00 -2.09965744E-02  6.51278879E-03 -2.09965744E-02  6.51278879E-03
 -9.28641152E-03  1.00458442E-02 -1.64601799E-02 -7.71661148E-03  0.00000000E+00
  1.56185725E-01  1.49154573E-02  6.05845932E-02  0.00000000E+00  1.00324183E+00
  1.26414043E+00 -8.24430611E-01  0.00000000E+00  1.55086074E-03  3.55416381E-03
 -1.01146258E-02 -2.53589314E-03  0.00000000E+00  0.00000000E+00 -2.09965744E-02
  6.51278879E-03 -2.09965744E-02  6.51278879E-03 -9.18536270E-03  6.90188330E-03
  1.07549496E-01  1.77156486E-02  0.00000000E+00  1.46799785E-01  2.76016849E-02
  7.28664324E-02  0.00000000E+00 -1.07856506E+00 -1.55507475E+00 -4.40041691E-01
  0.00000000E+00  5.67840708E-03  3.48201315E-03 -1.25342354E-02 -6.85758908E-04
  0.00000000E+00  0.00000000E+00 -2.01759931E-02 -8.65636105E-02  1.87439437E-02
  2.39660780E-01 -2.01759931E-02 -8.65636105E-02  0.00000000E+00  0.00000000E+00
  0.00000000E+00  0.00000000E+00 -1.40977351E-01  0.00000000E+00  0.00000000E+00
  0.00000000E+00 -1.33703422E-01  0.00000000E+00  0.00000000E+00  0.00000000E+00
  1.22812643E+00  0.00000000E+00  0.00000000E+00  0.00000000E+00  0.00000000E+00
 -8.65038914E-03 -2.36784633E-03  0.00000000E+00  0.00000000E+00  1.80187779E-02
  1.39935008E-01 -1.80187779E-02 -1.39935008E-01  0.00000000E+00  0.00000000E+00
  0.00000000E+00  0.00000000E+00  4.57942923E-03  0.00000000E+00  0.00000000E+00
  0.00000000E+00 -1.09512643E-01  0.00000000E+00  0.00000000E+00  0.00000000E+00
 -7.54275624E-01  0.00000000E+00  0.00000000E+00  0.00000000E+00  0.00000000E+00
 -2.15527908E-03 -2.25328086E-03 -8.64662556E-03 -1.15368651E-01  8.64662556E-03
  1.15368651E-01  0.00000000E+00  0.00000000E+00  0.00000000E+00  0.00000000E+00
 -4.57942923E-03  0.00000000E+00  0.00000000E+00  0.00000000E+00  1.09512643E-01
  0.00000000E+00  0.00000000E+00  0.00000000E+00  7.54275624E-01  0.00000000E+00
  0.00000000E+00  0.00000000E+00  0.00000000E+00 -2.15527908E-03 -2.25328086E-03
  8.64662556E-03  1.15368651E-01 -8.64662556E-03 -1.15368651E-01  0.00000000E+00
  0.00000000E+00  0.00000000E+00  0.00000000E+00  1.40977351E-01  0.00000000E+00
  0.00000000E+00  0.00000000E+00  1.33703422E-01  0.00000000E+00  0.00000000E+00
  0.00000000E+00 -1.22812643E+00  0.00000000E+00  0.00000000E+00  0.00000000E+00
  0.00000000E+00 -8.65038914E-03 -2.36784633E-03 -1.80187779E-02 -1.39935008E-01
  0.00000000E+00  0.00000000E+00  1.80187779E-02  1.39935008E-01  2.10446246E-02
 -3.15060767E-03 -1.02836733E-01 -5.58575154E-03  0.00000000E+00 -3.91194781E-01
 -2.90087624E-01  1.54846754E-01  0.00000000E+00 -3.32917317E+00  5.96594697E-01
  6.42189354E-01  0.00000000E+00  1.37937653E-03 -3.21055029E-03  1.07035014E-02
 -1.39128772E-03  0.00000000E+00  0.00000000E+00 -5.04239104E-04 -2.10695485E-01
  1.72356818E-02 -5.73729654E-02  1.72356818E-02 -5.73729654E-02  2.43923191E-02
 -1.74459042E-02  3.38490672E-03  1.67784932E-02  0.00000000E+00 -4.03574757E-01
  7.55290463E-02  2.19939043E-01  0.00000000E+00  3.64458837E+00  9.93271238E-01
  2.81564310E+00  0.00000000E+00 -6.47041157E-03  1.75123314E-04  1.92363693E-02
 -2.89576860E-03  0.00000000E+00  0.00000000E+00  2.87863471E-02 -3.73359095E-02
  2.87863471E-02 -3.73359095E-02  2.43923191E-02 -1.74459042E-02 -3.38490672E-03
 -1.67784932E-02  0.00000000E+00 -4.03574757E-01 -7.55290463E-02 -2.19939043E-01
  0.00000000E+00  3.64458837E+00 -9.93271238E-01 -2.81564310E+00  0.00000000E+00
 -6.47041157E-03  1.75123314E-04  1.92363693E-02 -2.89576860E-03  0.00000000E+00
  0.00000000E+00  2.87863471E-02 -3.73359095E-02  2.87863471E-02 -3.73359095E-02
  2.10446246E-02 -3.15060767E-03  1.02836733E-01  5.58575154E-03  0.00000000E+00
 -3.91194781E-01  2.90087624E-01 -1.54846754E-01  0.00000000E+00 -3.32917317E+00
 -5.96594697E-01 -6.42189354E-01  0.00000000E+00  1.37937653E-03 -3.21055029E-03
  1.07035014E-02 -1.39128772E-03  0.00000000E+00  0.00000000E+00  1.72356818E-02
 -5.73729654E-02 -5.04239104E-04 -2.10695485E-01  1.72356818E-02 -5.73729654E-02
 -2.51645143E-02  5.91987798E-02  6.30671674E-02  2.89396228E-03  0.00000000E+00
  1.59716663E-01  1.03633330E-01  1.56114047E-01  0.00000000E+00 -1.24118474E+01
 -1.17863674E+00  4.20995691E+00  0.00000000E+00 -7.99715708E-03  9.28644569E-03
 -2.07359229E-03 -6.10381477E-03  0.00000000E+00  0.00000000E+00 -1.15339825E-02
  6.58664376E-02 -2.79583046E-02  5.76866135E-02 -2.79583046E-02  5.76866135E-02
 -1.88890534E-02  1.48606811E-02  6.75417127E-02  3.90867732E-02  0.00000000E+00
  3.96102302E-01  1.98133736E-01  9.71113378E-02  0.00000000E+00  2.06138960E+01
  3.34064351E+00  2.57854263E+00  0.00000000E+00 -7.63087023E-03  8.70216343E-03
 -3.73168159E-03  7.21482964E-03  0.00000000E+00  0.00000000E+00  6.44307245E-03
 -8.91474827E-02  6.44307245E-03 -8.91474827E-02  1.88890534E-02 -1.48606811E-02
  6.75417127E-02  3.90867732E-02  0.00000000E+00 -3.96102302E-01  1.98133736E-01
  9.71113378E-02  0.00000000E+00 -2.06138960E+01  3.34064351E+00  2.57854263E+00
  0.00000000E+00  7.63087023E-03 -8.70216343E-03  3.73168159E-03 -7.21482964E-03
  0.00000000E+00  0.00000000E+00 -6.44307245E-03  8.91474827E-02 -6.44307245E-03
  8.91474827E-02  2.51645143E-02 -5.91987798E-02  6.30671674E-02  2.89396228E-03
  0.00000000E+00 -1.59716663E-01  1.03633330E-01  1.56114047E-01  0.00000000E+00
  1.24118474E+01 -1.17863674E+00  4.20995691E+00  0.00000000E+00  7.99715708E-03
 -9.28644569E-03  2.07359229E-03  6.10381477E-03  0.00000000E+00  0.00000000E+00
  2.79583046E-02 -5.76866135E-02  1.15339825E-02 -6.58664376E-02  2.79583046E-02
 -5.76866135E-02  0.00000000E+00  0.00000000E+00  0.00000000E+00  0.00000000E+00
  2.61027064E-02  0.00000000E+00  0.00000000E+00  0.00000000E+00  5.44737169E-02
  0.00000000E+00  0.00000000E+00  0.00000000E+00 -5.42759510E-01  0.00000000E+00
  0.00000000E+00  0.00000000E+00  0.00000000E+00 -6.26502102E-03  4.94375702E-03
  0.00000000E+00  0.00000000E+00  4.65958337E-03  7.09671612E-02 -4.65958337E-03
 -7.09671612E-02  0.00000000E+00  0.00000000E+00  0.00000000E+00  0.00000000E+00
 -1.45724881E-01  0.00000000E+00  0.00000000E+00  0.00000000E+00 -1.78558592E-01
  0.00000000E+00  0.00000000E+00  0.00000000E+00  2.52360994E+00  0.00000000E+00
  0.00000000E+00  0.00000000E+00  0.00000000E+00  5.92419244E-03  2.54087776E-03
  1.45090536E-02  1.32705865E-01 -1.45090536E-02 -1.32705865E-01  0.00000000E+00
  0.00000000E+00  0.00000000E+00  0.00000000E+00  1.45724881E-01  0.00000000E+00
  0.00000000E+00  0.00000000E+00  1.78558592E-01  0.00000000E+00  0.00000000E+00
  0.00000000E+00 -2.52360994E+00  0.00000000E+00  0.00000000E+00  0.00000000E+00
  0.00000000E+00  5.92419244E-03  2.54087776E-03 -1.45090536E-02 -1.32705865E-01
  1.45090536E-02  1.32705865E-01  0.00000000E+00  0.00000000E+00  0.00000000E+00
  0.00000000E+00 -2.61027064E-02  0.00000000E+00  0.00000000E+00  0.00000000E+00
 -5.44737169E-02  0.00000000E+00  0.00000000E+00  0.00000000E+00  5.42759510E-01
  0.00000000E+00  0.00000000E+00  0.00000000E+00  0.00000000E+00 -6.26502102E-03
  4.94375702E-03 -4.65958337E-03 -7.09671612E-02  0.00000000E+00  0.00000000E+00
  4.65958337E-03  7.09671612E-02  1.04055641E-02 -1.88933657E-02  9.29929373E-02
  8.37517356E-04  0.00000000E+00 -7.68513322E-02  9.85839004E-02 -6.39514778E-02
  0.00000000E+00  3.71750172E+00 -1.61355868E+00 -1.55956741E+00  0.00000000E+00
 -9.49190411E-04 -3.28255686E-03  6.90074459E-03 -3.16215155E-03  0.00000000E+00
  0.00000000E+00  1.60944854E-02 -7.03941536E-02  9.70625732E-03  3.49622850E-02
  9.70625732E-03  3.49622850E-02 -2.14034102E-02  5.30482680E-02 -2.90971078E-03
 -7.46278079E-02  0.00000000E+00  1.14416708E-01  7.43425647E-02 -1.46823539E-01
  0.00000000E+00 -2.63857991E+00  1.78281104E+00 -8.66321010E-01  0.00000000E+00
 -4.66653330E-03 -4.97348003E-05  8.91149470E-03  3.51492377E-03  0.00000000E+00
  0.00000000E+00  5.48051782E-03  1.30846434E-01  5.48051782E-03  1.30846434E-01
  2.14034102E-02 -5.30482680E-02 -2.90971078E-03 -7.46278079E-02  0.00000000E+00
 -1.14416708E-01  7.43425647E-02 -1.46823539E-01  0.00000000E+00  2.63857991E+00
  1.78281104E+00 -8.66321010E-01  0.00000000E+00  4.66653330E-03  4.97348003E-05
 -8.91149470E-03 -3.51492377E-03  0.00000000E+00  0.00000000E+00 -5.48051782E-03
 -1.30846434E-01 -5.48051782E-03 -1.30846434E-01 -1.04055641E-02  1.88933657E-02
  9.29929373E-02  8.37517356E-04  0.00000000E+00  7.68513322E-02  9.85839004E-02
 -6.39514778E-02  0.00000000E+00 -3.71750172E+00 -1.61355868E+00 -1.55956741E+00
  0.00000000E+00  9.49190411E-04  3.28255686E-03 -6.90074459E-03  3.16215155E-03
  0.00000000E+00  0.00000000E+00 -9.70625732E-03 -3.49622850E-02 -1.60944854E-02
  7.03941536E-02 -9.70625732E-03 -3.49622850E-02  0.00000000E+00  0.00000000E+00
  0.00000000E+00  0.00000000E+00 -4.45271482E-02  0.00000000E+00  0.00000000E+00
  0.00000000E+00  4.78368894E-02  0.00000000E+00  0.00000000E+00  0.00000000E+00
  1.86076031E+00  0.00000000E+00  0.00000000E+00  0.00000000E+00  0.00000000E+00
 -1.02776800E-02  7.40381900E-04  0.00000000E+00  0.00000000E+00  2.06525573E-02
  2.21082024E-01 -2.06525573E-02 -2.21082024E-01  0.00000000E+00  0.00000000E+00
  0.00000000E+00  0.00000000E+00  1.06029942E-01  0.00000000E+00  0.00000000E+00
  0.00000000E+00  1.21084932E-01  0.00000000E+00  0.00000000E+00  0.00000000E+00
 -1.63943856E+00  0.00000000E+00  0.00000000E+00  0.00000000E+00  0.00000000E+00
 -2.02479969E-03 -3.64217030E-03 -1.24196661E-03 -9.63571694E-02  1.24196661E-03
  9.63571694E-02  0.00000000E+00  0.00000000E+00  0.00000000E+00  0.00000000E+00
  1.06029942E-01  0.00000000E+00  0.00000000E+00  0.00000000E+00  1.21084932E-01
  0.00000000E+00  0.00000000E+00  0.00000000E+00 -1.63943856E+00  0.00000000E+00
  0.00000000E+00  0.00000000E+00  0.00000000E+00  2.02479969E-03  3.64217030E-03
 -1.24196661E-03 -9.63571694E-02  1.24196661E-03  9.63571694E-02  0.00000000E+00
  0.00000000E+00  0.00000000E+00  0.00000000E+00 -4.45271482E-02  0.00000000E+00
  0.00000000E+00  0.00000000E+00  4.78368894E-02  0.00000000E+00  0.00000000E+00
  0.00000000E+00  1.86076031E+00  0.00000000E+00  0.00000000E+00  0.00000000E+00
  0.00000000E+00  1.02776800E-02 -7.40381900E-04  2.06525573E-02  2.21082024E-01
  0.00000000E+00  0.00000000E+00 -2.06525573E-02 -2.21082024E-01  2.37481958E-02
 -3.35135140E-02 -6.59808796E-02 -3.30028125E-02  0.00000000E+00 -2.83497009E-01
 -2.49090689E-01 -2.25857029E-02  0.00000000E+00  9.00118222E+00 -3.87058032E-01
 -2.52781348E+00  0.00000000E+00 -9.61061950E-03 -6.62140597E-04  1.58895175E-02
 -4.47767377E-04  0.00000000E+00  0.00000000E+00 -2.71943799E-02 -5.27517043E-01
  3.01350657E-02 -1.19078472E-01  3.01350657E-02 -1.19078472E-01  2.35859274E-02
 -5.95999315E-02  4.20470691E-02  4.13049828E-02  0.00000000E+00 -1.33565940E-01
  3.35560204E-01 -1.49322693E-01  0.00000000E+00  1.94565790E+01  8.25213820E+00
 -5.95473431E+00  0.00000000E+00  3.61093730E-03 -4.66229625E-03  2.66043647E-03
 -5.54235852E-03  0.00000000E+00  0.00000000E+00  1.61794845E-02 -1.83268988E-01
  1.61794845E-02 -1.83268988E-01 -2.35859274E-02  5.95999315E-02  4.20470691E-02
  4.13049828E-02  0.00000000E+00  1.33565940E-01  3.35560204E-01 -1.49322693E-01
  0.00000000E+00 -1.94565790E+01  8.25213820E+00 -5.95473431E+00  0.00000000E+00
 -3.61093730E-03  4.66229625E-03 -2.66043647E-03  5.54235852E-03  0.00000000E+00
  0.00000000E+00 -1.61794845E-02  1.83268988E-01 -1.61794845E-02  1.83268988E-01
 -2.37481958E-02  3.35135140E-02 -6.59808796E-02 -3.30028125E-02  0.00000000E+00
  2.83497009E-01 -2.49090689E-01 -2.25857029E-02  0.00000000E+00 -9.00118222E+00
 -3.87058032E-01 -2.52781348E+00  0.00000000E+00  9.61061950E-03  6.62140597E-04
 -1.58895175E-02  4.47767377E-04  0.00000000E+00  0.00000000E+00 -3.01350657E-02
  1.19078472E-01  2.71943799E-02  5.27517043E-01 -3.01350657E-02  1.19078472E-01
  1.02612381E-02 -3.66166057E-03 -1.60124332E-02  8.24048523E-02  0.00000000E+00
 -2.20587518E-01 -1.38060575E-01  2.79964052E-01  0.00000000E+00 -1.06171373E+01
  2.24219659E+00  2.38030654E+00  0.00000000E+00 -8.42888304E-03  4.00008210E-03
  9.46832582E-03  1.29212163E-02  0.00000000E+00  0.00000000E+00 -6.03321760E-02
 -3.61996597E-01  2.87010755E-02  5.12840731E-02  2.87010755E-02  5.12840731E-02
 -2.11829447E-02  3.96607239E-02  5.37675095E-02  2.82359207E-03  0.00000000E+00
  2.78964467E-01  1.06518307E-01  1.78207729E-01  0.00000000E+00  1.07951746E+01
 -2.29464554E+00  8.12426795E+00  0.00000000E+00  9.90940478E-03 -1.20698430E-02
  1.33017869E-03 -1.26906608E-02  0.00000000E+00  0.00000000E+00 -6.60645133E-03
 -7.33392701E-02 -6.60645133E-03 -7.33392701E-02 -2.11829447E-02  3.96607239E-02
 -5.37675095E-02 -2.82359207E-03  0.00000000E+00  2.78964467E-01 -1.06518307E-01
 -1.78207729E-01  0.00000000E+00  1.07951746E+01  2.29464554E+00 -8.12426795E+00
  0.00000000E+00  9.90940478E-03 -1.20698430E-02  1.33017869E-03 -1.26906608E-02
  0.00000000E+00  0.00000000E+00 -6.60645133E-03 -7.33392701E-02 -6.60645133E-03
 -7.33392701E-02  1.02612381E-02 -3.66166057E-03  1.60124332E-02 -8.24048523E-02
  0.00000000E+00 -2.20587518E-01  1.38060575E-01 -2.79964052E-01  0.00000000E+00
 -1.06171373E+01 -2.24219659E+00 -2.38030654E+00  0.00000000E+00 -8.42888304E-03
  4.00008210E-03  9.46832582E-03  1.29212163E-02  0.00000000E+00  0.00000000E+00
  2.87010755E-02  5.12840731E-02 -6.03321760E-02 -3.61996597E-01  2.87010755E-02
  5.12840731E-02 -4.15864502E-02  8.68235132E-02  1.48748407E-02  5.43081905E-02
  0.00000000E+00  3.59271236E-01 -1.80642705E-02  2.48597157E-01  0.00000000E+00
 -1.62303211E+01 -4.19384253E-01  5.55777877E+00  0.00000000E+00 -2.43556560E-04
  5.63279340E-04 -7.55796204E-04 -6.71325276E-03  0.00000000E+00  0.00000000E+00
 -6.85741933E-03  1.22176642E-01 -3.18048898E-02  7.28130089E-02 -3.18048898E-02
  7.28130089E-02  2.70877269E-02 -5.43589238E-02  5.12529128E-02  4.00681487E-02
  0.00000000E+00 -2.97761089E-01  6.71959138E-02  2.23691381E-01  0.00000000E+00
  1.63464115E+01  2.56490666E-01  3.47993127E+00  0.00000000E+00 -7.00081456E-03
  3.45392307E-03  4.24172190E-03  3.66391309E-03  0.00000000E+00  0.00000000E+00
  2.81828317E-02 -1.43092404E-01  2.81828317E-02 -1.43092404E-01  2.70877269E-02
 -5.43589238E-02 -5.12529128E-02 -4.00681487E-02  0.00000000E+00 -2.97761089E-01
 -6.71959138E-02 -2.23691381E-01  0.00000000E+00  1.63464115E+01 -2.56490666E-01
 -3.47993127E+00  0.00000000E+00 -7.00081456E-03  3.45392307E-03  4.24172190E-03
  3.66391309E-03  0.00000000E+00  0.00000000E+00  2.81828317E-02 -1.43092404E-01
  2.81828317E-02 -1.43092404E-01 -4.15864502E-02  8.68235132E-02 -1.48748407E-02
 -5.43081905E-02  0.00000000E+00  3.59271236E-01  1.80642705E-02 -2.48597157E-01
  0.00000000E+00 -1.62303211E+01  4.19384253E-01 -5.55777877E+00  0.00000000E+00
 -2.43556560E-04  5.63279340E-04 -7.55796204E-04 -6.71325276E-03  0.00000000E+00
  0.00000000E+00 -3.18048898E-02  7.28130089E-02 -6.85741933E-03  1.22176642E-01
 -3.18048898E-02  7.28130089E-02 -1.09468589E-02  2.92402356E-02  2.84967261E-02
  5.68140219E-02  0.00000000E+00 -3.24784292E-02  1.26346202E-01  1.04985704E-01
  0.00000000E+00 -4.26206566E+01 -1.83959660E+00  1.11324779E+01  0.00000000E+00
  1.24937250E-02 -1.45444189E-02  8.23308097E-03  2.08596662E-03  0.00000000E+00
  0.00000000E+00  2.51163024E-03  3.63967827E-01 -1.08148176E-03  1.25640486E-01
 -1.08148176E-03  1.25640486E-01  5.34078700E-02 -9.05655322E-02 -1.13343549E-02
 -1.32261810E-02  0.00000000E+00 -6.93125787E-01  4.38791448E-03 -9.01820728E-03
  0.00000000E+00  5.53976724E+01  5.60362271E+00  1.33655512E+01  0.00000000E+00
  1.34811178E-02 -8.09744715E-03  3.99947326E-03 -4.17072784E-03  0.00000000E+00
  0.00000000E+00  3.22569750E-02 -9.71965778E-03  3.22569750E-02 -9.71965778E-03
 -5.34078700E-02  9.05655322E-02 -1.13343549E-02 -1.32261810E-02  0.00000000E+00
  6.93125787E-01  4.38791448E-03 -9.01820728E-03  0.00000000E+00 -5.53976724E+01
  5.60362271E+00  1.33655512E+01  0.00000000E+00 -1.34811178E-02  8.09744715E-03
 -3.99947326E-03  4.17072784E-03  0.00000000E+00  0.00000000E+00 -3.22569750E-02
  9.71965778E-03 -3.22569750E-02  9.71965778E-03  1.09468589E-02 -2.92402356E-02
  2.84967261E-02  5.68140219E-02  0.00000000E+00  3.24784292E-02  1.26346202E-01
  1.04985704E-01  0.00000000E+00  4.26206566E+01 -1.83959660E+00  1.11324779E+01
  0.00000000E+00 -1.24937250E-02  1.45444189E-02 -8.23308097E-03 -2.08596662E-03
  0.00000000E+00  0.00000000E+00  1.08148176E-03 -1.25640486E-01 -2.51163024E-03
 -3.63967827E-01  1.08148176E-03 -1.25640486E-01  0.00000000E+00  0.00000000E+00
  0.00000000E+00  0.00000000E+00  2.11216362E-01  0.00000000E+00  0.00000000E+00
  0.00000000E+00  1.06456422E+00  0.00000000E+00  0.00000000E+00  0.00000000E+00
  2.23985144E-01  0.00000000E+00  0.00000000E+00  0.00000000E+00  0.00000000E+00
 -2.07613461E-02 -1.07530412E-02  0.00000000E+00  0.00000000E+00  8.43840567E-02
  1.22062441E+00 -8.43840567E-02 -1.22062441E+00  0.00000000E+00  0.00000000E+00
  0.00000000E+00  0.00000000E+00  8.81856563E-03  0.00000000E+00  0.00000000E+00
  0.00000000E+00 -1.28850630E-01  0.00000000E+00  0.00000000E+00  0.00000000E+00
  1.29152876E-01  0.00000000E+00  0.00000000E+00  0.00000000E+00  0.00000000E+00
 -2.52803953E-03  1.76355424E-02  2.84794057E-02  1.50929652E-01 -2.84794057E-02
 -1.50929652E-01  0.00000000E+00  0.00000000E+00  0.00000000E+00  0.00000000E+00
  8.81856563E-03  0.00000000E+00  0.00000000E+00  0.00000000E+00 -1.28850630E-01
  0.00000000E+00  0.00000000E+00  0.00000000E+00  1.29152876E-01  0.00000000E+00
  0.00000000E+00  0.00000000E+00  0.00000000E+00  2.52803953E-03 -1.76355424E-02
  2.84794057E-02  1.50929652E-01 -2.84794057E-02 -1.50929652E-01  0.00000000E+00
  0.00000000E+00  0.00000000E+00  0.00000000E+00  2.11216362E-01  0.00000000E+00
  0.00000000E+00  0.00000000E+00  1.06456422E+00  0.00000000E+00  0.00000000E+00
  0.00000000E+00  2.23985144E-01  0.00000000E+00  0.00000000E+00  0.00000000E+00
  0.00000000E+00  2.07613461E-02  1.07530412E-02  8.43840567E-02  1.22062441E+00
  0.00000000E+00  0.00000000E+00 -8.43840567E-02 -1.22062441E+00  5.26201757E-02
 -8.89567171E-02  1.20225253E-01  1.29773294E-01  0.00000000E+00 -7.12006704E-01
  6.41696204E-01  4.30270251E-01  0.00000000E+00  1.07638931E+01  9.29295259E-01
 -3.11855753E+00  0.00000000E+00  1.16691392E-02  1.11314418E-02 -1.95155340E-02
 -2.34827462E-02  0.00000000E+00  0.00000000E+00  1.06236065E-01  1.03550633E+00
 -5.47929876E-02 -5.25052320E-01 -5.47929876E-02 -5.25052320E-01 -2.48712744E-02
  6.26827529E-02  1.47704943E-01  1.09956516E-01  0.00000000E+00  1.24938118E-01
  2.36690599E-01  4.77325101E-01  0.00000000E+00 -7.21537331E+00  5.22591425E-01
 -4.04227318E+00  0.00000000E+00  6.10517425E-03 -2.22433732E-02  1.80226905E-02
  2.70676803E-02  0.00000000E+00  0.00000000E+00  6.90096456E-02  4.74853395E-01
  6.90096456E-02  4.74853395E-01  2.48712744E-02 -6.26827529E-02  1.47704943E-01
  1.09956516E-01  0.00000000E+00 -1.24938118E-01  2.36690599E-01  4.77325101E-01
  0.00000000E+00  7.21537331E+00  5.22591425E-01 -4.04227318E+00  0.00000000E+00
 -6.10517425E-03  2.22433732E-02 -1.80226905E-02 -2.70676803E-02  0.00000000E+00
  0.00000000E+00 -6.90096456E-02 -4.74853395E-01 -6.90096456E-02 -4.74853395E-01
 -5.26201757E-02  8.89567171E-02  1.20225253E-01  1.29773294E-01  0.00000000E+00
  7.12006704E-01  6.41696204E-01  4.30270251E-01  0.00000000E+00 -1.07638931E+01
  9.29295259E-01 -3.11855753E+00  0.00000000E+00 -1.16691392E-02 -1.11314418E-02
  1.95155340E-02  2.34827462E-02  0.00000000E+00  0.00000000E+00  5.47929876E-02
  5.25052320E-01 -1.06236065E-01 -1.03550633E+00  5.47929876E-02  5.25052320E-01
  0.00000000E+00  0.00000000E+00  0.00000000E+00  0.00000000E+00  1.69440708E-01
  0.00000000E+00  0.00000000E+00  0.00000000E+00  7.98920170E-01  0.00000000E+00
  0.00000000E+00  0.00000000E+00  3.96643606E-01  0.00000000E+00  0.00000000E+00
  0.00000000E+00  0.00000000E+00 -1.92970144E-02 -2.33607141E-02  0.00000000E+00
  0.00000000E+00  1.10506626E-01  1.05235269E+00 -1.10506626E-01 -1.05235269E+00
  0.00000000E+00  0.00000000E+00  0.00000000E+00  0.00000000E+00  1.21574457E-01
  0.00000000E+00  0.00000000E+00  0.00000000E+00  4.88769424E-01  0.00000000E+00
  0.00000000E+00  0.00000000E+00 -3.07479646E-02  0.00000000E+00  0.00000000E+00
  0.00000000E+00  0.00000000E+00  4.02120890E-03  2.64366425E-02  6.87401062E-02
  6.17841415E-01 -6.87401062E-02 -6.17841415E-01  0.00000000E+00  0.00000000E+00
  0.00000000E+00  0.00000000E+00 -1.21574457E-01  0.00000000E+00  0.00000000E+00
  0.00000000E+00 -4.88769424E-01  0.00000000E+00  0.00000000E+00  0.00000000E+00
  3.07479646E-02  0.00000000E+00  0.00000000E+00  0.00000000E+00  0.00000000E+00
  4.02120890E-03  2.64366425E-02 -6.87401062E-02 -6.17841415E-01  6.87401062E-02
  6.17841415E-01  0.00000000E+00  0.00000000E+00  0.00000000E+00  0.00000000E+00
 -1.69440708E-01  0.00000000E+00  0.00000000E+00  0.00000000E+00 -7.98920170E-01
  0.00000000E+00  0.00000000E+00  0.00000000E+00 -3.96643606E-01  0.00000000E+00
  0.00000000E+00  0.00000000E+00  0.00000000E+00 -1.92970144E-02 -2.33607141E-02
 -1.10506626E-01 -1.05235269E+00  0.00000000E+00  0.00000000E+00  1.10506626E-01
  1.05235269E+00  0.00000000E+00  0.00000000E+00  0.00000000E+00  0.00000000E+00
 -3.00878355E-02  0.00000000E+00  0.00000000E+00  0.00000000E+00 -3.72466161E-01
  0.00000000E+00  0.00000000E+00  0.00000000E+00 -3.30415746E-01  0.00000000E+00
  0.00000000E+00  0.00000000E+00  0.00000000E+00  6.69271522E-03 -1.32832470E-02
  0.00000000E+00  0.00000000E+00  6.93371130E-03 -1.58789976E-01 -6.93371130E-03
  1.58789976E-01  0.00000000E+00  0.00000000E+00  0.00000000E+00  0.00000000E+00
  1.97137588E-01  0.00000000E+00  0.00000000E+00  0.00000000E+00  9.34043652E-01
  0.00000000E+00  0.00000000E+00  0.00000000E+00  6.98406521E-01  0.00000000E+00
  0.00000000E+00  0.00000000E+00  0.00000000E+00  3.77161766E-02  4.33288904E-03
  1.22252933E-01  1.31966930E+00 -1.22252933E-01 -1.31966930E+00  0.00000000E+00
  0.00000000E+00  0.00000000E+00  0.00000000E+00  1.97137588E-01  0.00000000E+00
  0.00000000E+00  0.00000000E+00  9.34043652E-01  0.00000000E+00  0.00000000E+00
  0.00000000E+00  6.98406521E-01  0.00000000E+00  0.00000000E+00  0.00000000E+00
  0.00000000E+00 -3.77161766E-02 -4.33288904E-03  1.22252933E-01  1.31966930E+00
 -1.22252933E-01 -1.31966930E+00  0.00000000E+00  0.00000000E+00  0.00000000E+00
  0.00000000E+00 -3.00878355E-02  0.00000000E+00  0.00000000E+00  0.00000000E+00
 -3.72466161E-01  0.00000000E+00  0.00000000E+00  0.00000000E+00 -3.30415746E-01
  0.00000000E+00  0.00000000E+00  0.00000000E+00  0.00000000E+00 -6.69271522E-03
  1.32832470E-02  6.93371130E-03 -1.58789976E-01  0.00000000E+00  0.00000000E+00
 -6.93371130E-03  1.58789976E-01 -1.10083207E-03  2.86662430E-02 -1.62865193E-01
  1.15693987E-01  0.00000000E+00 -1.26981674E-01 -8.67491502E-01  7.05522464E-01
  0.00000000E+00  1.11514484E+01 -2.07872587E+00 -2.85916362E+00  0.00000000E+00
 -2.19310042E-02  9.98850993E-03  1.05750359E-02  9.19075897E-03  0.00000000E+00
  0.00000000E+00 -9.47872872E-02 -1.43953969E+00  2.87740925E-02  2.99614345E-01
  2.87740925E-02  2.99614345E-01 -4.54900004E-02  6.44681170E-02 -2.43169247E-03
  7.08262080E-02  0.00000000E+00  7.62263498E-01  1.58789243E-01  6.86256866E-01
  0.00000000E+00 -1.09404170E+01  1.10976432E+00 -7.52243660E+00  0.00000000E+00
 -9.67014722E-04 -7.92547814E-03  3.48804706E-03 -1.02323589E-02  0.00000000E+00
  0.00000000E+00  3.05265024E-03 -5.55471896E-02  3.05265024E-03 -5.55471896E-02
 -4.54900004E-02  6.44681170E-02  2.43169247E-03 -7.08262080E-02  0.00000000E+00
  7.62263498E-01 -1.58789243E-01 -6.86256866E-01  0.00000000E+00 -1.09404170E+01
 -1.10976432E+00  7.52243660E+00  0.00000000E+00 -9.67014722E-04 -7.92547814E-03
  3.48804706E-03 -1.02323589E-02  0.00000000E+00  0.00000000E+00  3.05265024E-03
 -5.55471896E-02  3.05265024E-03 -5.55471896E-02 -1.10083207E-03  2.86662430E-02
  1.62865193E-01 -1.15693987E-01  0.00000000E+00 -1.26981674E-01  8.67491502E-01
 -7.05522464E-01  0.00000000E+00  1.11514484E+01  2.07872587E+00  2.85916362E+00
  0.00000000E+00 -2.19310042E-02  9.98850993E-03  1.05750359E-02  9.19075897E-03
  0.00000000E+00  0.00000000E+00  2.87740925E-02  2.99614345E-01 -9.47872872E-02
 -1.43953969E+00  2.87740925E-02  2.99614345E-01  5.19910064E-02 -7.60288954E-02
 -3.01966258E-02  1.43791627E-01  0.00000000E+00 -9.70101419E-01  2.46531042E-01
  5.43809176E-01  0.00000000E+00  1.88517918E-01 -5.50069532E-01 -7.78947968E-02
  0.00000000E+00 -8.73715469E-05  9.88365896E-03 -6.66416533E-03  1.58094103E-02
  0.00000000E+00  0.00000000E+00 -4.56013021E-02  1.34652666E-01  5.11332872E-03
  2.67705057E-01  5.11332872E-03  2.67705057E-01  1.74465855E-02 -8.93872813E-03
 -2.79853867E-01  2.01378802E-01  0.00000000E+00 -4.54795457E-01 -1.53478534E+00
  1.02460958E+00  0.00000000E+00  5.61048954E+00  2.19128160E+00 -1.09772984E+00
  0.00000000E+00  2.66096118E-02 -2.03694865E-02 -8.12254969E-03 -5.32831119E-03
  0.00000000E+00  0.00000000E+00 -2.12185620E-02 -3.83634797E-01 -2.12185620E-02
 -3.83634797E-01 -1.74465855E-02  8.93872813E-03 -2.79853867E-01  2.01378802E-01
  0.00000000E+00  4.54795457E-01 -1.53478534E+00  1.02460958E+00  0.00000000E+00
 -5.61048954E+00  2.19128160E+00 -1.09772984E+00  0.00000000E+00 -2.66096118E-02
  2.03694865E-02  8.12254969E-03  5.32831119E-03  0.00000000E+00  0.00000000E+00
  2.12185620E-02  3.83634797E-01  2.12185620E-02  3.83634797E-01 -5.19910064E-02
  7.60288954E-02 -3.01966258E-02  1.43791627E-01  0.00000000E+00  9.70101419E-01
  2.46531042E-01  5.43809176E-01  0.00000000E+00 -1.88517918E-01 -5.50069532E-01
 -7.78947968E-02  0.00000000E+00  8.73715469E-05 -9.88365896E-03  6.66416533E-03
 -1.58094103E-02  0.00000000E+00  0.00000000E+00 -5.11332872E-03 -2.67705057E-01
  4.56013021E-02 -1.34652666E-01 -5.11332872E-03 -2.67705057E-01  0.00000000E+00
  0.00000000E+00  0.00000000E+00  0.00000000E+00 -1.66131268E-01  0.00000000E+00
  0.00000000E+00  0.00000000E+00 -9.44604322E-01  0.00000000E+00  0.00000000E+00
  0.00000000E+00 -8.32961124E-01  0.00000000E+00  0.00000000E+00  0.00000000E+00
  0.00000000E+00  1.34955415E-02 -1.90665251E-02  0.00000000E+00  0.00000000E+00
 -3.62518783E-03 -8.49108214E-01  3.62518783E-03  8.49108214E-01  0.00000000E+00
  0.00000000E+00  0.00000000E+00  0.00000000E+00  2.29695713E-01  0.00000000E+00
  0.00000000E+00  0.00000000E+00  1.54221778E+00  0.00000000E+00  0.00000000E+00
  0.00000000E+00  2.21199659E+00  0.00000000E+00  0.00000000E+00  0.00000000E+00
  0.00000000E+00  2.61717278E-03  1.35332150E-02  3.20283225E-02  1.44400041E+00
 -3.20283225E-02 -1.44400041E+00  0.00000000E+00  0.00000000E+00  0.00000000E+00
  0.00000000E+00 -2.29695713E-01  0.00000000E+00  0.00000000E+00  0.00000000E+00
 -1.54221778E+00  0.00000000E+00  0.00000000E+00  0.00000000E+00 -2.21199659E+00
  0.00000000E+00  0.00000000E+00  0.00000000E+00  0.00000000E+00  2.61717278E-03
  1.35332150E-02 -3.20283225E-02 -1.44400041E+00  3.20283225E-02  1.44400041E+00
  0.00000000E+00  0.00000000E+00  0.00000000E+00  0.00000000E+00  1.66131268E-01
  0.00000000E+00  0.00000000E+00  0.00000000E+00  9.44604322E-01  0.00000000E+00
  0.00000000E+00  0.00000000E+00  8.32961124E-01  0.00000000E+00  0.00000000E+00
  0.00000000E+00  0.00000000E+00  1.34955415E-02 -1.90665251E-02  3.62518783E-03
  8.49108214E-01  0.00000000E+00  0.00000000E+00 -3.62518783E-03 -8.49108214E-01
  1.61324097E-02 -4.24806355E-03  1.35340524E-01 -2.29800056E-01  0.00000000E+00
 -5.70043110E-01  7.56518533E-01 -9.98807613E-01  0.00000000E+00 -2.13204898E+00
  2.90595857E-01  8.18709125E-01  0.00000000E+00  2.07584939E-02 -2.04121728E-02
  4.57103948E-03  2.54821842E-03  0.00000000E+00  0.00000000E+00  7.37546711E-02
  1.60407601E+00  3.02975063E-02  2.97266349E-01  3.02975063E-02  2.97266349E-01
  3.50757623E-02 -2.55984375E-02 -7.49025125E-02 -1.70209175E-01  0.00000000E+00
 -8.23738652E-01 -7.76349283E-01 -4.17757926E-01  0.00000000E+00  1.35241700E+01
  3.15759672E+00 -1.19494555E+00  0.00000000E+00 -2.15221312E-03  1.05927510E-02
 -1.18184139E-02  3.44081374E-03  0.00000000E+00  0.00000000E+00 -2.66564983E-02
 -5.62723895E-01 -2.66564983E-02 -5.62723895E-01 -3.50757623E-02  2.55984375E-02
 -7.49025125E-02 -1.70209175E-01  0.00000000E+00  8.23738652E-01 -7.76349283E-01
 -4.17757926E-01  0.00000000E+00 -1.35241700E+01  3.15759672E+00 -1.19494555E+00
  0.00000000E+00  2.15221312E-03 -1.05927510E-02  1.18184139E-02 -3.44081374E-03
  0.00000000E+00  0.00000000E+00  2.66564983E-02  5.62723895E-01  2.66564983E-02
  5.62723895E-01 -1.61324097E-02  4.24806355E-03  1.35340524E-01 -2.29800056E-01
  0.00000000E+00  5.70043110E-01  7.56518533E-01 -9.98807613E-01  0.00000000E+00
  2.13204898E+00  2.90595857E-01  8.18709125E-01  0.00000000E+00 -2.07584939E-02
  2.04121728E-02 -4.57103948E-03 -2.54821842E-03  0.00000000E+00  0.00000000E+00
 -3.02975063E-02 -2.97266349E-01 -7.37546711E-02 -1.60407601E+00 -3.02975063E-02
 -2.97266349E-01  2.36814078E-02  1.11437527E-02  1.91481384E-01  1.34216359E-01
  0.00000000E+00 -6.78318925E-01  6.63942746E-01  1.18788736E+00  0.00000000E+00
  7.47159705E+00  5.06357135E-01 -2.62582954E+00  0.00000000E+00 -4.50938192E-03
  2.21256805E-02 -1.63001560E-02  2.98762338E-03  0.00000000E+00  0.00000000E+00
  1.05229610E-02  5.01242636E-01 -4.98333484E-02 -9.87765804E-01 -4.98333484E-02
 -9.87765804E-01 -3.06858441E-02  2.53228017E-02 -8.46381533E-04  2.39550806E-01
  0.00000000E+00  7.47890659E-01  1.70523851E-01  1.29284411E+00  0.00000000E+00
 -7.29786288E+00  5.52595537E-02 -1.56948059E+00  0.00000000E+00 -7.32717602E-03
 -3.66223241E-03  1.15650033E-02 -1.74765252E-03  0.00000000E+00  0.00000000E+00
  2.99350008E-02  3.76401562E-01  2.99350008E-02  3.76401562E-01 -3.06858441E-02
  2.53228017E-02  8.46381533E-04 -2.39550806E-01  0.00000000E+00  7.47890659E-01
 -1.70523851E-01 -1.29284411E+00  0.00000000E+00 -7.29786288E+00 -5.52595537E-02
  1.56948059E+00  0.00000000E+00 -7.32717602E-03 -3.66223241E-03  1.15650033E-02
 -1.74765252E-03  0.00000000E+00  0.00000000E+00  2.99350008E-02  3.76401562E-01
  2.99350008E-02  3.76401562E-01  2.36814078E-02  1.11437527E-02 -1.91481384E-01
 -1.34216359E-01  0.00000000E+00 -6.78318925E-01 -6.63942746E-01 -1.18788736E+00
  0.00000000E+00  7.47159705E+00 -5.06357135E-01  2.62582954E+00  0.00000000E+00
 -4.50938192E-03  2.21256805E-02 -1.63001560E-02  2.98762338E-03  0.00000000E+00
  0.00000000E+00 -4.98333484E-02 -9.87765804E-01  1.05229610E-02  5.01242636E-01
 -4.98333484E-02 -9.87765804E-01 -7.41033043E-02  1.02509779E-01  1.89011952E-02
  4.85398163E-02  0.00000000E+00  1.75040463E+00  2.30106963E-01  2.85119172E-01
  0.00000000E+00  2.22323552E+00  2.11783789E-01 -7.79516254E-01  0.00000000E+00
  9.73036301E-03  3.87146605E-03 -8.68522755E-03 -2.47879577E-03  0.00000000E+00
  0.00000000E+00 -2.55666869E-04 -1.00014669E+00 -4.21277842E-02 -1.41149870E+00
 -4.21277842E-02 -1.41149870E+00 -1.65502623E-02  7.29165177E-02 -9.32006249E-02
 -1.27122878E-01  0.00000000E+00  3.93857738E-01 -6.67227461E-01 -8.17817523E-01
  0.00000000E+00 -3.97339492E-01  5.56423434E-01  8.43303351E-01  0.00000000E+00
  1.11071315E-02  1.80706914E-02 -1.17768597E-02  6.10917076E-03  0.00000000E+00
  0.00000000E+00 -2.43743403E-02 -1.30338319E+00 -2.43743403E-02 -1.30338319E+00
 -1.65502623E-02  7.29165177E-02  9.32006249E-02  1.27122878E-01  0.00000000E+00
  3.93857738E-01  6.67227461E-01  8.17817523E-01  0.00000000E+00 -3.97339492E-01
 -5.56423434E-01 -8.43303351E-01  0.00000000E+00  1.11071315E-02  1.80706914E-02
 -1.17768597E-02  6.10917076E-03  0.00000000E+00  0.00000000E+00 -2.43743403E-02
 -1.30338319E+00 -2.43743403E-02 -1.30338319E+00 -7.41033043E-02  1.02509779E-01
 -1.89011952E-02 -4.85398163E-02  0.00000000E+00  1.75040463E+00 -2.30106963E-01
 -2.85119172E-01  0.00000000E+00  2.22323552E+00 -2.11783789E-01  7.79516254E-01
  0.00000000E+00  9.73036301E-03  3.87146605E-03 -8.68522755E-03 -2.47879577E-03
  0.00000000E+00  0.00000000E+00 -4.21277842E-02 -1.41149870E+00 -2.55666869E-04
 -1.00014669E+00 -4.21277842E-02 -1.41149870E+00 -8.89065476E-02  1.06934250E-01
  1.61168835E-01 -7.79857788E-03  0.00000000E+00  1.98100000E+00  6.92435829E-01
  1.43038774E-01  0.00000000E+00  2.22041245E+01  9.24137879E-01 -5.84184057E+00
  0.00000000E+00  5.65200840E-03  7.66621358E-03 -1.29473913E-02  1.08023895E-02
  0.00000000E+00  0.00000000E+00 -3.23040793E-02 -5.76812180E-01 -5.40899563E-02
 -1.88824886E+00 -5.40899563E-02 -1.88824886E+00  4.31418179E-02 -9.78888712E-03
 -1.40242721E-01 -2.01356980E-02  0.00000000E+00 -9.92622192E-01 -7.84116685E-01
 -3.44359405E-01  0.00000000E+00 -1.02439238E+01  2.26296665E+00 -7.97557513E+00
  0.00000000E+00  1.05142502E-02  1.20865045E-02 -1.42795467E-02 -6.36080419E-03
  0.00000000E+00  0.00000000E+00 -3.34409270E-02 -2.95932851E-01 -3.34409270E-02
 -2.95932851E-01 -4.31418179E-02  9.78888712E-03 -1.40242721E-01 -2.01356980E-02
  0.00000000E+00  9.92622192E-01 -7.84116685E-01 -3.44359405E-01  0.00000000E+00
  1.02439238E+01  2.26296665E+00 -7.97557513E+00  0.00000000E+00 -1.05142502E-02
 -1.20865045E-02  1.42795467E-02  6.36080419E-03  0.00000000E+00  0.00000000E+00
  3.34409270E-02  2.95932851E-01  3.34409270E-02  2.95932851E-01  8.89065476E-02
 -1.06934250E-01  1.61168835E-01 -7.79857788E-03  0.00000000E+00 -1.98100000E+00
  6.92435829E-01  1.43038774E-01  0.00000000E+00 -2.22041245E+01  9.24137879E-01
 -5.84184057E+00  0.00000000E+00 -5.65200840E-03 -7.66621358E-03  1.29473913E-02
 -1.08023895E-02  0.00000000E+00  0.00000000E+00  5.40899563E-02  1.88824886E+00
  3.23040793E-02  5.76812180E-01  5.40899563E-02  1.88824886E+00  8.04123719E-02
 -4.49454285E-02  4.54248613E-02  9.63725383E-03  0.00000000E+00 -1.88253131E+00
  2.13626901E-01  3.79630389E-01  0.00000000E+00 -1.29136762E+01 -4.35359890E-01
  3.73465966E+00  0.00000000E+00  8.49660458E-03  5.27777240E-03 -3.13638158E-04
  9.47079692E-03  0.00000000E+00  0.00000000E+00  2.78580747E-02  1.14402017E+00
  4.22139268E-02  7.17951365E-01  4.22139268E-02  7.17951365E-01 -7.44112094E-02
  9.01527271E-02 -1.08842658E-01  2.30885990E-02  0.00000000E+00  1.71301264E+00
 -7.77807399E-01  2.73820555E-01  0.00000000E+00  1.32729046E+01  6.74448633E-01
  2.36436435E+00  0.00000000E+00  1.30098382E-02 -8.39082152E-06 -9.75413322E-03
 -8.01803568E-03  0.00000000E+00  0.00000000E+00 -5.74088351E-02 -1.68060410E+00
 -5.74088351E-02 -1.68060410E+00 -7.44112094E-02  9.01527271E-02  1.08842658E-01
 -2.30885990E-02  0.00000000E+00  1.71301264E+00  7.77807399E-01 -2.73820555E-01
  0.00000000E+00  1.32729046E+01 -6.74448633E-01 -2.36436435E+00  0.00000000E+00
  1.30098382E-02 -8.39082152E-06 -9.75413322E-03 -8.01803568E-03  0.00000000E+00
  0.00000000E+00 -5.74088351E-02 -1.68060410E+00 -5.74088351E-02 -1.68060410E+00
  8.04123719E-02 -4.49454285E-02 -4.54248613E-02 -9.63725383E-03  0.00000000E+00
 -1.88253131E+00 -2.13626901E-01 -3.79630389E-01  0.00000000E+00 -1.29136762E+01
  4.35359890E-01 -3.73465966E+00  0.00000000E+00  8.49660458E-03  5.27777240E-03
 -3.13638158E-04  9.47079692E-03  0.00000000E+00  0.00000000E+00  4.22139268E-02
  7.17951365E-01  2.78580747E-02  1.14402017E+00  4.22139268E-02  7.17951365E-01
  2.68124026E-02 -1.98557270E-02  3.10134172E-02  1.32858045E-01  0.00000000E+00
 -5.88312543E-01  1.75835382E-01  5.97356666E-01  0.00000000E+00 -2.08690838E+01
 -5.16363383E-01  5.28824501E+00  0.00000000E+00 -2.36825976E-03  9.36509920E-03
 -3.55503963E-03 -1.09765350E-02  0.00000000E+00  0.00000000E+00  3.47008404E-02
  1.66297291E-01 -2.35151360E-02 -2.06776544E-01 -2.35151360E-02 -2.06776544E-01
 -1.28395092E-01  1.20472974E-01  2.51214218E-02 -1.01372549E-01  0.00000000E+00
  2.80658409E+00  3.52814306E-01 -4.16389736E-01  0.00000000E+00  4.21377312E+01
  5.95369079E+00  4.97844278E+00  0.00000000E+00 -5.25018184E-03 -3.78748617E-03
  1.76049317E-03  6.73141947E-03  0.00000000E+00  0.00000000E+00 -4.11608160E-02
 -1.77946175E+00 -4.11608160E-02 -1.77946175E+00  1.28395092E-01 -1.20472974E-01
  2.51214218E-02 -1.01372549E-01  0.00000000E+00 -2.80658409E+00  3.52814306E-01
 -4.16389736E-01  0.00000000E+00 -4.21377312E+01  5.95369079E+00  4.97844278E+00
  0.00000000E+00  5.25018184E-03  3.78748617E-03 -1.76049317E-03 -6.73141947E-03
  0.00000000E+00  0.00000000E+00  4.11608160E-02  1.77946175E+00  4.11608160E-02
  1.77946175E+00 -2.68124026E-02  1.98557270E-02  3.10134172E-02  1.32858045E-01
  0.00000000E+00  5.88312543E-01  1.75835382E-01  5.97356666E-01  0.00000000E+00
  2.08690838E+01 -5.16363383E-01  5.28824501E+00  0.00000000E+00  2.36825976E-03
 -9.36509920E-03  3.55503963E-03  1.09765350E-02  0.00000000E+00  0.00000000E+00
  2.35151360E-02  2.06776544E-01 -3.47008404E-02 -1.66297291E-01  2.35151360E-02
  2.06776544E-01 -1.36421475E-02  1.58655771E-01  3.97093392E-01  1.29592384E-01
  0.00000000E+00 -7.36088072E-01 -6.72658082E-01 -2.81224390E-01  0.00000000E+00
  3.13600485E+00 -8.04679643E-02 -5.38328324E-01  0.00000000E+00 -7.76594554E-04
 -6.89078065E-02  7.17259926E-02  2.60559994E-02  0.00000000E+00  0.00000000E+00
 -6.79222982E-02  1.78402246E-01  1.57786933E-01  3.57917959E-02  1.57786933E-01
  3.57917959E-02 -3.64656800E-03  1.62127406E-02 -1.72147947E-01 -4.64028834E-01
  0.00000000E+00 -1.92394409E-01  6.60483756E-01  1.12758698E+00  0.00000000E+00
 -3.12467605E+00 -4.94114811E-03 -2.37184986E+00  0.00000000E+00 -2.57521719E-03
 -4.00328415E-02  4.10619503E-02 -3.07702499E-03  0.00000000E+00  0.00000000E+00
  1.04755271E-01  2.83743855E-01  1.04755271E-01  2.83743855E-01 -3.64656800E-03
  1.62127406E-02  1.72147947E-01  4.64028834E-01  0.00000000E+00 -1.92394409E-01
 -6.60483756E-01 -1.12758698E+00  0.00000000E+00 -3.12467605E+00  4.94114811E-03
  2.37184986E+00  0.00000000E+00 -2.57521719E-03 -4.00328415E-02  4.10619503E-02
 -3.07702499E-03  0.00000000E+00  0.00000000E+00  1.04755271E-01  2.83743855E-01
  1.04755271E-01  2.83743855E-01 -1.36421475E-02  1.58655771E-01 -3.97093392E-01
 -1.29592384E-01  0.00000000E+00 -7.36088072E-01  6.72658082E-01  2.81224390E-01
  0.00000000E+00  3.13600485E+00  8.04679643E-02  5.38328324E-01  0.00000000E+00
 -7.76594554E-04 -6.89078065E-02  7.17259926E-02  2.60559994E-02  0.00000000E+00
  0.00000000E+00  1.57786933E-01  3.57917959E-02 -6.79222982E-02  1.78402246E-01
  1.57786933E-01  3.57917959E-02 -2.99623760E-02 -2.07460385E-02 -3.78552505E-01
  3.05768972E-01  0.00000000E+00  5.27421361E-01  7.02215590E-01 -8.23684936E-01
  0.00000000E+00  1.46815401E+01  1.84369933E-01 -3.39969871E+00  0.00000000E+00
  6.08230503E-02 -5.63276393E-02 -1.86138849E-02 -4.11707166E-02  0.00000000E+00
  0.00000000E+00  2.33614784E-01 -3.14740595E-01 -7.66015556E-02 -2.04464696E-01
 -7.66015556E-02 -2.04464696E-01  1.39835392E-02  7.55899409E-02 -2.35106684E-02
 -3.61507847E-01  0.00000000E+00 -1.23776223E+00 -5.54989216E-01  3.38421401E-01
  0.00000000E+00 -1.38802561E+01 -2.42121127E-01 -5.31461010E+00  0.00000000E+00
  1.43133125E-02 -6.87215799E-02  4.22505035E-02  4.11321998E-02  0.00000000E+00
  0.00000000E+00  1.44493122E-01 -7.96382083E-03  1.44493122E-01 -7.96382083E-03
 -1.39835392E-02 -7.55899409E-02 -2.35106684E-02 -3.61507847E-01  0.00000000E+00
  1.23776223E+00 -5.54989216E-01  3.38421401E-01  0.00000000E+00  1.38802561E+01
 -2.42121127E-01 -5.31461010E+00  0.00000000E+00 -1.43133125E-02  6.87215799E-02
 -4.22505035E-02 -4.11321998E-02  0.00000000E+00  0.00000000E+00 -1.44493122E-01
  7.96382083E-03 -1.44493122E-01  7.96382083E-03  2.99623760E-02  2.07460385E-02
 -3.78552505E-01  3.05768972E-01  0.00000000E+00 -5.27421361E-01  7.02215590E-01
 -8.23684936E-01  0.00000000E+00 -1.46815401E+01  1.84369933E-01 -3.39969871E+00
  0.00000000E+00 -6.08230503E-02  5.63276393E-02  1.86138849E-02  4.11707166E-02
  0.00000000E+00  0.00000000E+00  7.66015556E-02  2.04464696E-01 -2.33614784E-01
  3.14740595E-01  7.66015556E-02  2.04464696E-01  0.00000000E+00  0.00000000E+00
  0.00000000E+00  0.00000000E+00 -3.94782354E-01  0.00000000E+00  0.00000000E+00
  0.00000000E+00  5.90052686E-01  0.00000000E+00  0.00000000E+00  0.00000000E+00
 -7.84071610E-02  0.00000000E+00  0.00000000E+00  0.00000000E+00  0.00000000E+00
 -3.65646107E-02 -3.79520165E-02  0.00000000E+00  0.00000000E+00  1.98738138E-01
 -6.84629478E-02 -1.98738138E-01  6.84629478E-02  0.00000000E+00  0.00000000E+00
  0.00000000E+00  0.00000000E+00 -4.20046784E-01  0.00000000E+00  0.00000000E+00
  0.00000000E+00  4.50496666E-01  0.00000000E+00  0.00000000E+00  0.00000000E+00
 -2.98134041E-01  0.00000000E+00  0.00000000E+00  0.00000000E+00  0.00000000E+00
  5.44177505E-02  3.01300751E-02  2.40310857E-01 -2.07066393E-01 -2.40310857E-01
  2.07066393E-01  0.00000000E+00  0.00000000E+00  0.00000000E+00  0.00000000E+00
 -4.20046784E-01  0.00000000E+00  0.00000000E+00  0.00000000E+00  4.50496666E-01
  0.00000000E+00  0.00000000E+00  0.00000000E+00 -2.98134041E-01  0.00000000E+00
  0.00000000E+00  0.00000000E+00  0.00000000E+00 -5.44177505E-02 -3.01300751E-02
  2.40310857E-01 -2.07066393E-01 -2.40310857E-01  2.07066393E-01  0.00000000E+00
  0.00000000E+00  0.00000000E+00  0.00000000E+00 -3.94782354E-01  0.00000000E+00
  0.00000000E+00  0.00000000E+00  5.90052686E-01  0.00000000E+00  0.00000000E+00
  0.00000000E+00 -7.84071610E-02  0.00000000E+00  0.00000000E+00  0.00000000E+00
  0.00000000E+00  3.65646107E-02  3.79520165E-02  1.98738138E-01 -6.84629478E-02
  0.00000000E+00  0.00000000E+00 -1.98738138E-01  6.84629478E-02 -5.02611417E-03
 -4.40766830E-02  9.66526447E-02  1.92280721E-01  0.00000000E+00  1.57496037E-01
  1.67099711E-01 -2.68862471E-01  0.00000000E+00  2.08008264E+00 -4.77508966E-01
 -3.68952837E-01  0.00000000E+00 -6.50363702E-03 -1.51378736E-02  1.02147206E-02
  3.97308874E-02  0.00000000E+00  0.00000000E+00 -1.40147221E-01  2.38186433E-01
  7.41522376E-02 -2.40887189E-01  7.41522376E-02 -2.40887189E-01  1.06006685E-02
  3.86601349E-02  6.05594095E-01 -3.22577924E-02  0.00000000E+00  1.95913225E-01
 -1.14812197E+00 -5.46877282E-02  0.00000000E+00 -2.05242858E+00  1.14783605E+00
 -1.52540008E+00  0.00000000E+00  1.00092241E-01 -2.16645901E-02 -5.29138011E-02
 -5.92033145E-02  0.00000000E+00  0.00000000E+00 -1.39226652E-01 -1.08885299E-01
 -1.39226652E-01 -1.08885299E-01  1.06006685E-02  3.86601349E-02 -6.05594095E-01
  3.22577924E-02  0.00000000E+00  1.95913225E-01  1.14812197E+00  5.46877282E-02
  0.00000000E+00 -2.05242858E+00 -1.14783605E+00  1.52540008E+00  0.00000000E+00
  1.00092241E-01 -2.16645901E-02 -5.29138011E-02 -5.92033145E-02  0.00000000E+00
  0.00000000E+00 -1.39226652E-01 -1.08885299E-01 -1.39226652E-01 -1.08885299E-01
 -5.02611417E-03 -4.40766830E-02 -9.66526447E-02 -1.92280721E-01  0.00000000E+00
  1.57496037E-01 -1.67099711E-01  2.68862471E-01  0.00000000E+00  2.08008264E+00
  4.77508966E-01  3.68952837E-01  0.00000000E+00 -6.50363702E-03 -1.51378736E-02
  1.02147206E-02  3.97308874E-02  0.00000000E+00  0.00000000E+00  7.41522376E-02
 -2.40887189E-01 -1.40147221E-01  2.38186433E-01  7.41522376E-02 -2.40887189E-01
  0.00000000E+00  0.00000000E+00  0.00000000E+00  0.00000000E+00 -5.75617919E-01
  0.00000000E+00  0.00000000E+00  0.00000000E+00  9.78216420E-01  0.00000000E+00
  0.00000000E+00  0.00000000E+00 -3.35250808E-01  0.00000000E+00  0.00000000E+00
  0.00000000E+00  0.00000000E+00 -5.72786233E-02 -3.23419901E-02  0.00000000E+00
  0.00000000E+00  2.23641033E-01 -3.02613805E-02 -2.23641033E-01  3.02613805E-02
  0.00000000E+00  0.00000000E+00  0.00000000E+00  0.00000000E+00 -3.05603644E-01
  0.00000000E+00  0.00000000E+00  0.00000000E+00  2.42913893E-01  0.00000000E+00
  0.00000000E+00  0.00000000E+00 -4.99016407E-01  0.00000000E+00  0.00000000E+00
  0.00000000E+00  0.00000000E+00  1.25620093E-02  3.91499856E-02  9.57885130E-02
 -1.84101185E-01 -9.57885130E-02  1.84101185E-01  0.00000000E+00  0.00000000E+00
  0.00000000E+00  0.00000000E+00  3.05603644E-01  0.00000000E+00  0.00000000E+00
  0.00000000E+00 -2.42913893E-01  0.00000000E+00  0.00000000E+00  0.00000000E+00
  4.99016407E-01  0.00000000E+00  0.00000000E+00  0.00000000E+00  0.00000000E+00
  1.25620093E-02  3.91499856E-02 -9.57885130E-02  1.84101185E-01  9.57885130E-02
 -1.84101185E-01  0.00000000E+00  0.00000000E+00  0.00000000E+00  0.00000000E+00
  5.75617919E-01  0.00000000E+00  0.00000000E+00  0.00000000E+00 -9.78216420E-01
  0.00000000E+00  0.00000000E+00  0.00000000E+00  3.35250808E-01  0.00000000E+00
  0.00000000E+00  0.00000000E+00  0.00000000E+00 -5.72786233E-02 -3.23419901E-02
 -2.23641033E-01  3.02613805E-02  0.00000000E+00  0.00000000E+00  2.23641033E-01
 -3.02613805E-02 -4.02655333E-03  6.93167878E-02 -3.59840565E-01 -6.03510485E-01
  0.00000000E+00 -3.84284456E-01  7.60387251E-01  1.44823309E+00  0.00000000E+00
 -8.88744775E+00 -8.70704241E-01  1.89121184E+00  0.00000000E+00  3.07817321E-02
  3.28669877E-03 -3.94395046E-02 -1.29583992E-02  0.00000000E+00  0.00000000E+00
  3.15194606E-02 -5.87358302E-02 -1.55609667E-01 -1.67639564E-01 -1.55609667E-01
 -1.67639564E-01  1.61474167E-02 -1.72950449E-02  1.20484541E-01 -2.04609037E-01
  0.00000000E+00  2.66411832E-01 -6.67025801E-01  6.34023342E-01  0.00000000E+00
  1.50413242E+01  2.48812728E+00  2.58314617E+00  0.00000000E+00 -3.92077424E-02
  9.95816695E-02 -3.00571811E-02 -2.03244044E-04  0.00000000E+00  0.00000000E+00
 -2.94460552E-02 -1.24014344E-01 -2.94460552E-02 -1.24014344E-01 -1.61474167E-02
  1.72950449E-02  1.20484541E-01 -2.04609037E-01  0.00000000E+00 -2.66411832E-01
 -6.67025801E-01  6.34023342E-01  0.00000000E+00 -1.50413242E+01  2.48812728E+00
  2.58314617E+00  0.00000000E+00  3.92077424E-02 -9.95816695E-02  3.00571811E-02
  2.03244044E-04  0.00000000E+00  0.00000000E+00  2.94460552E-02  1.24014344E-01
  2.94460552E-02  1.24014344E-01  4.02655333E-03 -6.93167878E-02 -3.59840565E-01
 -6.03510485E-01  0.00000000E+00  3.84284456E-01  7.60387251E-01  1.44823309E+00
  0.00000000E+00  8.88744775E+00 -8.70704241E-01  1.89121184E+00  0.00000000E+00
 -3.07817321E-02 -3.28669877E-03  3.94395046E-02  1.29583992E-02  0.00000000E+00
  0.00000000E+00  1.55609667E-01  1.67639564E-01 -3.15194606E-02  5.87358302E-02
  1.55609667E-01  1.67639564E-01 -2.14075709E-02  1.35019086E-01  4.93099094E-02
 -7.25587769E-01  0.00000000E+00 -3.86358784E-01  1.13534607E-02  1.37408390E+00
  0.00000000E+00  4.42497289E-01 -1.63065812E-01 -4.03030721E-01  0.00000000E+00
 -1.14317310E-02 -2.35066267E-02  1.74023807E-02  1.65536759E-02  0.00000000E+00
  0.00000000E+00 -1.44294085E-01  6.33915265E-03 -3.59831833E-02 -1.97910547E-01
 -3.59831833E-02 -1.97910547E-01  2.40345629E-02 -8.20067483E-02  1.32256917E-01
 -3.57398981E-01  0.00000000E+00  7.95947844E-01 -2.14850775E-01  6.93004329E-01
  0.00000000E+00 -4.57245318E-01  3.71496869E-01 -4.99159383E-01  0.00000000E+00
  4.35479092E-03  8.36988563E-02 -5.11966111E-02  7.00830517E-03  0.00000000E+00
  0.00000000E+00 -3.52122684E-04 -6.23638596E-02 -3.52122684E-04 -6.23638596E-02
  2.40345629E-02 -8.20067483E-02 -1.32256917E-01  3.57398981E-01  0.00000000E+00
  7.95947844E-01  2.14850775E-01 -6.93004329E-01  0.00000000E+00 -4.57245318E-01
 -3.71496869E-01  4.99159383E-01  0.00000000E+00  4.35479092E-03  8.36988563E-02
 -5.11966111E-02  7.00830517E-03  0.00000000E+00  0.00000000E+00 -3.52122684E-04
 -6.23638596E-02 -3.52122684E-04 -6.23638596E-02 -2.14075709E-02  1.35019086E-01
 -4.93099094E-02  7.25587769E-01  0.00000000E+00 -3.86358784E-01 -1.13534607E-02
 -1.37408390E+00  0.00000000E+00  4.42497289E-01  1.63065812E-01  4.03030721E-01
  0.00000000E+00 -1.14317310E-02 -2.35066267E-02  1.74023807E-02  1.65536759E-02
  0.00000000E+00  0.00000000E+00 -3.59831833E-02 -1.97910547E-01 -1.44294085E-01
  6.33915265E-03 -3.59831833E-02 -1.97910547E-01  0.00000000E+00  0.00000000E+00
  0.00000000E+00  0.00000000E+00 -5.88029199E-01  0.00000000E+00  0.00000000E+00
  0.00000000E+00  1.25663595E+00  0.00000000E+00  0.00000000E+00  0.00000000E+00
 -6.88792558E-01  0.00000000E+00  0.00000000E+00  0.00000000E+00  0.00000000E+00
 -4.87810157E-02  9.73343876E-03  0.00000000E+00  0.00000000E+00  6.74055168E-02
  2.44340612E-01 -6.74055168E-02 -2.44340612E-01  0.00000000E+00  0.00000000E+00
  0.00000000E+00  0.00000000E+00  4.82368945E-01  0.00000000E+00  0.00000000E+00
  0.00000000E+00 -9.28940086E-01  0.00000000E+00  0.00000000E+00  0.00000000E+00
  5.97264854E-01  0.00000000E+00  0.00000000E+00  0.00000000E+00  0.00000000E+00
 -5.04431700E-02 -9.97919708E-03 -1.15698247E-01 -5.75854537E-02  1.15698247E-01
  5.75854537E-02  0.00000000E+00  0.00000000E+00  0.00000000E+00  0.00000000E+00
  4.82368945E-01  0.00000000E+00  0.00000000E+00  0.00000000E+00 -9.28940086E-01
  0.00000000E+00  0.00000000E+00  0.00000000E+00  5.97264854E-01  0.00000000E+00
  0.00000000E+00  0.00000000E+00  0.00000000E+00  5.04431700E-02  9.97919708E-03
 -1.15698247E-01 -5.75854537E-02  1.15698247E-01  5.75854537E-02  0.00000000E+00
  0.00000000E+00  0.00000000E+00  0.00000000E+00 -5.88029199E-01  0.00000000E+00
  0.00000000E+00  0.00000000E+00  1.25663595E+00  0.00000000E+00  0.00000000E+00
  0.00000000E+00 -6.88792558E-01  0.00000000E+00  0.00000000E+00  0.00000000E+00
  0.00000000E+00  4.87810157E-02 -9.73343876E-03  6.74055168E-02  2.44340612E-01
  0.00000000E+00  0.00000000E+00 -6.74055168E-02 -2.44340612E-01 -1.24981563E-03
 -2.05974787E-02 -6.12704372E-02  1.80725592E-01  0.00000000E+00  2.83765500E-01
  4.22535909E-01 -4.05956931E-01  0.00000000E+00  7.07232318E+00 -1.88211605E-02
 -1.74678589E+00  0.00000000E+00 -2.65214059E-04  2.29381639E-02 -8.04850397E-03
  5.36541689E-04  0.00000000E+00  0.00000000E+00 -6.90922733E-02  5.24469064E-02
  1.86743101E-02 -1.17037751E-01  1.86743101E-02 -1.17037751E-01 -2.14926005E-02
  2.41006733E-01  7.98975968E-01  8.89174164E-03  0.00000000E+00 -1.59207525E+00
 -2.18158028E+00  1.20185802E-01  0.00000000E+00 -5.16645678E+00  6.74935875E-01
 -2.67026736E+00  0.00000000E+00 -4.62506826E-02 -5.34947833E-03  1.26532850E-02
  6.40246793E-02  0.00000000E+00  0.00000000E+00 -1.07441394E-01 -2.65528968E-01
 -1.07441394E-01 -2.65528968E-01  2.14926005E-02 -2.41006733E-01  7.98975968E-01
  8.89174164E-03  0.00000000E+00  1.59207525E+00 -2.18158028E+00  1.20185802E-01
  0.00000000E+00  5.16645678E+00  6.74935875E-01 -2.67026736E+00  0.00000000E+00
  4.62506826E-02  5.34947833E-03 -1.26532850E-02 -6.40246793E-02  0.00000000E+00
  0.00000000E+00  1.07441394E-01  2.65528968E-01  1.07441394E-01  2.65528968E-01
  1.24981563E-03  2.05974787E-02 -6.12704372E-02  1.80725592E-01  0.00000000E+00
 -2.83765500E-01  4.22535909E-01 -4.05956931E-01  0.00000000E+00 -7.07232318E+00
 -1.88211605E-02 -1.74678589E+00  0.00000000E+00  2.65214059E-04 -2.29381639E-02
  8.04850397E-03 -5.36541689E-04  0.00000000E+00  0.00000000E+00 -1.86743101E-02
  1.17037751E-01  6.90922733E-02 -5.24469064E-02 -1.86743101E-02  1.17037751E-01
  2.33419184E-02  1.96496067E-01 -3.85112534E-01  1.10844708E-01  0.00000000E+00
  1.33810341E-01  1.16555721E+00 -7.86459494E-01  0.00000000E+00 -5.21047101E+00
 -4.91902258E-01  1.23759784E+00  0.00000000E+00  2.99615285E-02  9.47282282E-02
 -4.40358086E-02  1.31165471E-02  0.00000000E+00  0.00000000E+00  2.45233654E-01
  6.09168035E-01  4.46732497E-02 -1.57610134E-01  4.46732497E-02 -1.57610134E-01
  4.00024265E-03  2.10881114E-01 -9.78146458E-02  6.26238571E-01  0.00000000E+00
 -5.12979874E-01 -4.94581224E-02 -1.48794563E+00  0.00000000E+00  1.53210962E+01
  3.16101516E+00  1.01783084E+00  0.00000000E+00  5.10629624E-02  7.47529615E-03
 -2.70359293E-02  1.05984934E-02  0.00000000E+00  0.00000000E+00 -4.54733653E-02
 -3.55045942E-01 -4.54733653E-02 -3.55045942E-01 -4.00024265E-03 -2.10881114E-01
 -9.78146458E-02  6.26238571E-01  0.00000000E+00  5.12979874E-01 -4.94581224E-02
 -1.48794563E+00  0.00000000E+00 -1.53210962E+01  3.16101516E+00  1.01783084E+00
  0.00000000E+00 -5.10629624E-02 -7.47529615E-03  2.70359293E-02 -1.05984934E-02
  0.00000000E+00  0.00000000E+00  4.54733653E-02  3.55045942E-01  4.54733653E-02
  3.55045942E-01 -2.33419184E-02 -1.96496067E-01 -3.85112534E-01  1.10844708E-01
  0.00000000E+00 -1.33810341E-01  1.16555721E+00 -7.86459494E-01  0.00000000E+00
  5.21047101E+00 -4.91902258E-01  1.23759784E+00  0.00000000E+00 -2.99615285E-02
 -9.47282282E-02  4.40358086E-02 -1.31165471E-02  0.00000000E+00  0.00000000E+00
 -4.46732497E-02  1.57610134E-01 -2.45233654E-01 -6.09168035E-01 -4.46732497E-02
  1.57610134E-01  0.00000000E+00  0.00000000E+00  0.00000000E+00  0.00000000E+00
  4.37437846E-01  0.00000000E+00  0.00000000E+00  0.00000000E+00 -1.55780774E+00
  0.00000000E+00  0.00000000E+00  0.00000000E+00 -1.18002254E-01  0.00000000E+00
  0.00000000E+00  0.00000000E+00  0.00000000E+00  2.30891064E-02 -7.15884633E-02
  0.00000000E+00  0.00000000E+00  5.73367699E-02 -7.23944813E-01 -5.73367699E-02
  7.23944813E-01  0.00000000E+00  0.00000000E+00  0.00000000E+00  0.00000000E+00
 -7.07965931E-01  0.00000000E+00  0.00000000E+00  0.00000000E+00  2.51926023E+00
  0.00000000E+00  0.00000000E+00  0.00000000E+00  4.72977078E-01  0.00000000E+00
  0.00000000E+00  0.00000000E+00  0.00000000E+00  1.30134425E-02  5.13093144E-02
  4.95697001E-02  9.61116251E-01 -4.95697001E-02 -9.61116251E-01  0.00000000E+00
  0.00000000E+00  0.00000000E+00  0.00000000E+00  7.07965931E-01  0.00000000E+00
  0.00000000E+00  0.00000000E+00 -2.51926023E+00  0.00000000E+00  0.00000000E+00
  0.00000000E+00 -4.72977078E-01  0.00000000E+00  0.00000000E+00  0.00000000E+00
  0.00000000E+00  1.30134425E-02  5.13093144E-02 -4.95697001E-02 -9.61116251E-01
  4.95697001E-02  9.61116251E-01  0.00000000E+00  0.00000000E+00  0.00000000E+00
  0.00000000E+00 -4.37437846E-01  0.00000000E+00  0.00000000E+00  0.00000000E+00
  1.55780774E+00  0.00000000E+00  0.00000000E+00  0.00000000E+00  1.18002254E-01
  0.00000000E+00  0.00000000E+00  0.00000000E+00  0.00000000E+00  2.30891064E-02
 -7.15884633E-02 -5.73367699E-02  7.23944813E-01  0.00000000E+00  0.00000000E+00
  5.73367699E-02 -7.23944813E-01 -1.06147699E-03  1.46239732E-01 -6.46200955E-01
  1.08050215E-01  0.00000000E+00 -1.51938615E+00  1.79905284E+00  4.66282553E-01
  0.00000000E+00  1.95136075E+00 -1.02510415E-02 -5.81342174E-01  0.00000000E+00
  6.35886855E-02 -8.05625728E-02 -2.48261356E-04  7.83792752E-02  0.00000000E+00
  0.00000000E+00  3.77220019E-02  1.05414194E+00  2.10273237E-02 -5.01272526E-01
  2.10273237E-02 -5.01272526E-01 -7.28156768E-03 -1.81092287E-01 -9.74959874E-03
 -4.43855802E-01  0.00000000E+00  9.34908787E-01 -8.92336860E-02  2.02039054E+00
  0.00000000E+00 -1.98934101E+00  3.64204071E-02 -5.83490302E-01  0.00000000E+00
  4.05973751E-03 -3.68641857E-02  1.82427611E-02 -7.35976477E-02  0.00000000E+00
  0.00000000E+00 -7.21395027E-03  3.03406190E-01 -7.21395027E-03  3.03406190E-01
 -7.28156768E-03 -1.81092287E-01  9.74959874E-03  4.43855802E-01  0.00000000E+00
  9.34908787E-01  8.92336860E-02 -2.02039054E+00  0.00000000E+00 -1.98934101E+00
 -3.64204071E-02  5.83490302E-01  0.00000000E+00  4.05973751E-03 -3.68641857E-02
  1.82427611E-02 -7.35976477E-02  0.00000000E+00  0.00000000E+00 -7.21395027E-03
  3.03406190E-01 -7.21395027E-03  3.03406190E-01 -1.06147699E-03  1.46239732E-01
  6.46200955E-01 -1.08050215E-01  0.00000000E+00 -1.51938615E+00 -1.79905284E+00
 -4.66282553E-01  0.00000000E+00  1.95136075E+00  1.02510415E-02  5.81342174E-01
  0.00000000E+00  6.35886855E-02 -8.05625728E-02 -2.48261356E-04  7.83792752E-02
  0.00000000E+00  0.00000000E+00  2.10273237E-02 -5.01272526E-01  3.77220019E-02
  1.05414194E+00  2.10273237E-02 -5.01272526E-01  0.00000000E+00  0.00000000E+00
  0.00000000E+00  0.00000000E+00 -3.78131809E-01  0.00000000E+00  0.00000000E+00
  0.00000000E+00  5.21765382E-01  0.00000000E+00  0.00000000E+00  0.00000000E+00
  1.43531588E-01  0.00000000E+00  0.00000000E+00  0.00000000E+00  0.00000000E+00
  1.00650436E-01  1.12389668E-01  0.00000000E+00  0.00000000E+00 -3.68421596E-01
  8.51492621E-01  3.68421596E-01 -8.51492621E-01  0.00000000E+00  0.00000000E+00
  0.00000000E+00  0.00000000E+00 -4.53436305E-01  0.00000000E+00  0.00000000E+00
  0.00000000E+00  8.49367832E-01  0.00000000E+00  0.00000000E+00  0.00000000E+00
  1.55009919E-01  0.00000000E+00  0.00000000E+00  0.00000000E+00  0.00000000E+00
 -8.94637266E-02 -9.62151259E-02 -2.96741867E-01  1.03203701E+00  2.96741867E-01
 -1.03203701E+00  0.00000000E+00  0.00000000E+00  0.00000000E+00  0.00000000E+00
 -4.53436305E-01  0.00000000E+00  0.00000000E+00  0.00000000E+00  8.49367832E-01
  0.00000000E+00  0.00000000E+00  0.00000000E+00  1.55009919E-01  0.00000000E+00
  0.00000000E+00  0.00000000E+00  0.00000000E+00  8.94637266E-02  9.62151259E-02
 -2.96741867E-01  1.03203701E+00  2.96741867E-01 -1.03203701E+00  0.00000000E+00
  0.00000000E+00  0.00000000E+00  0.00000000E+00 -3.78131809E-01  0.00000000E+00
  0.00000000E+00  0.00000000E+00  5.21765382E-01  0.00000000E+00  0.00000000E+00
  0.00000000E+00  1.43531588E-01  0.00000000E+00  0.00000000E+00  0.00000000E+00
  0.00000000E+00 -1.00650436E-01 -1.12389668E-01 -3.68421596E-01  8.51492621E-01
  0.00000000E+00  0.00000000E+00  3.68421596E-01 -8.51492621E-01 -4.66822337E-02
 -6.07858496E-01 -2.83879602E-02  1.22273250E-01  0.00000000E+00  1.52319285E+00
 -2.28603597E-01  6.82093913E-02  0.00000000E+00  8.49960247E-01  2.08493035E-01
 -2.31438491E-01  0.00000000E+00 -1.20417504E-01 -2.45247919E-02  1.89403861E-02
  4.46059833E-02  0.00000000E+00  0.00000000E+00 -5.54210554E-01  1.29311187E-01
 -1.33145203E-01 -2.85542643E-01 -1.33145203E-01 -2.85542643E-01 -3.40664774E-02
 -5.27156772E-01 -2.81580611E-01 -7.74555691E-02  0.00000000E+00  4.55425912E-01
  3.20885259E-01 -1.75860959E-01  0.00000000E+00 -1.19632443E+00 -2.67048449E-01
 -4.30460028E-01  0.00000000E+00 -6.02190622E-02 -2.13338304E-02 -4.22964738E-02
 -1.92337172E-02  0.00000000E+00  0.00000000E+00 -3.15943272E-01  2.20384245E-01
 -3.15943272E-01  2.20384245E-01 -3.40664774E-02 -5.27156772E-01  2.81580611E-01
  7.74555691E-02  0.00000000E+00  4.55425912E-01 -3.20885259E-01  1.75860959E-01
  0.00000000E+00 -1.19632443E+00  2.67048449E-01  4.30460028E-01  0.00000000E+00
 -6.02190622E-02 -2.13338304E-02 -4.22964738E-02 -1.92337172E-02  0.00000000E+00
  0.00000000E+00 -3.15943272E-01  2.20384245E-01 -3.15943272E-01  2.20384245E-01
 -4.66822337E-02 -6.07858496E-01  2.83879602E-02 -1.22273250E-01  0.00000000E+00
  1.52319285E+00  2.28603597E-01 -6.82093913E-02  0.00000000E+00  8.49960247E-01
 -2.08493035E-01  2.31438491E-01  0.00000000E+00 -1.20417504E-01 -2.45247919E-02
  1.89403861E-02  4.46059833E-02  0.00000000E+00  0.00000000E+00 -1.33145203E-01
 -2.85542643E-01 -5.54210554E-01  1.29311187E-01 -1.33145203E-01 -2.85542643E-01
  0.00000000E+00  0.00000000E+00  0.00000000E+00  0.00000000E+00 -3.58614997E-01
  0.00000000E+00  0.00000000E+00  0.00000000E+00  5.42925548E-01  0.00000000E+00
  0.00000000E+00  0.00000000E+00  1.72747923E-01  0.00000000E+00  0.00000000E+00
  0.00000000E+00  0.00000000E+00  1.16359315E-01  1.16445729E-01  0.00000000E+00
  0.00000000E+00 -3.94051363E-01  9.72696044E-01  3.94051363E-01 -9.72696044E-01
  0.00000000E+00  0.00000000E+00  0.00000000E+00  0.00000000E+00 -3.87191118E-01
  0.00000000E+00  0.00000000E+00  0.00000000E+00  9.67068246E-01  0.00000000E+00
  0.00000000E+00  0.00000000E+00  3.75008511E-01  0.00000000E+00  0.00000000E+00
  0.00000000E+00  0.00000000E+00 -7.15808254E-02 -1.22404230E-01 -3.20403730E-01
  1.01963164E+00  3.20403730E-01 -1.01963164E+00  0.00000000E+00  0.00000000E+00
  0.00000000E+00  0.00000000E+00  3.87191118E-01  0.00000000E+00  0.00000000E+00
  0.00000000E+00 -9.67068246E-01  0.00000000E+00  0.00000000E+00  0.00000000E+00
 -3.75008511E-01  0.00000000E+00  0.00000000E+00  0.00000000E+00  0.00000000E+00
 -7.15808254E-02 -1.22404230E-01  3.20403730E-01 -1.01963164E+00 -3.20403730E-01
  1.01963164E+00  0.00000000E+00  0.00000000E+00  0.00000000E+00  0.00000000E+00
  3.58614997E-01  0.00000000E+00  0.00000000E+00  0.00000000E+00 -5.42925548E-01
  0.00000000E+00  0.00000000E+00  0.00000000E+00 -1.72747923E-01  0.00000000E+00
  0.00000000E+00  0.00000000E+00  0.00000000E+00  1.16359315E-01  1.16445729E-01
  3.94051363E-01 -9.72696044E-01  0.00000000E+00  0.00000000E+00 -3.94051363E-01
  9.72696044E-01  0.00000000E+00  0.00000000E+00  0.00000000E+00  0.00000000E+00
  2.23420869E-01  0.00000000E+00  0.00000000E+00  0.00000000E+00 -2.88328307E-01
  0.00000000E+00  0.00000000E+00  0.00000000E+00 -5.40964163E-01  0.00000000E+00
  0.00000000E+00  0.00000000E+00  0.00000000E+00 -1.34585776E-01 -6.25899246E-02
  0.00000000E+00  0.00000000E+00  3.88149506E-01 -6.73469724E-01 -3.88149506E-01
  6.73469724E-01  0.00000000E+00  0.00000000E+00  0.00000000E+00  0.00000000E+00
 -3.03168794E-01  0.00000000E+00  0.00000000E+00  0.00000000E+00  5.53598205E-01
  0.00000000E+00  0.00000000E+00  0.00000000E+00  5.49025687E-01  0.00000000E+00
  0.00000000E+00  0.00000000E+00  0.00000000E+00 -1.97921329E-01 -3.42196206E-03
 -3.99123230E-01  1.00862479E+00  3.99123230E-01 -1.00862479E+00  0.00000000E+00
  0.00000000E+00  0.00000000E+00  0.00000000E+00 -3.03168794E-01  0.00000000E+00
  0.00000000E+00  0.00000000E+00  5.53598205E-01  0.00000000E+00  0.00000000E+00
  0.00000000E+00  5.49025687E-01  0.00000000E+00  0.00000000E+00  0.00000000E+00
  0.00000000E+00  1.97921329E-01  3.42196206E-03 -3.99123230E-01  1.00862479E+00
  3.99123230E-01 -1.00862479E+00  0.00000000E+00  0.00000000E+00  0.00000000E+00
  0.00000000E+00  2.23420869E-01  0.00000000E+00  0.00000000E+00  0.00000000E+00
 -2.88328307E-01  0.00000000E+00  0.00000000E+00  0.00000000E+00 -5.40964163E-01
  0.00000000E+00  0.00000000E+00  0.00000000E+00  0.00000000E+00  1.34585776E-01
  6.25899246E-02  3.88149506E-01 -6.73469724E-01  0.00000000E+00  0.00000000E+00
 -3.88149506E-01  6.73469724E-01 -9.95040121E-03 -5.50074367E-02 -4.97404364E-01
  8.12592878E-02  0.00000000E+00  2.68711763E-01  8.48458454E-01 -2.17787847E-01
  0.00000000E+00  4.75467830E+00  7.66170554E-01 -1.24551467E+00  0.00000000E+00
 -1.36126305E-01  3.00249597E-03  1.24576905E-01  1.24003873E-01  0.00000000E+00
  0.00000000E+00 -6.40784136E-01  1.43774970E+00  2.32916409E-01 -8.07787065E-01
  2.32916409E-01 -8.07787065E-01 -1.26558753E-02  2.24597700E-01 -1.04750297E-01
 -1.13433721E-01  0.00000000E+00 -4.74547096E-01  4.95422943E-01 -8.81704645E-02
  0.00000000E+00 -2.31445434E+00  2.00036517E-01 -1.88195402E+00  0.00000000E+00
 -2.49159228E-02  6.32291721E-03  3.04609062E-02 -8.35089071E-02  0.00000000E+00
  0.00000000E+00 -7.63175616E-02  3.65078088E-01 -7.63175616E-02  3.65078088E-01
  1.26558753E-02 -2.24597700E-01 -1.04750297E-01 -1.13433721E-01  0.00000000E+00
  4.74547096E-01  4.95422943E-01 -8.81704645E-02  0.00000000E+00  2.31445434E+00
  2.00036517E-01 -1.88195402E+00  0.00000000E+00  2.49159228E-02 -6.32291721E-03
 -3.04609062E-02  8.35089071E-02  0.00000000E+00  0.00000000E+00  7.63175616E-02
 -3.65078088E-01  7.63175616E-02 -3.65078088E-01  9.95040121E-03  5.50074367E-02
 -4.97404364E-01  8.12592878E-02  0.00000000E+00 -2.68711763E-01  8.48458454E-01
 -2.17787847E-01  0.00000000E+00 -4.75467830E+00  7.66170554E-01 -1.24551467E+00
  0.00000000E+00  1.36126305E-01 -3.00249597E-03 -1.24576905E-01 -1.24003873E-01
  0.00000000E+00  0.00000000E+00 -2.32916409E-01  8.07787065E-01  6.40784136E-01
 -1.43774970E+00 -2.32916409E-01  8.07787065E-01  2.26215078E-02  3.62492029E-01
 -3.20660417E-01 -4.50218559E-02  0.00000000E+00 -2.72533357E-01  3.75765873E-01
 -3.79915730E-01  0.00000000E+00 -3.00374721E+00  1.02337332E+00  6.39202839E-01
  0.00000000E+00 -1.35967149E-01  7.49086159E-02  1.43928402E-01  9.31322771E-02
  0.00000000E+00  0.00000000E+00 -4.72288922E-01  1.24851764E+00  3.68559989E-01
 -4.55725473E-01  3.68559989E-01 -4.55725473E-01  2.67556763E-02  5.21366169E-01
 -6.66024030E-02  2.36652301E-01  0.00000000E+00 -1.42295359E+00  2.94909990E-01
 -7.33859223E-01  0.00000000E+00  3.07629383E+00 -4.52365550E-01  2.67961339E+00
  0.00000000E+00 -2.23142359E-03  7.26762205E-02  2.01988144E-02 -2.48608503E-02
  0.00000000E+00  0.00000000E+00  7.12481569E-02  2.29601131E-01  7.12481569E-02
  2.29601131E-01  2.67556763E-02  5.21366169E-01  6.66024030E-02 -2.36652301E-01
  0.00000000E+00 -1.42295359E+00 -2.94909990E-01  7.33859223E-01  0.00000000E+00
  3.07629383E+00  4.52365550E-01 -2.67961339E+00  0.00000000E+00 -2.23142359E-03
  7.26762205E-02  2.01988144E-02 -2.48608503E-02  0.00000000E+00  0.00000000E+00
  7.12481569E-02  2.29601131E-01  7.12481569E-02  2.29601131E-01  2.26215078E-02
  3.62492029E-01  3.20660417E-01  4.50218559E-02  0.00000000E+00 -2.72533357E-01
 -3.75765873E-01  3.79915730E-01  0.00000000E+00 -3.00374721E+00 -1.02337332E+00
 -6.39202839E-01  0.00000000E+00 -1.35967149E-01  7.49086159E-02  1.43928402E-01
  9.31322771E-02  0.00000000E+00  0.00000000E+00  3.68559989E-01 -4.55725473E-01
 -4.72288922E-01  1.24851764E+00  3.68559989E-01 -4.55725473E-01  0.00000000E+00
  0.00000000E+00  0.00000000E+00  0.00000000E+00  2.00403937E-01  0.00000000E+00
  0.00000000E+00  0.00000000E+00  1.37380010E-01  0.00000000E+00  0.00000000E+00
  0.00000000E+00 -4.70668656E-01  0.00000000E+00  0.00000000E+00  0.00000000E+00
  0.00000000E+00 -1.77084621E-01  4.24119776E-02  0.00000000E+00  0.00000000E+00
  3.83361140E-01 -4.73015375E-01 -3.83361140E-01  4.73015375E-01  0.00000000E+00
  0.00000000E+00  0.00000000E+00  0.00000000E+00 -8.97775968E-02  0.00000000E+00
  0.00000000E+00  0.00000000E+00 -5.21091342E-01  0.00000000E+00  0.00000000E+00
  0.00000000E+00  8.98552482E-01  0.00000000E+00  0.00000000E+00  0.00000000E+00
  0.00000000E+00 -1.23766312E-01 -1.48794148E-01 -4.74193964E-01  4.77001036E-01
  4.74193964E-01 -4.77001036E-01  0.00000000E+00  0.00000000E+00  0.00000000E+00
  0.00000000E+00  8.97775968E-02  0.00000000E+00  0.00000000E+00  0.00000000E+00
  5.21091342E-01  0.00000000E+00  0.00000000E+00  0.00000000E+00 -8.98552482E-01
  0.00000000E+00  0.00000000E+00  0.00000000E+00  0.00000000E+00 -1.23766312E-01
 -1.48794148E-01  4.74193964E-01 -4.77001036E-01 -4.74193964E-01  4.77001036E-01
  0.00000000E+00  0.00000000E+00  0.00000000E+00  0.00000000E+00 -2.00403937E-01
  0.00000000E+00  0.00000000E+00  0.00000000E+00 -1.37380010E-01  0.00000000E+00
  0.00000000E+00  0.00000000E+00  4.70668656E-01  0.00000000E+00  0.00000000E+00
  0.00000000E+00  0.00000000E+00 -1.77084621E-01  4.24119776E-02 -3.83361140E-01
  4.73015375E-01  0.00000000E+00  0.00000000E+00  3.83361140E-01 -4.73015375E-01
 -9.40410646E-03  1.07951953E-01 -1.22398739E-01 -1.17175555E-01  0.00000000E+00
 -3.14867633E-01  3.25451866E-01  3.96807848E-01  0.00000000E+00 -7.30727836E+00
  8.58589937E-03  1.82804683E+00  0.00000000E+00 -5.22942163E-02 -3.88372371E-02
  7.87380382E-02 -3.88389636E-03  0.00000000E+00  0.00000000E+00 -1.65637651E-01
  3.79149992E-01  8.61392619E-02 -3.70536401E-01  8.61392619E-02 -3.70536401E-01
  7.74793776E-03 -9.40642565E-01  2.07586556E-01  2.40094105E-01  0.00000000E+00
  3.27104617E+00 -1.12375471E-01 -6.44835135E-01  0.00000000E+00  1.92029798E+01
  3.01201654E+00  1.29695801E+00  0.00000000E+00  8.17678154E-03 -1.19416340E-01
  5.36270799E-02  8.60528643E-02  0.00000000E+00  0.00000000E+00  4.86108075E-01
 -1.81990048E+00  4.86108075E-01 -1.81990048E+00 -7.74793776E-03  9.40642565E-01
  2.07586556E-01  2.40094105E-01  0.00000000E+00 -3.27104617E+00 -1.12375471E-01
 -6.44835135E-01  0.00000000E+00 -1.92029798E+01  3.01201654E+00  1.29695801E+00
  0.00000000E+00 -8.17678154E-03  1.19416340E-01 -5.36270799E-02 -8.60528643E-02
  0.00000000E+00  0.00000000E+00 -4.86108075E-01  1.81990048E+00 -4.86108075E-01
  1.81990048E+00  9.40410646E-03 -1.07951953E-01 -1.22398739E-01 -1.17175555E-01
  0.00000000E+00  3.14867633E-01  3.25451866E-01  3.96807848E-01  0.00000000E+00
  7.30727836E+00  8.58589937E-03  1.82804683E+00  0.00000000E+00  5.22942163E-02
  3.88372371E-02 -7.87380382E-02  3.88389636E-03  0.00000000E+00  0.00000000E+00
 -8.61392619E-02  3.70536401E-01  1.65637651E-01 -3.79149992E-01 -8.61392619E-02
  3.70536401E-01 -4.84258357E-03 -5.79048604E-01 -8.12738735E-02 -9.95482292E-02
  0.00000000E+00  1.26080567E+00  6.69982098E-02  5.04386627E-01  0.00000000E+00
 -6.11310983E-01 -7.83619132E-02  2.02659922E-01  0.00000000E+00 -2.67331414E-02
 -9.97816346E-02  6.43245704E-02 -9.93066132E-03  0.00000000E+00  0.00000000E+00
 -5.04824733E-02 -4.17722998E-01  2.00638849E-01 -8.29572364E-01  2.00638849E-01
 -8.29572364E-01 -8.67245882E-03 -8.41260088E-01  2.57094110E-01  1.61134133E-01
  0.00000000E+00  2.08228172E+00 -7.16564853E-01 -3.33408627E-01  0.00000000E+00
  1.60773522E+00  2.97737317E-01 -7.76191541E-02  0.00000000E+00 -1.09016753E-01
 -1.09560921E-01  1.31837399E-01  4.68088978E-02  0.00000000E+00  0.00000000E+00
  4.11744123E-01 -1.66404576E+00  4.11744123E-01 -1.66404576E+00 -8.67245882E-03
 -8.41260088E-01 -2.57094110E-01 -1.61134133E-01  0.00000000E+00  2.08228172E+00
  7.16564853E-01  3.33408627E-01  0.00000000E+00  1.60773522E+00 -2.97737317E-01
  7.76191541E-02  0.00000000E+00 -1.09016753E-01 -1.09560921E-01  1.31837399E-01
  4.68088978E-02  0.00000000E+00  0.00000000E+00  4.11744123E-01 -1.66404576E+00
  4.11744123E-01 -1.66404576E+00 -4.84258357E-03 -5.79048604E-01  8.12738735E-02
  9.95482292E-02  0.00000000E+00  1.26080567E+00 -6.69982098E-02 -5.04386627E-01
  0.00000000E+00 -6.11310983E-01  7.83619132E-02 -2.02659922E-01  0.00000000E+00
 -2.67331414E-02 -9.97816346E-02  6.43245704E-02 -9.93066132E-03  0.00000000E+00
  0.00000000E+00  2.00638849E-01 -8.29572364E-01 -5.04824733E-02 -4.17722998E-01
  2.00638849E-01 -8.29572364E-01  1.25440364E-02 -9.46442796E-01 -3.22793708E-02
 -2.75229695E-01  0.00000000E+00  2.92062090E+00  1.55858273E-01  3.60842689E-01
  0.00000000E+00  1.26398999E+01  4.58795674E-01 -3.21842377E+00  0.00000000E+00
  3.44866808E-02 -1.32762453E-01  3.49835881E-02  1.92028167E-02  0.00000000E+00
  0.00000000E+00  3.91443359E-01 -1.30905268E+00  4.74770898E-01 -1.60739345E+00
  4.74770898E-01 -1.60739345E+00  1.80878841E-03  2.48806054E-01  4.39807387E-02
  1.26910036E-02  0.00000000E+00 -1.05531319E+00 -3.51289510E-01 -1.23263974E-01
  0.00000000E+00 -1.13080146E+01 -2.80527746E-01 -3.86628974E+00  0.00000000E+00
  3.17298427E-02 -5.81912117E-02  3.39650081E-02  1.25596435E-02  0.00000000E+00
  0.00000000E+00  1.96274501E-02  3.72897232E-02  1.96274501E-02  3.72897232E-02
 -1.80878841E-03 -2.48806054E-01  4.39807387E-02  1.26910036E-02  0.00000000E+00
  1.05531319E+00 -3.51289510E-01 -1.23263974E-01  0.00000000E+00  1.13080146E+01
 -2.80527746E-01 -3.86628974E+00  0.00000000E+00 -3.17298427E-02  5.81912117E-02
 -3.39650081E-02 -1.25596435E-02  0.00000000E+00  0.00000000E+00 -1.96274501E-02
 -3.72897232E-02 -1.96274501E-02 -3.72897232E-02 -1.25440364E-02  9.46442796E-01
 -3.22793708E-02 -2.75229695E-01  0.00000000E+00 -2.92062090E+00  1.55858273E-01
  3.60842689E-01  0.00000000E+00 -1.26398999E+01  4.58795674E-01 -3.21842377E+00
  0.00000000E+00 -3.44866808E-02  1.32762453E-01 -3.49835881E-02 -1.92028167E-02
  0.00000000E+00  0.00000000E+00 -4.74770898E-01  1.60739345E+00 -3.91443359E-01
  1.30905268E+00 -4.74770898E-01  1.60739345E+00  4.77804345E-03 -1.02537967E+00
 -9.73242756E-03 -2.07429711E-01  0.00000000E+00  3.14598074E+00  6.20778501E-02
  1.96714676E-01  0.00000000E+00  6.92655469E+00  1.21210453E-01 -1.91802621E+00
  0.00000000E+00  1.91262638E-02 -1.07684396E-01  4.10168392E-03  2.20110586E-02
  0.00000000E+00  0.00000000E+00  3.82363370E-01 -1.29502336E+00  3.62418598E-01
 -1.39290522E+00  3.62418598E-01 -1.39290522E+00  3.32131215E-03  4.80071099E-01
 -1.46822441E-01 -3.40462003E-02  0.00000000E+00 -1.63444142E+00  4.18177317E-01
 -1.46382007E-01  0.00000000E+00 -6.61002362E+00 -2.24522546E-02 -1.32837447E+00
  0.00000000E+00  7.42579146E-02  1.88674039E-03 -3.70688184E-02 -5.06547489E-02
  0.00000000E+00  0.00000000E+00 -2.08722919E-01  9.31288948E-01 -2.08722919E-01
  9.31288948E-01  3.32131215E-03  4.80071099E-01  1.46822441E-01  3.40462003E-02
  0.00000000E+00 -1.63444142E+00 -4.18177317E-01  1.46382007E-01  0.00000000E+00
 -6.61002362E+00  2.24522546E-02  1.32837447E+00  0.00000000E+00  7.42579146E-02
  1.88674039E-03 -3.70688184E-02 -5.06547489E-02  0.00000000E+00  0.00000000E+00
 -2.08722919E-01  9.31288948E-01 -2.08722919E-01  9.31288948E-01  4.77804345E-03
 -1.02537967E+00  9.73242756E-03  2.07429711E-01  0.00000000E+00  3.14598074E+00
 -6.20778501E-02 -1.96714676E-01  0.00000000E+00  6.92655469E+00 -1.21210453E-01
  1.91802621E+00  0.00000000E+00  1.91262638E-02 -1.07684396E-01  4.10168392E-03
  2.20110586E-02  0.00000000E+00  0.00000000E+00  3.62418598E-01 -1.39290522E+00
  3.82363370E-01 -1.29502336E+00  3.62418598E-01 -1.39290522E+00 -9.16632321E-02
 -1.40804607E+00 -1.14218616E-01  1.92344609E-01  0.00000000E+00  4.07476698E+00
  4.69530228E-01 -7.47960383E-01  0.00000000E+00  3.38382937E-02  9.67718340E-02
  7.40715237E-02  0.00000000E+00 -2.19940070E-02 -6.51738033E-02 -6.69650751E-02
  2.97523451E-02  0.00000000E+00  0.00000000E+00 -1.91059149E-01 -2.80900285E-01
 -3.51320556E-01 -6.04820902E-01 -3.51320556E-01 -6.04820902E-01 -4.12570393E-02
 -6.70697512E-01 -5.13700944E-02  1.55079353E-01  0.00000000E+00  1.41101228E+00
  7.25131129E-01 -1.74223845E+00  0.00000000E+00 -2.93511011E+00 -9.86396221E-01
  3.75472380E-01  0.00000000E+00 -8.81622595E-04 -6.74622762E-02 -2.40186562E-02
 -5.02140132E-03  0.00000000E+00  0.00000000E+00 -1.88293941E-01 -3.32109191E-01
 -1.88293941E-01 -3.32109191E-01  4.12570393E-02  6.70697512E-01 -5.13700944E-02
  1.55079353E-01  0.00000000E+00 -1.41101228E+00  7.25131129E-01 -1.74223845E+00
  0.00000000E+00  2.93511011E+00 -9.86396221E-01  3.75472380E-01  0.00000000E+00
  8.81622595E-04  6.74622762E-02  2.40186562E-02  5.02140132E-03  0.00000000E+00
  0.00000000E+00  1.88293941E-01  3.32109191E-01  1.88293941E-01  3.32109191E-01
  9.16632321E-02  1.40804607E+00 -1.14218616E-01  1.92344609E-01  0.00000000E+00
 -4.07476698E+00  4.69530228E-01 -7.47960383E-01  0.00000000E+00 -3.38382937E-02
  9.67718340E-02  7.40715237E-02  0.00000000E+00  2.19940070E-02  6.51738033E-02
  6.69650751E-02 -2.97523451E-02  0.00000000E+00  0.00000000E+00  3.51320556E-01
  6.04820902E-01  1.91059149E-01  2.80900285E-01  3.51320556E-01  6.04820902E-01
  8.93602008E-02  9.75767054E-01  5.83852806E-02 -7.77306791E-02  0.00000000E+00
 -3.37450883E+00 -1.56154954E-01  9.70988896E-01  0.00000000E+00  3.44195192E+00
 -3.74366923E-02 -1.12492885E+00  0.00000000E+00  5.83517563E-02  7.32078275E-03
  4.90976542E-02  4.90173069E-03  0.00000000E+00  0.00000000E+00  3.29898034E-01
  3.37862974E-03  3.55568650E-01  1.61551145E-01  3.55568650E-01  1.61551145E-01
 -8.62053595E-02 -1.19935538E+00 -1.24134716E-01  1.49667826E-01  0.00000000E+00
  3.52546105E+00 -2.73323765E-01  6.48740128E-01  0.00000000E+00 -3.33987369E+00
  5.76313823E-02 -1.02004432E+00  0.00000000E+00 -6.78202448E-02  5.23064869E-04
 -5.84729960E-02  2.22185573E-02  0.00000000E+00  0.00000000E+00 -3.52444439E-01
 -3.86431903E-01 -3.52444439E-01 -3.86431903E-01 -8.62053595E-02 -1.19935538E+00
  1.24134716E-01 -1.49667826E-01  0.00000000E+00  3.52546105E+00  2.73323765E-01
 -6.48740128E-01  0.00000000E+00 -3.33987369E+00 -5.76313823E-02  1.02004432E+00
  0.00000000E+00 -6.78202448E-02  5.23064869E-04 -5.84729960E-02  2.22185573E-02
  0.00000000E+00  0.00000000E+00 -3.52444439E-01 -3.86431903E-01 -3.52444439E-01
 -3.86431903E-01  8.93602008E-02  9.75767054E-01 -5.83852806E-02  7.77306791E-02
  0.00000000E+00 -3.37450883E+00  1.56154954E-01 -9.70988896E-01  0.00000000E+00
  3.44195192E+00  3.74366923E-02  1.12492885E+00  0.00000000E+00  5.83517563E-02
  7.32078275E-03  4.90976542E-02  4.90173069E-03  0.00000000E+00  0.00000000E+00
  3.55568650E-01  1.61551145E-01  3.29898034E-01  3.37862974E-03  3.55568650E-01
  1.61551145E-01  0.00000000E+00  0.00000000E+00  0.00000000E+00  0.00000000E+00
 -7.75096583E-02  0.00000000E+00  0.00000000E+00  0.00000000E+00 -1.63649072E-01
  0.00000000E+00  0.00000000E+00  0.00000000E+00  1.66474525E-01  0.00000000E+00
  0.00000000E+00  0.00000000E+00  0.00000000E+00  2.17355495E-01 -3.49433993E-01
  0.00000000E+00  0.00000000E+00 -1.44538067E-01  5.80206379E-02  1.44538067E-01
 -5.80206379E-02  0.00000000E+00  0.00000000E+00  0.00000000E+00  0.00000000E+00
  3.69701127E-03  0.00000000E+00  0.00000000E+00  0.00000000E+00  1.05357776E-01
  0.00000000E+00  0.00000000E+00  0.00000000E+00 -1.17842699E-01  0.00000000E+00
  0.00000000E+00  0.00000000E+00  0.00000000E+00 -2.77680460E-01  4.07790585E-01
  4.06069545E-02 -4.44013332E-03 -4.06069545E-02  4.44013332E-03  0.00000000E+00
  0.00000000E+00  0.00000000E+00  0.00000000E+00  3.69701127E-03  0.00000000E+00
  0.00000000E+00  0.00000000E+00  1.05357776E-01  0.00000000E+00  0.00000000E+00
  0.00000000E+00 -1.17842699E-01  0.00000000E+00  0.00000000E+00  0.00000000E+00
  0.00000000E+00  2.77680460E-01 -4.07790585E-01  4.06069545E-02 -4.44013332E-03
 -4.06069545E-02  4.44013332E-03  0.00000000E+00  0.00000000E+00  0.00000000E+00
  0.00000000E+00 -7.75096583E-02  0.00000000E+00  0.00000000E+00  0.00000000E+00
 -1.63649072E-01  0.00000000E+00  0.00000000E+00  0.00000000E+00  1.66474525E-01
  0.00000000E+00  0.00000000E+00  0.00000000E+00  0.00000000E+00 -2.17355495E-01
  3.49433993E-01 -1.44538067E-01  5.80206379E-02  0.00000000E+00  0.00000000E+00
  1.44538067E-01 -5.80206379E-02 -8.50392178E-03 -1.43855469E-01  7.78990923E-02
  2.99994967E-02  0.00000000E+00  5.55176331E-01  8.00139471E-02 -2.55609467E-01
  0.00000000E+00 -6.55814799E-01 -1.07427830E-01  2.40570713E-01  0.00000000E+00
  1.44368986E-01  2.86050434E-02 -1.87325190E-01  2.96347104E-01  0.00000000E+00
  0.00000000E+00  8.87099786E-02 -1.00639420E-01 -9.13364021E-02  2.81828987E-02
 -9.13364021E-02  2.81828987E-02  3.65962781E-02  2.87820851E-01  1.06501931E-01
  7.27102913E-02  0.00000000E+00 -1.28335073E+00 -3.15396341E-01 -4.92158855E-02
  0.00000000E+00  3.38006858E+00  7.59357565E-01 -1.59771973E-01  0.00000000E+00
 -2.73267375E-01  6.48573428E-02  2.43313774E-01 -3.96412351E-01  0.00000000E+00
  0.00000000E+00  2.66396111E-01 -1.72270433E-01  2.66396111E-01 -1.72270433E-01
 -3.65962781E-02 -2.87820851E-01  1.06501931E-01  7.27102913E-02  0.00000000E+00
  1.28335073E+00 -3.15396341E-01 -4.92158855E-02  0.00000000E+00 -3.38006858E+00
  7.59357565E-01 -1.59771973E-01  0.00000000E+00  2.73267375E-01 -6.48573428E-02
 -2.43313774E-01  3.96412351E-01  0.00000000E+00  0.00000000E+00 -2.66396111E-01
  1.72270433E-01 -2.66396111E-01  1.72270433E-01  8.50392178E-03  1.43855469E-01
  7.78990923E-02  2.99994967E-02  0.00000000E+00 -5.55176331E-01  8.00139471E-02
 -2.55609467E-01  0.00000000E+00  6.55814799E-01 -1.07427830E-01  2.40570713E-01
  0.00000000E+00 -1.44368986E-01 -2.86050434E-02  1.87325190E-01 -2.96347104E-01
  0.00000000E+00  0.00000000E+00  9.13364021E-02 -2.81828987E-02 -8.87099786E-02
  1.00639420E-01  9.13364021E-02 -2.81828987E-02 -1.11039433E-02  1.59678004E-02
  1.59291250E-01 -8.69086641E-02  0.00000000E+00  6.48069652E-01 -4.69720857E-01
 -2.36495517E-01  0.00000000E+00 -1.36833785E+00  2.39153040E-02  3.90818386E-01
  0.00000000E+00  2.49647010E-01 -6.80772661E-03 -2.45732197E-01  4.89855635E-01
  0.00000000E+00  0.00000000E+00  1.40317244E-02 -3.00068269E-01 -7.02661338E-02
  1.89889298E-01 -7.02661338E-02  1.89889298E-01  1.60125312E-02 -3.73449585E-02
 -8.37957807E-02  1.79829397E-01  0.00000000E+00 -4.76067609E-01  2.32633696E-01
 -9.06422863E-01  0.00000000E+00  1.38047398E+00 -1.74836340E-01  5.78501522E-01
  0.00000000E+00 -6.12971551E-02 -4.97808184E-02  1.10327877E-01 -3.37873741E-01
  0.00000000E+00  0.00000000E+00  8.99263858E-02 -1.23071364E-01  8.99263858E-02
 -1.23071364E-01  1.60125312E-02 -3.73449585E-02  8.37957807E-02 -1.79829397E-01
  0.00000000E+00 -4.76067609E-01 -2.32633696E-01  9.06422863E-01  0.00000000E+00
  1.38047398E+00  1.74836340E-01 -5.78501522E-01  0.00000000E+00 -6.12971551E-02
 -4.97808184E-02  1.10327877E-01 -3.37873741E-01  0.00000000E+00  0.00000000E+00
  8.99263858E-02 -1.23071364E-01  8.99263858E-02 -1.23071364E-01 -1.11039433E-02
  1.59678004E-02 -1.59291250E-01  8.69086641E-02  0.00000000E+00  6.48069652E-01
  4.69720857E-01  2.36495517E-01  0.00000000E+00 -1.36833785E+00 -2.39153040E-02
 -3.90818386E-01  0.00000000E+00  2.49647010E-01 -6.80772661E-03 -2.45732197E-01
  4.89855635E-01  0.00000000E+00  0.00000000E+00 -7.02661338E-02  1.89889298E-01
  1.40317244E-02 -3.00068269E-01 -7.02661338E-02  1.89889298E-01  7.96584172E-02
  6.64958517E-01 -8.55174037E-02  1.05858051E-01  0.00000000E+00 -3.49643357E+00
  2.65058061E-01  1.25314574E+00  0.00000000E+00  2.50579277E+00  1.44612318E-01
 -7.74411044E-01  0.00000000E+00 -2.29403296E-02 -1.79525037E-02  7.93718289E-02
  3.50643715E-02  0.00000000E+00  0.00000000E+00  3.46153569E-01  3.43848392E-01
  2.42659641E-01 -4.79599056E-02  2.42659641E-01 -4.79599056E-02 -1.45280516E-01
 -1.64281843E+00  2.81960812E-02 -1.48410679E-01  0.00000000E+00  6.85348265E+00
  1.11242451E+00  7.21533647E-01  0.00000000E+00 -1.96096775E+00 -5.23479344E-02
 -8.28694279E-01  0.00000000E+00 -1.45550654E-01  3.10764466E-02  2.84429344E-02
 -2.22107165E-01  0.00000000E+00  0.00000000E+00 -4.31966287E-01 -4.26282322E-01
 -4.31966287E-01 -4.26282322E-01  1.45280516E-01  1.64281843E+00  2.81960812E-02
 -1.48410679E-01  0.00000000E+00 -6.85348265E+00  1.11242451E+00  7.21533647E-01
  0.00000000E+00  1.96096775E+00 -5.23479344E-02 -8.28694279E-01  0.00000000E+00
  1.45550654E-01 -3.10764466E-02 -2.84429344E-02  2.22107165E-01  0.00000000E+00
  0.00000000E+00  4.31966287E-01  4.26282322E-01  4.31966287E-01  4.26282322E-01
 -7.96584172E-02 -6.64958517E-01 -8.55174037E-02  1.05858051E-01  0.00000000E+00
  3.49643357E+00  2.65058061E-01  1.25314574E+00  0.00000000E+00 -2.50579277E+00
  1.44612318E-01 -7.74411044E-01  0.00000000E+00  2.29403296E-02  1.79525037E-02
 -7.93718289E-02 -3.50643715E-02  0.00000000E+00  0.00000000E+00 -2.42659641E-01
  4.79599056E-02 -3.46153569E-01 -3.43848392E-01 -2.42659641E-01  4.79599056E-02
  0.00000000E+00  0.00000000E+00  0.00000000E+00  0.00000000E+00  8.84361484E-02
  0.00000000E+00  0.00000000E+00  0.00000000E+00 -6.91246718E-01  0.00000000E+00
  0.00000000E+00  0.00000000E+00 -6.81909699E-02  0.00000000E+00  0.00000000E+00
  0.00000000E+00  0.00000000E+00 -2.90727749E-01  5.36630287E-01  0.00000000E+00
  0.00000000E+00 -1.72931815E-02 -2.51806108E-01  1.72931815E-02  2.51806108E-01
  0.00000000E+00  0.00000000E+00  0.00000000E+00  0.00000000E+00 -8.77553968E-02
  0.00000000E+00  0.00000000E+00  0.00000000E+00  1.68052118E+00  0.00000000E+00
  0.00000000E+00  0.00000000E+00  1.36491771E-01  0.00000000E+00  0.00000000E+00
  0.00000000E+00  0.00000000E+00  1.37877524E-01 -2.96357600E-01  3.41728558E-01
  4.85588346E-01 -3.41728558E-01 -4.85588346E-01  0.00000000E+00  0.00000000E+00
  0.00000000E+00  0.00000000E+00  8.77553968E-02  0.00000000E+00  0.00000000E+00
  0.00000000E+00 -1.68052118E+00  0.00000000E+00  0.00000000E+00  0.00000000E+00
 -1.36491771E-01  0.00000000E+00  0.00000000E+00  0.00000000E+00  0.00000000E+00
  1.37877524E-01 -2.96357600E-01 -3.41728558E-01 -4.85588346E-01  3.41728558E-01
  4.85588346E-01  0.00000000E+00  0.00000000E+00  0.00000000E+00  0.00000000E+00
 -8.84361484E-02  0.00000000E+00  0.00000000E+00  0.00000000E+00  6.91246718E-01
  0.00000000E+00  0.00000000E+00  0.00000000E+00  6.81909699E-02  0.00000000E+00
  0.00000000E+00  0.00000000E+00  0.00000000E+00 -2.90727749E-01  5.36630287E-01
  1.72931815E-02  2.51806108E-01  0.00000000E+00  0.00000000E+00 -1.72931815E-02
 -2.51806108E-01  1.65587225E-02 -2.81126735E-01 -2.88507991E-03  1.87008186E-01
  0.00000000E+00  3.54927170E-02  6.07675189E-02 -1.83772913E-01  0.00000000E+00
  1.32969938E+00 -1.90080751E-01 -2.44091789E-01  0.00000000E+00 -1.00992030E-01
  3.62288083E-01 -2.67985202E-01  1.57128620E-01  0.00000000E+00  0.00000000E+00
  1.64350100E-01 -1.06058133E-01  1.31206446E-01 -1.00749982E-01  1.31206446E-01
 -1.00749982E-01 -2.86978738E-03 -1.47294433E-02  1.87584666E-01 -2.88041246E-01
  0.00000000E+00  7.00760148E-02 -1.50595376E-01  4.89425311E-01  0.00000000E+00
 -1.27359038E+00  1.97203515E-01 -8.39603104E-01  0.00000000E+00 -4.17171942E-01
  4.25073786E-01 -8.65189662E-03  1.80312485E-01  0.00000000E+00  0.00000000E+00
  5.72087082E-03  4.43415945E-02  5.72087082E-03  4.43415945E-02 -2.86978738E-03
 -1.47294433E-02 -1.87584666E-01  2.88041246E-01  0.00000000E+00  7.00760148E-02
  1.50595376E-01 -4.89425311E-01  0.00000000E+00 -1.27359038E+00 -1.97203515E-01
  8.39603104E-01  0.00000000E+00 -4.17171942E-01  4.25073786E-01 -8.65189662E-03
  1.80312485E-01  0.00000000E+00  0.00000000E+00  5.72087082E-03  4.43415945E-02
  5.72087082E-03  4.43415945E-02  1.65587225E-02 -2.81126735E-01  2.88507991E-03
 -1.87008186E-01  0.00000000E+00  3.54927170E-02 -6.07675189E-02  1.83772913E-01
  0.00000000E+00  1.32969938E+00  1.90080751E-01  2.44091789E-01  0.00000000E+00
 -1.00992030E-01  3.62288083E-01 -2.67985202E-01  1.57128620E-01  0.00000000E+00
  0.00000000E+00  1.31206446E-01 -1.00749982E-01  1.64350100E-01 -1.06058133E-01
  1.31206446E-01 -1.00749982E-01 -1.44739259E-03 -4.33383402E-01 -1.09708125E-02
  1.24346120E-01  0.00000000E+00  1.20445831E+00  3.98362113E-01 -5.20171688E-01
  0.00000000E+00  5.56890794E+00  1.38090637E-01 -1.29831660E+00  0.00000000E+00
 -3.83060134E-01  2.39453508E-01  1.75976093E-01 -4.35966649E-01  0.00000000E+00
  0.00000000E+00  1.20762842E-01 -1.36812482E-01  2.61487146E-02 -3.17653146E-01
  2.61487146E-02 -3.17653146E-01  6.08431941E-02  2.73246091E-01 -7.62059060E-03
  1.84808263E-02  0.00000000E+00 -2.42241168E+00 -1.17585305E+00  9.79289506E-02
  0.00000000E+00 -4.22737108E+00  2.08119773E-01 -2.08915353E+00  0.00000000E+00
 -3.23397483E-01  3.20448681E-01  1.21524975E-02 -1.59126232E-01  0.00000000E+00
  0.00000000E+00  2.02115375E-01 -6.39190384E-02  2.02115375E-01 -6.39190384E-02
 -6.08431941E-02 -2.73246091E-01 -7.62059060E-03  1.84808263E-02  0.00000000E+00
  2.42241168E+00 -1.17585305E+00  9.79289506E-02  0.00000000E+00  4.22737108E+00
  2.08119773E-01 -2.08915353E+00  0.00000000E+00  3.23397483E-01 -3.20448681E-01
 -1.21524975E-02  1.59126232E-01  0.00000000E+00  0.00000000E+00 -2.02115375E-01
  6.39190384E-02 -2.02115375E-01  6.39190384E-02  1.44739259E-03  4.33383402E-01
 -1.09708125E-02  1.24346120E-01  0.00000000E+00 -1.20445831E+00  3.98362113E-01
 -5.20171688E-01  0.00000000E+00 -5.56890794E+00  1.38090637E-01 -1.29831660E+00
  0.00000000E+00  3.83060134E-01 -2.39453508E-01 -1.75976093E-01  4.35966649E-01
  0.00000000E+00  0.00000000E+00 -2.61487146E-02  3.17653146E-01 -1.20762842E-01
  1.36812482E-01 -2.61487146E-02  3.17653146E-01  0.00000000E+00  0.00000000E+00
  0.00000000E+00  0.00000000E+00 -2.42254812E-02  0.00000000E+00  0.00000000E+00
  0.00000000E+00  5.44675408E-01  0.00000000E+00  0.00000000E+00  0.00000000E+00
 -1.68263066E-01  0.00000000E+00  0.00000000E+00  0.00000000E+00  0.00000000E+00
  3.88816561E-01 -4.16815082E-01  0.00000000E+00  0.00000000E+00  1.62490997E-01
  9.65338280E-02 -1.62490997E-01 -9.65338280E-02  0.00000000E+00  0.00000000E+00
  0.00000000E+00  0.00000000E+00 -2.71491897E-02  0.00000000E+00  0.00000000E+00
  0.00000000E+00 -5.31499034E-01  0.00000000E+00  0.00000000E+00  0.00000000E+00
  1.66980145E-01  0.00000000E+00  0.00000000E+00  0.00000000E+00  0.00000000E+00
  3.97412708E-01 -2.52293781E-01 -2.84699057E-01 -3.39165222E-02  2.84699057E-01
  3.39165222E-02  0.00000000E+00  0.00000000E+00  0.00000000E+00  0.00000000E+00
 -2.71491897E-02  0.00000000E+00  0.00000000E+00  0.00000000E+00 -5.31499034E-01
  0.00000000E+00  0.00000000E+00  0.00000000E+00  1.66980145E-01  0.00000000E+00
  0.00000000E+00  0.00000000E+00  0.00000000E+00 -3.97412708E-01  2.52293781E-01
 -2.84699057E-01 -3.39165222E-02  2.84699057E-01  3.39165222E-02  0.00000000E+00
  0.00000000E+00  0.00000000E+00  0.00000000E+00 -2.42254812E-02  0.00000000E+00
  0.00000000E+00  0.00000000E+00  5.44675408E-01  0.00000000E+00  0.00000000E+00
  0.00000000E+00 -1.68263066E-01  0.00000000E+00  0.00000000E+00  0.00000000E+00
  0.00000000E+00 -3.88816561E-01  4.16815082E-01  1.62490997E-01  9.65338280E-02
  0.00000000E+00  0.00000000E+00 -1.62490997E-01 -9.65338280E-02 -6.19692494E-03
  1.48491341E-01  3.26431937E-02 -1.03180977E-01  0.00000000E+00  1.40059102E-01
  2.41691119E-01  7.38704950E-03  0.00000000E+00 -3.82818522E-01 -2.70436751E-02
  5.56110234E-02  0.00000000E+00 -7.34789328E-02 -1.58232440E-01  2.32346383E-01
  9.33952770E-03  0.00000000E+00  0.00000000E+00  1.09222485E-01  1.45257036E-02
 -1.31529446E-01  2.23465433E-02 -1.31529446E-01  2.23465433E-02 -2.22488799E-02
  4.60444875E-01  1.83184340E-01 -7.66043604E-03  0.00000000E+00 -1.98455586E-01
 -5.52869308E-01 -4.49966214E-01  0.00000000E+00  2.90185253E-01  1.66913860E-01
  3.96307285E-01  0.00000000E+00 -4.57360017E-01 -1.86569877E-01  6.18668502E-01
  1.16486785E-02  0.00000000E+00  0.00000000E+00 -3.40764465E-01  8.30905479E-02
 -3.40764465E-01  8.30905479E-02 -2.22488799E-02  4.60444875E-01 -1.83184340E-01
  7.66043604E-03  0.00000000E+00 -1.98455586E-01  5.52869308E-01  4.49966214E-01
  0.00000000E+00  2.90185253E-01 -1.66913860E-01 -3.96307285E-01  0.00000000E+00
 -4.57360017E-01 -1.86569877E-01  6.18668502E-01  1.16486785E-02  0.00000000E+00
  0.00000000E+00 -3.40764465E-01  8.30905479E-02 -3.40764465E-01  8.30905479E-02
 -6.19692494E-03  1.48491341E-01 -3.26431937E-02  1.03180977E-01  0.00000000E+00
  1.40059102E-01 -2.41691119E-01 -7.38704950E-03  0.00000000E+00 -3.82818522E-01
  2.70436751E-02 -5.56110234E-02  0.00000000E+00 -7.34789328E-02 -1.58232440E-01
  2.32346383E-01  9.33952770E-03  0.00000000E+00  0.00000000E+00 -1.31529446E-01
  2.23465433E-02  1.09222485E-01  1.45257036E-02 -1.31529446E-01  2.23465433E-02
 -1.94221598E-02  2.30870126E-01  1.52642103E-02 -1.47268670E-01  0.00000000E+00
  2.89223264E-02  3.66138563E-01  1.77536928E-01  0.00000000E+00 -3.31886000E+00
 -2.91046818E-01  7.51790418E-01  0.00000000E+00 -2.84296345E-02 -4.38393056E-01
  4.34609188E-01 -2.10416952E-01  0.00000000E+00  0.00000000E+00  2.08805605E-03
  1.46435508E-01 -2.53072830E-01  1.27436838E-01 -2.53072830E-01  1.27436838E-01
 -4.24304045E-03  4.17130442E-01  6.33731715E-03  2.46493273E-01  0.00000000E+00
 -8.74680227E-01 -6.62859887E-01 -1.72330142E-01  0.00000000E+00  4.86844744E+00
  7.50538864E-01  9.77665302E-01  0.00000000E+00 -7.81721203E-02 -3.16899906E-01
  3.66490588E-01 -1.67974425E-01  0.00000000E+00  0.00000000E+00 -1.42374355E-01
 -1.61941070E-02 -1.42374355E-01 -1.61941070E-02  4.24304045E-03 -4.17130442E-01
  6.33731715E-03  2.46493273E-01  0.00000000E+00  8.74680227E-01 -6.62859887E-01
 -1.72330142E-01  0.00000000E+00 -4.86844744E+00  7.50538864E-01  9.77665302E-01
  0.00000000E+00  7.81721203E-02  3.16899906E-01 -3.66490588E-01  1.67974425E-01
  0.00000000E+00  0.00000000E+00  1.42374355E-01  1.61941070E-02  1.42374355E-01
  1.61941070E-02  1.94221598E-02 -2.30870126E-01  1.52642103E-02 -1.47268670E-01
  0.00000000E+00 -2.89223264E-02  3.66138563E-01  1.77536928E-01  0.00000000E+00
  3.31886000E+00 -2.91046818E-01  7.51790418E-01  0.00000000E+00  2.84296345E-02
  4.38393056E-01 -4.34609188E-01  2.10416952E-01  0.00000000E+00  0.00000000E+00
  2.53072830E-01 -1.27436838E-01 -2.08805605E-03 -1.46435508E-01  2.53072830E-01
 -1.27436838E-01  0.00000000E+00  0.00000000E+00  0.00000000E+00  0.00000000E+00
 -3.64971189E-02  0.00000000E+00  0.00000000E+00  0.00000000E+00 -4.34879286E-01
  0.00000000E+00  0.00000000E+00  0.00000000E+00  5.93855330E-02  0.00000000E+00
  0.00000000E+00  0.00000000E+00  0.00000000E+00 -4.44008072E-01  1.43979408E-01
  0.00000000E+00  0.00000000E+00 -2.78098201E-01 -2.03352718E-02  2.78098201E-01
  2.03352718E-02  0.00000000E+00  0.00000000E+00  0.00000000E+00  0.00000000E+00
 -3.60846461E-02  0.00000000E+00  0.00000000E+00  0.00000000E+00  1.55896380E-01
  0.00000000E+00  0.00000000E+00  0.00000000E+00  1.30792509E-01  0.00000000E+00
  0.00000000E+00  0.00000000E+00  0.00000000E+00 -3.27822832E-01  5.32728311E-01
 -4.57611003E-02  1.22453172E-01  4.57611003E-02 -1.22453172E-01  0.00000000E+00
  0.00000000E+00  0.00000000E+00  0.00000000E+00  3.60846461E-02  0.00000000E+00
  0.00000000E+00  0.00000000E+00 -1.55896380E-01  0.00000000E+00  0.00000000E+00
  0.00000000E+00 -1.30792509E-01  0.00000000E+00  0.00000000E+00  0.00000000E+00
  0.00000000E+00 -3.27822832E-01  5.32728311E-01  4.57611003E-02 -1.22453172E-01
 -4.57611003E-02  1.22453172E-01  0.00000000E+00  0.00000000E+00  0.00000000E+00
  0.00000000E+00  3.64971189E-02  0.00000000E+00  0.00000000E+00  0.00000000E+00
  4.34879286E-01  0.00000000E+00  0.00000000E+00  0.00000000E+00 -5.93855330E-02
  0.00000000E+00  0.00000000E+00  0.00000000E+00  0.00000000E+00 -4.44008072E-01
  1.43979408E-01  2.78098201E-01  2.03352718E-02  0.00000000E+00  0.00000000E+00
 -2.78098201E-01 -2.03352718E-02 -4.63157840E-03 -6.59203741E-02  7.95760908E-02
 -7.49569479E-03  0.00000000E+00  2.41889170E-01  4.24629317E-01 -2.05984438E-01
  0.00000000E+00 -7.27083966E-01 -1.15528063E-02  2.11143474E-01  0.00000000E+00
 -6.23914899E-01  2.67263761E-01  3.34560799E-01 -6.39309269E-03  0.00000000E+00
  0.00000000E+00  5.00585129E-01 -1.16312170E-01 -1.47959796E-01 -3.01753094E-02
 -1.47959796E-01 -3.01753094E-02  2.60088889E-02 -2.10578461E-01 -2.38687685E-02
 -9.40541477E-02  0.00000000E+00  4.84200836E-02 -2.11805686E-01 -1.71005854E-01
  0.00000000E+00  8.69780619E-01 -4.79513026E-02  4.88491163E-01  0.00000000E+00
 -8.34973874E-03  5.63302847E-02 -2.33449600E-03 -4.55870270E-01  0.00000000E+00
  0.00000000E+00  1.19844082E-01 -2.31444303E-01  1.19844082E-01 -2.31444303E-01
  2.60088889E-02 -2.10578461E-01  2.38687685E-02  9.40541477E-02  0.00000000E+00
  4.84200836E-02  2.11805686E-01  1.71005854E-01  0.00000000E+00  8.69780619E-01
  4.79513026E-02 -4.88491163E-01  0.00000000E+00 -8.34973874E-03  5.63302847E-02
 -2.33449600E-03 -4.55870270E-01  0.00000000E+00  0.00000000E+00  1.19844082E-01
 -2.31444303E-01  1.19844082E-01 -2.31444303E-01 -4.63157840E-03 -6.59203741E-02
 -7.95760908E-02  7.49569479E-03  0.00000000E+00  2.41889170E-01 -4.24629317E-01
  2.05984438E-01  0.00000000E+00 -7.27083966E-01  1.15528063E-02 -2.11143474E-01
  0.00000000E+00 -6.23914899E-01  2.67263761E-01  3.34560799E-01 -6.39309269E-03
  0.00000000E+00  0.00000000E+00 -1.47959796E-01 -3.01753094E-02  5.00585129E-01
 -1.16312170E-01 -1.47959796E-01 -3.01753094E-02  0.00000000E+00  0.00000000E+00
  0.00000000E+00  0.00000000E+00 -4.08910357E-02  0.00000000E+00  0.00000000E+00
  0.00000000E+00 -3.14717463E-01  0.00000000E+00  0.00000000E+00  0.00000000E+00
  7.82517665E-02  0.00000000E+00  0.00000000E+00  0.00000000E+00  0.00000000E+00
 -2.97859313E-01 -4.07500038E-01  0.00000000E+00  0.00000000E+00 -3.04272572E-01
  3.66822664E-02  3.04272572E-01 -3.66822664E-02  0.00000000E+00  0.00000000E+00
  0.00000000E+00  0.00000000E+00  1.05841915E-02  0.00000000E+00  0.00000000E+00
  0.00000000E+00  5.84297369E-01  0.00000000E+00  0.00000000E+00  0.00000000E+00
 -9.15654201E-02  0.00000000E+00  0.00000000E+00  0.00000000E+00  0.00000000E+00
 -4.37195465E-01 -4.45479840E-01  4.07807313E-01  2.13118851E-02 -4.07807313E-01
 -2.13118851E-02  0.00000000E+00  0.00000000E+00  0.00000000E+00  0.00000000E+00
 -1.05841915E-02  0.00000000E+00  0.00000000E+00  0.00000000E+00 -5.84297369E-01
  0.00000000E+00  0.00000000E+00  0.00000000E+00  9.15654201E-02  0.00000000E+00
  0.00000000E+00  0.00000000E+00  0.00000000E+00 -4.37195465E-01 -4.45479840E-01
 -4.07807313E-01 -2.13118851E-02  4.07807313E-01  2.13118851E-02  0.00000000E+00
  0.00000000E+00  0.00000000E+00  0.00000000E+00  4.08910357E-02  0.00000000E+00
  0.00000000E+00  0.00000000E+00  3.14717463E-01  0.00000000E+00  0.00000000E+00
  0.00000000E+00 -7.82517665E-02  0.00000000E+00  0.00000000E+00  0.00000000E+00
  0.00000000E+00 -2.97859313E-01 -4.07500038E-01  3.04272572E-01 -3.66822664E-02
  0.00000000E+00  0.00000000E+00 -3.04272572E-01  3.66822664E-02  0.00000000E+00
  0.00000000E+00  0.00000000E+00  0.00000000E+00  1.01677125E-01  0.00000000E+00
  0.00000000E+00  0.00000000E+00  2.73018218E-01  0.00000000E+00  0.00000000E+00
  0.00000000E+00 -1.05306442E-01  0.00000000E+00  0.00000000E+00  0.00000000E+00
  0.00000000E+00  5.93012636E-01  3.47902888E-01  0.00000000E+00  0.00000000E+00
  4.66385151E-01 -1.56558924E-01 -4.66385151E-01  1.56558924E-01  0.00000000E+00
  0.00000000E+00  0.00000000E+00  0.00000000E+00  1.09643325E-01  0.00000000E+00
  0.00000000E+00  0.00000000E+00 -8.90437772E-03  0.00000000E+00  0.00000000E+00
  0.00000000E+00 -2.98203331E-02  0.00000000E+00  0.00000000E+00  0.00000000E+00
  0.00000000E+00 -3.33297790E-01 -1.88887271E-01  2.61581467E-01 -1.55657589E-01
 -2.61581467E-01  1.55657589E-01  0.00000000E+00  0.00000000E+00  0.00000000E+00
  0.00000000E+00  1.09643325E-01  0.00000000E+00  0.00000000E+00  0.00000000E+00
 -8.90437772E-03  0.00000000E+00  0.00000000E+00  0.00000000E+00 -2.98203331E-02
  0.00000000E+00  0.00000000E+00  0.00000000E+00  0.00000000E+00  3.33297790E-01
  1.88887271E-01  2.61581467E-01 -1.55657589E-01 -2.61581467E-01  1.55657589E-01
  0.00000000E+00  0.00000000E+00  0.00000000E+00  0.00000000E+00  1.01677125E-01
  0.00000000E+00  0.00000000E+00  0.00000000E+00  2.73018218E-01  0.00000000E+00
  0.00000000E+00  0.00000000E+00 -1.05306442E-01  0.00000000E+00  0.00000000E+00
  0.00000000E+00  0.00000000E+00 -5.93012636E-01 -3.47902888E-01  4.66385151E-01
 -1.56558924E-01  0.00000000E+00  0.00000000E+00 -4.66385151E-01  1.56558924E-01
  7.67409843E-03  7.72979243E-02 -1.03017105E-01  2.55641437E-02  0.00000000E+00
 -3.87962785E-01 -3.17593207E-01  2.01806171E-01  0.00000000E+00 -5.72771952E-01
  2.09549059E-01  1.16587305E-01  0.00000000E+00  5.84031176E-01 -1.19667904E-01
 -4.69868544E-01 -4.86841357E-01  0.00000000E+00  0.00000000E+00 -6.18978604E-01
  2.69646662E-01  2.89056742E-01 -7.68422075E-02  2.89056742E-01 -7.68422075E-02
 -9.00267974E-03 -1.59823227E-01 -5.20674501E-02  6.21104698E-02  0.00000000E+00
  7.25912994E-01  2.37251475E-01  7.79264513E-02  0.00000000E+00  4.33721365E-01
 -1.53945132E-01  2.05972615E-01  0.00000000E+00 -7.94635908E-02  4.29230019E-02
  9.72019085E-02 -8.31106262E-02  0.00000000E+00  0.00000000E+00 -3.54254955E-02
 -4.88387460E-02 -3.54254955E-02 -4.88387460E-02  9.00267974E-03  1.59823227E-01
 -5.20674501E-02  6.21104698E-02  0.00000000E+00 -7.25912994E-01  2.37251475E-01
  7.79264513E-02  0.00000000E+00 -4.33721365E-01 -1.53945132E-01  2.05972615E-01
  0.00000000E+00  7.94635908E-02 -4.29230019E-02 -9.72019085E-02  8.31106262E-02
  0.00000000E+00  0.00000000E+00  3.54254955E-02  4.88387460E-02  3.54254955E-02
  4.88387460E-02 -7.67409843E-03 -7.72979243E-02 -1.03017105E-01  2.55641437E-02
  0.00000000E+00  3.87962785E-01 -3.17593207E-01  2.01806171E-01  0.00000000E+00
  5.72771952E-01  2.09549059E-01  1.16587305E-01  0.00000000E+00 -5.84031176E-01
  1.19667904E-01  4.69868544E-01  4.86841357E-01  0.00000000E+00  0.00000000E+00
 -2.89056742E-01  7.68422075E-02  6.18978604E-01 -2.69646662E-01 -2.89056742E-01
  7.68422075E-02 -1.93510834E-02 -3.39946268E-02 -3.60226758E-02 -1.17421071E-01
  0.00000000E+00  7.70633310E-01 -2.13166264E-01 -3.92160993E-01  0.00000000E+00
 -3.05377893E-01  1.70183956E-01  1.19425141E-01  0.00000000E+00  1.42294669E-01
  3.45719235E-01 -5.21475264E-01 -5.08098858E-01  0.00000000E+00  0.00000000E+00
 -3.79083049E-01  5.82998584E-02  2.80171725E-01 -1.82153899E-01  2.80171725E-01
 -1.82153899E-01  2.23132949E-02  4.69089105E-02 -3.35856134E-02 -1.19725557E-01
  0.00000000E+00 -5.90644157E-01 -1.05012046E-01 -6.47599351E-01  0.00000000E+00
  3.68544470E-01  3.85505988E-03  3.73987011E-01  0.00000000E+00 -8.60987944E-02
 -1.97144177E-01  2.59699530E-01 -3.69048706E-01  0.00000000E+00  0.00000000E+00
 -3.62065592E-02 -2.75263244E-02 -3.62065592E-02 -2.75263244E-02  2.23132949E-02
  4.69089105E-02  3.35856134E-02  1.19725557E-01  0.00000000E+00 -5.90644157E-01
  1.05012046E-01  6.47599351E-01  0.00000000E+00  3.68544470E-01 -3.85505988E-03
 -3.73987011E-01  0.00000000E+00 -8.60987944E-02 -1.97144177E-01  2.59699530E-01
 -3.69048706E-01  0.00000000E+00  0.00000000E+00 -3.62065592E-02 -2.75263244E-02
 -3.62065592E-02 -2.75263244E-02 -1.93510834E-02 -3.39946268E-02  3.60226758E-02
  1.17421071E-01  0.00000000E+00  7.70633310E-01  2.13166264E-01  3.92160993E-01
  0.00000000E+00 -3.05377893E-01 -1.70183956E-01 -1.19425141E-01  0.00000000E+00
  1.42294669E-01  3.45719235E-01 -5.21475264E-01 -5.08098858E-01  0.00000000E+00
  0.00000000E+00  2.80171725E-01 -1.82153899E-01 -3.79083049E-01  5.82998584E-02
  2.80171725E-01 -1.82153899E-01  0.00000000E+00  0.00000000E+00  0.00000000E+00
  0.00000000E+00 -8.44925433E-02  0.00000000E+00  0.00000000E+00  0.00000000E+00
 -8.06675304E-02  0.00000000E+00  0.00000000E+00  0.00000000E+00  8.94059373E-02
  0.00000000E+00  0.00000000E+00  0.00000000E+00  0.00000000E+00 -4.53299489E-01
 -3.31354435E-01  0.00000000E+00  0.00000000E+00 -3.64218047E-01  2.19918879E-01
  3.64218047E-01 -2.19918879E-01  0.00000000E+00  0.00000000E+00  0.00000000E+00
  0.00000000E+00 -5.54408639E-02  0.00000000E+00  0.00000000E+00  0.00000000E+00
 -8.59806729E-02  0.00000000E+00  0.00000000E+00  0.00000000E+00  1.64851410E-01
  0.00000000E+00  0.00000000E+00  0.00000000E+00  0.00000000E+00  6.06531561E-01
 -3.01257867E-03 -3.24653134E-01  2.08858009E-01  3.24653134E-01 -2.08858009E-01
  0.00000000E+00  0.00000000E+00  0.00000000E+00  0.00000000E+00  5.54408639E-02
  0.00000000E+00  0.00000000E+00  0.00000000E+00  8.59806729E-02  0.00000000E+00
  0.00000000E+00  0.00000000E+00 -1.64851410E-01  0.00000000E+00  0.00000000E+00
  0.00000000E+00  0.00000000E+00  6.06531561E-01 -3.01257867E-03  3.24653134E-01
 -2.08858009E-01 -3.24653134E-01  2.08858009E-01  0.00000000E+00  0.00000000E+00
  0.00000000E+00  0.00000000E+00  8.44925433E-02  0.00000000E+00  0.00000000E+00
  0.00000000E+00  8.06675304E-02  0.00000000E+00  0.00000000E+00  0.00000000E+00
 -8.94059373E-02  0.00000000E+00  0.00000000E+00  0.00000000E+00  0.00000000E+00
 -4.53299489E-01 -3.31354435E-01  3.64218047E-01 -2.19918879E-01  0.00000000E+00
  0.00000000E+00 -3.64218047E-01  2.19918879E-01  0.00000000E+00  0.00000000E+00
  0.00000000E+00  0.00000000E+00  5.42838362E-03  0.00000000E+00  0.00000000E+00
  0.00000000E+00  1.50997262E-01  0.00000000E+00  0.00000000E+00  0.00000000E+00
 -2.03729480E-01  0.00000000E+00  0.00000000E+00  0.00000000E+00  0.00000000E+00
  1.99211945E-01  3.95020062E-01  0.00000000E+00  0.00000000E+00  2.42758436E-01
 -1.05406657E-01 -2.42758436E-01  1.05406657E-01  0.00000000E+00  0.00000000E+00
  0.00000000E+00  0.00000000E+00 -7.87170856E-02  0.00000000E+00  0.00000000E+00
  0.00000000E+00 -1.21455493E-01  0.00000000E+00  0.00000000E+00  0.00000000E+00
  2.25873091E-01  0.00000000E+00  0.00000000E+00  0.00000000E+00  0.00000000E+00
  4.22984420E-01  5.62954363E-01 -4.28668543E-01  2.68948013E-01  4.28668543E-01
 -2.68948013E-01  0.00000000E+00  0.00000000E+00  0.00000000E+00  0.00000000E+00
 -7.87170856E-02  0.00000000E+00  0.00000000E+00  0.00000000E+00 -1.21455493E-01
  0.00000000E+00  0.00000000E+00  0.00000000E+00  2.25873091E-01  0.00000000E+00
  0.00000000E+00  0.00000000E+00  0.00000000E+00 -4.22984420E-01 -5.62954363E-01
 -4.28668543E-01  2.68948013E-01  4.28668543E-01 -2.68948013E-01  0.00000000E+00
  0.00000000E+00  0.00000000E+00  0.00000000E+00  5.42838362E-03  0.00000000E+00
  0.00000000E+00  0.00000000E+00  1.50997262E-01  0.00000000E+00  0.00000000E+00
  0.00000000E+00 -2.03729480E-01  0.00000000E+00  0.00000000E+00  0.00000000E+00
  0.00000000E+00 -1.99211945E-01 -3.95020062E-01  2.42758436E-01 -1.05406657E-01
  0.00000000E+00  0.00000000E+00 -2.42758436E-01  1.05406657E-01  3.99210037E-02
  1.06424122E-01 -1.89129309E-03  1.63364551E-01  0.00000000E+00 -1.32236236E+00
 -1.13423255E-01  6.92429005E-01  0.00000000E+00 -4.32389100E+00 -5.01919806E-02
  1.02363758E+00  0.00000000E+00  2.20255987E-01 -4.23048371E-01  2.73570228E-01
 -1.41812758E-02  0.00000000E+00  0.00000000E+00 -5.10849806E-02  1.62635035E-01
 -4.79903676E-02  1.22229626E-01 -4.79903676E-02  1.22229626E-01 -9.33532393E-02
 -1.72431335E-01  2.56954233E-01  7.22757911E-02  0.00000000E+00  2.86046903E+00
  9.92291290E-01  2.40465734E-01  0.00000000E+00  5.70067390E+00  3.44971345E-01
  1.32124610E+00  0.00000000E+00  3.54938324E-01  2.91042237E-01 -7.85283419E-01
 -4.52822479E-01  0.00000000E+00  0.00000000E+00  2.27864827E-01 -3.28676193E-01
  2.27864827E-01 -3.28676193E-01  9.33532393E-02  1.72431335E-01  2.56954233E-01
  7.22757911E-02  0.00000000E+00 -2.86046903E+00  9.92291290E-01  2.40465734E-01
  0.00000000E+00 -5.70067390E+00  3.44971345E-01  1.32124610E+00  0.00000000E+00
 -3.54938324E-01 -2.91042237E-01  7.85283419E-01  4.52822479E-01  0.00000000E+00
  0.00000000E+00 -2.27864827E-01  3.28676193E-01 -2.27864827E-01  3.28676193E-01
 -3.99210037E-02 -1.06424122E-01 -1.89129309E-03  1.63364551E-01  0.00000000E+00
  1.32236236E+00 -1.13423255E-01  6.92429005E-01  0.00000000E+00  4.32389100E+00
 -5.01919806E-02  1.02363758E+00  0.00000000E+00 -2.20255987E-01  4.23048371E-01
 -2.73570228E-01  1.41812758E-02  0.00000000E+00  0.00000000E+00  4.79903676E-02
 -1.22229626E-01  5.10849806E-02 -1.62635035E-01  4.79903676E-02 -1.22229626E-01
  3.99132779E-02  5.64792405E-02  4.90973495E-03  2.32560108E-01  0.00000000E+00
 -1.12585571E+00  9.08218070E-02  6.20186850E-01  0.00000000E+00 -3.09109688E-01
 -1.11020638E-01  1.53667474E-02  0.00000000E+00  3.60586743E-01 -5.82456504E-01
  2.57567520E-01 -2.39149815E-01  0.00000000E+00  0.00000000E+00 -1.62426045E-01
  2.05405948E-01 -4.41081634E-02  9.48622220E-02 -4.41081634E-02  9.48622220E-02
 -5.00588360E-02 -1.29844106E-02  3.98505899E-02  1.97973969E-01  0.00000000E+00
  1.20115809E+00 -1.98891621E-01  5.98463779E-01  0.00000000E+00  3.36827556E-01
  1.38877116E-01 -2.39143198E-01  0.00000000E+00 -4.46485092E-01  6.54369236E-01
 -3.23918359E-01 -3.23106724E-01  0.00000000E+00  0.00000000E+00  1.16143938E-01
 -2.81410736E-01  1.16143938E-01 -2.81410736E-01 -5.00588360E-02 -1.29844106E-02
 -3.98505899E-02 -1.97973969E-01  0.00000000E+00  1.20115809E+00  1.98891621E-01
 -5.98463779E-01  0.00000000E+00  3.36827556E-01 -1.38877116E-01  2.39143198E-01
  0.00000000E+00 -4.46485092E-01  6.54369236E-01 -3.23918359E-01 -3.23106724E-01
  0.00000000E+00  0.00000000E+00  1.16143938E-01 -2.81410736E-01  1.16143938E-01
 -2.81410736E-01  3.99132779E-02  5.64792405E-02 -4.90973495E-03 -2.32560108E-01
  0.00000000E+00 -1.12585571E+00 -9.08218070E-02 -6.20186850E-01  0.00000000E+00
 -3.09109688E-01  1.11020638E-01 -1.53667474E-02  0.00000000E+00  3.60586743E-01
 -5.82456504E-01  2.57567520E-01 -2.39149815E-01  0.00000000E+00  0.00000000E+00
 -4.41081634E-02  9.48622220E-02 -1.62426045E-01  2.05405948E-01 -4.41081634E-02
  9.48622220E-02 -5.66501223E-02 -1.76071866E-01 -2.74716736E-02 -2.12913604E-01
  0.00000000E+00  1.55424897E+00  1.94007987E-01 -7.75227204E-01  0.00000000E+00
 -1.66598795E-01  8.17786076E-02  1.08996405E-01  0.00000000E+00 -2.97737237E-01
  5.25711666E-01 -2.90083231E-01 -1.45474440E-01  0.00000000E+00  0.00000000E+00
  1.49276281E-02  2.94253879E-02  3.63129373E-02 -2.17574300E-01  3.63129373E-02
 -2.17574300E-01 -2.91779567E-03  3.71631713E-02  2.24184411E-01 -2.29183525E-01
  0.00000000E+00 -2.32776388E-01  4.62125176E-01 -1.10797710E+00  0.00000000E+00
  1.03338242E+00  1.07020398E-01  5.37600185E-02  0.00000000E+00  6.83143223E-01
 -6.66754239E-01 -1.67222405E-02 -4.45627908E-01  0.00000000E+00  0.00000000E+00
  1.77926811E-02 -1.19623055E-01  1.77926811E-02 -1.19623055E-01  2.91779567E-03
 -3.71631713E-02  2.24184411E-01 -2.29183525E-01  0.00000000E+00  2.32776388E-01
  4.62125176E-01 -1.10797710E+00  0.00000000E+00 -1.03338242E+00  1.07020398E-01
  5.37600185E-02  0.00000000E+00 -6.83143223E-01  6.66754239E-01  1.67222405E-02
  4.45627908E-01  0.00000000E+00  0.00000000E+00 -1.77926811E-02  1.19623055E-01
 -1.77926811E-02  1.19623055E-01  5.66501223E-02  1.76071866E-01 -2.74716736E-02
 -2.12913604E-01  0.00000000E+00 -1.55424897E+00  1.94007987E-01 -7.75227204E-01
  0.00000000E+00  1.66598795E-01  8.17786076E-02  1.08996405E-01  0.00000000E+00
  2.97737237E-01 -5.25711666E-01  2.90083231E-01  1.45474440E-01  0.00000000E+00
  0.00000000E+00 -3.63129373E-02  2.17574300E-01 -1.49276281E-02 -2.94253879E-02
 -3.63129373E-02  2.17574300E-01 -2.42649186E-01  1.43232251E+00  5.37086683E-03
 -3.32309031E-02  0.00000000E+00  9.87001158E-01 -4.99479801E-02  1.97548664E-01
  0.00000000E+00  1.24735423E+00 -1.08763984E-01 -2.96536487E-01  0.00000000E+00
 -9.65589835E-01 -8.24573682E-01 -9.44457451E-01  1.48534730E-02  0.00000000E+00
  0.00000000E+00  1.10716374E-01 -4.16257226E-01  1.02986242E-01 -3.59672476E-01
  1.02986242E-01 -3.59672476E-01 -2.58012045E-01  1.40286557E+00  2.65904141E-02
  5.49819971E-03  0.00000000E+00  1.02496182E+00 -7.56331447E-02  7.20265706E-02
  0.00000000E+00 -1.03085107E+00  4.25291782E-02 -6.57655218E-01  0.00000000E+00
 -8.80653482E-01 -8.78104273E-01 -1.01427955E+00 -3.08947137E-02  0.00000000E+00
  0.00000000E+00  1.19912197E-01 -3.87418741E-01  1.19912197E-01 -3.87418741E-01
 -2.58012045E-01  1.40286557E+00 -2.65904141E-02 -5.49819971E-03  0.00000000E+00
  1.02496182E+00  7.56331447E-02 -7.20265706E-02  0.00000000E+00 -1.03085107E+00
 -4.25291782E-02  6.57655218E-01  0.00000000E+00 -8.80653482E-01 -8.78104273E-01
 -1.01427955E+00 -3.08947137E-02  0.00000000E+00  0.00000000E+00  1.19912197E-01
 -3.87418741E-01  1.19912197E-01 -3.87418741E-01 -2.42649186E-01  1.43232251E+00
 -5.37086683E-03  3.32309031E-02  0.00000000E+00  9.87001158E-01  4.99479801E-02
 -1.97548664E-01  0.00000000E+00  1.24735423E+00  1.08763984E-01  2.96536487E-01
  0.00000000E+00 -9.65589835E-01 -8.24573682E-01 -9.44457451E-01  1.48534730E-02
  0.00000000E+00  0.00000000E+00  1.02986242E-01 -3.59672476E-01  1.10716374E-01
 -4.16257226E-01  1.02986242E-01 -3.59672476E-01  3.30991940E-01 -1.70592019E+00
  2.26143795E-02 -2.54784534E-02  0.00000000E+00 -2.11006640E+00 -1.03082817E-01
  8.08555293E-02  0.00000000E+00 -3.58291418E+00 -2.00957760E-01  8.56504563E-01
  0.00000000E+00  1.23337178E+00  1.16035058E+00  1.24691490E+00  2.60296381E-03
  0.00000000E+00  0.00000000E+00 -1.00326519E-01  4.62232260E-01 -9.90182264E-02
  5.90850036E-01 -9.90182264E-02  5.90850036E-01  1.66526640E-01 -8.17188029E-01
  4.78515128E-02 -7.86898178E-02  0.00000000E+00 -8.59154507E-01 -1.43713700E-01
  4.13067020E-01  0.00000000E+00  4.58069221E+00  5.58420225E-01  1.02534750E+00
  0.00000000E+00  7.00804036E-01  4.68267794E-01  6.30005362E-01 -4.15026361E-02
  0.00000000E+00  0.00000000E+00 -3.77913796E-02  2.43079974E-01 -3.77913796E-02
  2.43079974E-01 -1.66526640E-01  8.17188029E-01  4.78515128E-02 -7.86898178E-02
  0.00000000E+00  8.59154507E-01 -1.43713700E-01  4.13067020E-01  0.00000000E+00
 -4.58069221E+00  5.58420225E-01  1.02534750E+00  0.00000000E+00 -7.00804036E-01
 -4.68267794E-01 -6.30005362E-01  4.15026361E-02  0.00000000E+00  0.00000000E+00
  3.77913796E-02 -2.43079974E-01  3.77913796E-02 -2.43079974E-01 -3.30991940E-01
  1.70592019E+00  2.26143795E-02 -2.54784534E-02  0.00000000E+00  2.11006640E+00
 -1.03082817E-01  8.08555293E-02  0.00000000E+00  3.58291418E+00 -2.00957760E-01
  8.56504563E-01  0.00000000E+00 -1.23337178E+00 -1.16035058E+00 -1.24691490E+00
 -2.60296381E-03  0.00000000E+00  0.00000000E+00  9.90182264E-02 -5.90850036E-01
  1.00326519E-01 -4.62232260E-01  9.90182264E-02 -5.90850036E-01 -2.59581401E-01
  1.40426655E+00 -1.29356638E-02  8.93721992E-02  0.00000000E+00  1.94371177E+00
  7.15621230E-02 -1.87259888E-01  0.00000000E+00  7.40830363E-01 -1.11932270E-03
 -1.62274463E-01  0.00000000E+00 -9.40174684E-01 -1.13005489E+00 -9.59043966E-01
 -9.81625610E-03  0.00000000E+00  0.00000000E+00  4.09406526E-02 -3.19497299E-01
  4.05170313E-02 -3.97785238E-01  4.05170313E-02 -3.97785238E-01  2.58000389E-01
 -1.32420523E+00 -7.07798134E-03  5.62210873E-02  0.00000000E+00 -1.70700662E+00
  1.36446214E-01 -1.39273930E-01  0.00000000E+00 -7.38589880E-01  4.68423350E-02
 -1.36388140E-01  0.00000000E+00  8.51309748E-01  1.10414299E+00  9.60482683E-01
  3.83894663E-02  0.00000000E+00  0.00000000E+00 -5.22397137E-02  4.37757450E-01
 -5.22397137E-02  4.37757450E-01  2.58000389E-01 -1.32420523E+00  7.07798134E-03
 -5.62210873E-02  0.00000000E+00 -1.70700662E+00 -1.36446214E-01  1.39273930E-01
  0.00000000E+00 -7.38589880E-01 -4.68423350E-02  1.36388140E-01  0.00000000E+00
  8.51309748E-01  1.10414299E+00  9.60482683E-01  3.83894663E-02  0.00000000E+00
  0.00000000E+00 -5.22397137E-02  4.37757450E-01 -5.22397137E-02  4.37757450E-01
 -2.59581401E-01  1.40426655E+00  1.29356638E-02 -8.93721992E-02  0.00000000E+00
  1.94371177E+00 -7.15621230E-02  1.87259888E-01  0.00000000E+00  7.40830363E-01
  1.11932270E-03  1.62274463E-01  0.00000000E+00 -9.40174684E-01 -1.13005489E+00
 -9.59043966E-01 -9.81625610E-03  0.00000000E+00  0.00000000E+00  4.05170313E-02
 -3.97785238E-01  4.09406526E-02 -3.19497299E-01  4.05170313E-02 -3.97785238E-01
  1.59282112E-01 -8.72910578E-01 -1.67159074E-02 -6.54831262E-02  0.00000000E+00
 -1.60193834E+00  3.03482741E-02  3.09750417E-01  0.00000000E+00 -1.58361643E+00
 -7.23051145E-03  3.81618492E-01  0.00000000E+00  6.00933748E-01  7.65158605E-01
  5.52266429E-01  3.26249416E-03  0.00000000E+00  0.00000000E+00 -2.30020354E-02
  2.91499286E-01 -1.40431383E-04  1.92900723E-01 -1.40431383E-04  1.92900723E-01
 -3.31698558E-01  1.71158303E+00 -8.67238263E-02 -4.28617515E-02  0.00000000E+00
  3.11211583E+00  3.11499449E-01  6.80053096E-02  0.00000000E+00  3.05449193E+00
  3.76704183E-01  3.34913792E-01  0.00000000E+00 -1.37461164E+00 -1.35005672E+00
 -1.17587725E+00  7.80705886E-02  0.00000000E+00  0.00000000E+00  2.04517948E-02
 -5.09344374E-01  2.04517948E-02 -5.09344374E-01  3.31698558E-01 -1.71158303E+00
 -8.67238263E-02 -4.28617515E-02  0.00000000E+00 -3.11211583E+00  3.11499449E-01
  6.80053096E-02  0.00000000E+00 -3.05449193E+00  3.76704183E-01  3.34913792E-01
  0.00000000E+00  1.37461164E+00  1.35005672E+00  1.17587725E+00 -7.80705886E-02
  0.00000000E+00  0.00000000E+00 -2.04517948E-02  5.09344374E-01 -2.04517948E-02
  5.09344374E-01 -1.59282112E-01  8.72910578E-01 -1.67159074E-02 -6.54831262E-02
  0.00000000E+00  1.60193834E+00  3.03482741E-02  3.09750417E-01  0.00000000E+00
  1.58361643E+00 -7.23051145E-03  3.81618492E-01  0.00000000E+00 -6.00933748E-01
 -7.65158605E-01 -5.52266429E-01 -3.26249416E-03  0.00000000E+00  0.00000000E+00
  1.40431383E-04 -1.92900723E-01  2.30020354E-02 -2.91499286E-01  1.40431383E-04
 -1.92900723E-01
Orthonormal basis                          R   N=        9216
  5.84669923E-03  3.26426840E-02  3.34059175E-03 -1.12660699E-02  0.00000000E+00
  5.10926286E-02  1.10881949E-02 -3.55768752E-02  0.00000000E+00  6.45807370E-02
  1.98798546E-02 -5.34787683E-02  0.00000000E+00  2.44362189E-02  2.88327165E-02
  2.44149861E-02 -9.22710015E-04  0.00000000E+00  0.00000000E+00  1.05113246E-02
  2.68772115E-02  1.45545125E-02  3.49419201E-02  1.45545125E-02  3.49419201E-02
  9.94472465E-03  5.42941875E-02  9.02571916E-03 -7.43309724E-04  0.00000000E+00
  8.02020300E-02  2.56707670E-02 -4.16985306E-03  0.00000000E+00  8.57360740E-02
  2.96544758E-02 -9.71228636E-03  0.00000000E+00  4.42110700E-02  4.38052866E-02
  4.09171727E-02 -2.42094770E-03  0.00000000E+00  0.00000000E+00  2.40930501E-02
  5.46717052E-02  2.40930501E-02  5.46717052E-02  9.94472465E-03  5.42941875E-02
 -9.02571916E-03  7.43309724E-04  0.00000000E+00  8.02020300E-02 -2.56707670E-02
  4.16985306E-03  0.00000000E+00  8.57360740E-02 -2.96544758E-02  9.71228636E-03
  0.00000000E+00  4.42110700E-02  4.38052866E-02  4.09171727E-02 -2.42094770E-03
  0.00000000E+00  0.00000000E+00  2.40930501E-02  5.46717052E-02  2.40930501E-02
  5.46717052E-02  5.84669923E-03  3.26426840E-02 -3.34059175E-03  1.12660699E-02
  0.00000000E+00  5.10926286E-02 -1.10881949E-02  3.55768752E-02  0.00000000E+00
  6.45807370E-02 -1.98798546E-02  5.34787683E-02  0.00000000E+00  2.44362189E-02
  2.88327165E-02  2.44149861E-02 -9.22710015E-04  0.00000000E+00  0.00000000E+00
  1.45545125E-02  3.49419201E-02  1.05113246E-02  2.68772115E-02  1.45545125E-02
  3.49419201E-02  1.98806285E-02  8.98851229E-02 -1.09677611E-02  3.18075475E-02
  0.00000000E+00  8.84300855E-02 -2.62514363E-02  7.76882384E-02  0.00000000E+00
  4.88314216E-02 -2.26563099E-02  6.03737469E-02  0.00000000E+00  7.28217944E-02
  6.15559095E-02  7.24223217E-02  2.36456614E-03  0.00000000E+00  0.00000000E+00
  6.05673742E-02  8.90970913E-02  4.76620030E-02  6.97961559E-02  4.76620030E-02
  6.97961559E-02 -1.25737664E-02 -5.52702189E-02 -2.02957606E-02  3.37479550E-02
  0.00000000E+00 -4.57788879E-02 -3.51023651E-02  7.11299345E-02  0.00000000E+00
  1.23388317E-02 -7.16123195E-03  3.64473767E-02  0.00000000E+00 -5.24030994E-02
 -2.96683675E-02 -4.47256511E-02  1.75183951E-03  0.00000000E+00  0.00000000E+00
 -2.71364178E-02 -3.41985604E-02 -2.71364178E-02 -3.41985604E-02 -1.25737664E-02
 -5.52702189E-02  2.02957606E-02 -3.37479550E-02  0.00000000E+00 -4.57788879E-02
  3.51023651E-02 -7.11299345E-02  0.00000000E+00  1.23388317E-02  7.16123195E-03
 -3.64473767E-02  0.00000000E+00 -5.24030994E-02 -2.96683675E-02 -4.47256511E-02
  1.75183951E-03  0.00000000E+00  0.00000000E+00 -2.71364178E-02 -3.41985604E-02
 -2.71364178E-02 -3.41985604E-02  1.98806285E-02  8.98851229E-02  1.09677611E-02
 -3.18075475E-02  0.00000000E+00  8.84300855E-02  2.62514363E-02 -7.76882384E-02
  0.00000000E+00  4.88314216E-02  2.26563099E-02 -6.03737469E-02  0.00000000E+00
  7.28217944E-02  6.15559095E-02  7.24223217E-02  2.36456614E-03  0.00000000E+00
  0.00000000E+00  4.76620030E-02  6.97961559E-02  6.05673742E-02  8.90970913E-02
  4.76620030E-02  6.97961559E-02  3.21185583E-03  1.33620612E-02  1.32474310E-01
  2.86499955E-02  0.00000000E+00  8.37576587E-03  2.01378419E-01  4.56454600E-02
  0.00000000E+00 -1.00574950E-02  1.15699692E-01  3.48280911E-02  0.00000000E+00
 -3.25320031E-04  5.16503949E-03  2.52625863E-02  1.79973730E-03  0.00000000E+00
  0.00000000E+00 -1.00139545E-01 -1.01727628E-01  7.31343524E-02  7.13794810E-02
  7.31343524E-02  7.13794810E-02 -3.77740793E-03 -1.80836354E-02  9.59197378E-02
 -2.36179456E-02  0.00000000E+00 -1.75826021E-02  1.35811245E-01 -3.37233407E-02
  0.00000000E+00 -1.68092925E-02  6.37956964E-02 -2.32187701E-02  0.00000000E+00
 -1.53684787E-02 -6.02217433E-03 -1.99655196E-02  1.46454603E-02  0.00000000E+00
  0.00000000E+00 -4.07879115E-02 -4.09902042E-02 -4.07879115E-02 -4.09902042E-02
 -3.77740793E-03 -1.80836354E-02 -9.59197378E-02  2.36179456E-02  0.00000000E+00
 -1.75826021E-02 -1.35811245E-01  3.37233407E-02  0.00000000E+00 -1.68092925E-02
 -6.37956964E-02  2.32187701E-02  0.00000000E+00 -1.53684787E-02 -6.02217433E-03
 -1.99655196E-02  1.46454603E-02  0.00000000E+00  0.00000000E+00 -4.07879115E-02
 -4.09902042E-02 -4.07879115E-02 -4.09902042E-02  3.21185583E-03  1.33620612E-02
 -1.32474310E-01 -2.86499955E-02  0.00000000E+00  8.37576587E-03 -2.01378419E-01
 -4.56454600E-02  0.00000000E+00 -1.00574950E-02 -1.15699692E-01 -3.48280911E-02
  0.00000000E+00 -3.25320031E-04  5.16503949E-03  2.52625863E-02  1.79973730E-03
  0.00000000E+00  0.00000000E+00  7.31343524E-02  7.13794810E-02 -1.00139545E-01
 -1.01727628E-01  7.31343524E-02  7.13794810E-02  1.93255488E-02  7.89962379E-02
 -3.91563999E-02 -1.02700295E-01  0.00000000E+00  3.29643217E-02 -4.27241433E-02
 -9.17639478E-02  0.00000000E+00 -8.97860166E-02 -5.15060125E-02  4.72373972E-02
  0.00000000E+00  4.84331548E-02  9.48928578E-02  3.33036623E-02 -2.98946016E-02
  0.00000000E+00  0.00000000E+00  3.41636533E-02  1.59732952E-02 -4.11157763E-02
 -4.45932998E-02 -4.11157763E-02 -4.45932998E-02  2.36551076E-02  1.03239483E-01
  1.58722384E-01  8.54748319E-02  0.00000000E+00  3.99602680E-02  1.44869970E-01
  8.10316756E-02  0.00000000E+00 -1.15542975E-01 -5.90214019E-03  3.36405263E-02
  0.00000000E+00  9.15010404E-02  1.14066119E-01  2.72059959E-02 -8.34738373E-02
  0.00000000E+00  0.00000000E+00 -9.51239007E-02 -8.45152486E-02 -9.51239007E-02
 -8.45152486E-02  2.36551076E-02  1.03239483E-01 -1.58722384E-01 -8.54748319E-02
  0.00000000E+00  3.99602680E-02 -1.44869970E-01 -8.10316756E-02  0.00000000E+00
 -1.15542975E-01  5.90214019E-03 -3.36405263E-02  0.00000000E+00  9.15010404E-02
  1.14066119E-01  2.72059959E-02 -8.34738373E-02  0.00000000E+00  0.00000000E+00
 -9.51239007E-02 -8.45152486E-02 -9.51239007E-02 -8.45152486E-02  1.93255488E-02
  7.89962379E-02  3.91563999E-02  1.02700295E-01  0.00000000E+00  3.29643217E-02
  4.27241433E-02  9.17639478E-02  0.00000000E+00 -8.97860166E-02  5.15060125E-02
 -4.72373972E-02  0.00000000E+00  4.84331548E-02  9.48928578E-02  3.33036623E-02
 -2.98946016E-02  0.00000000E+00  0.00000000E+00 -4.11157763E-02 -4.45932998E-02
  3.41636533E-02  1.59732952E-02 -4.11157763E-02 -4.45932998E-02  2.58020607E-02
  7.95135119E-02  7.40480730E-02 -1.85690778E-01  0.00000000E+00  1.20124481E-02
  5.65139242E-02 -1.51059128E-01  0.00000000E+00 -5.67730489E-02  3.85871891E-02
 -8.65450157E-02  0.00000000E+00  2.25790230E-02  8.28462631E-02  6.52911749E-02
  7.36553298E-02  0.00000000E+00  0.00000000E+00 -1.45389929E-01 -1.08081895E-01
  5.77521581E-03 -1.79137614E-02  5.77521581E-03 -1.79137614E-02 -1.31310128E-02
 -4.29137795E-02 -1.78016305E-01  1.95666786E-01  0.00000000E+00 -1.36864897E-02
 -1.18020683E-01  1.18346276E-01  0.00000000E+00 -1.51272232E-02  2.65935729E-03
 -3.54561351E-02  0.00000000E+00 -9.89991182E-02  3.44145628E-02 -2.81266770E-02
  5.04091106E-02  0.00000000E+00  0.00000000E+00  8.69539219E-03  9.61724435E-03
  8.69539219E-03  9.61724435E-03 -1.31310128E-02 -4.29137795E-02  1.78016305E-01
 -1.95666786E-01  0.00000000E+00 -1.36864897E-02  1.18020683E-01 -1.18346276E-01
  0.00000000E+00 -1.51272232E-02 -2.65935729E-03  3.54561351E-02  0.00000000E+00
 -9.89991182E-02  3.44145628E-02 -2.81266770E-02  5.04091106E-02  0.00000000E+00
  0.00000000E+00  8.69539219E-03  9.61724435E-03  8.69539219E-03  9.61724435E-03
  2.58020607E-02  7.95135119E-02 -7.40480730E-02  1.85690778E-01  0.00000000E+00
  1.20124481E-02 -5.65139242E-02  1.51059128E-01  0.00000000E+00 -5.67730489E-02
 -3.85871891E-02  8.65450157E-02  0.00000000E+00  2.25790230E-02  8.28462631E-02
  6.52911749E-02  7.36553298E-02  0.00000000E+00  0.00000000E+00  5.77521581E-03
 -1.79137614E-02 -1.45389929E-01 -1.08081895E-01  5.77521581E-03 -1.79137614E-02
 -1.78937989E-02 -2.51703313E-02  1.34874330E-02  8.73317642E-02  0.00000000E+00
  5.39538150E-03 -2.12533823E-02  5.32790943E-02  0.00000000E+00 -1.03037337E-02
 -4.19836714E-02  9.84375340E-02  0.00000000E+00 -7.64732577E-02  6.77682454E-03
  2.27133957E-02  3.62530434E-01  0.00000000E+00  0.00000000E+00 -1.41841791E-01
 -1.04039237E-02  9.77779374E-02  2.77521544E-02  9.77779374E-02  2.77521544E-02
  3.58329138E-02  1.20356334E-01 -1.01339170E-01 -2.68563803E-02  0.00000000E+00
  1.64276395E-02 -9.90929326E-02  3.10380305E-02  0.00000000E+00 -5.72743318E-02
 -2.75303479E-02  4.24069769E-02  0.00000000E+00  1.86017974E-01  1.19943044E-02
  6.06116102E-02 -2.81414582E-01  0.00000000E+00  0.00000000E+00  1.01953089E-02
 -1.81153889E-02  1.01953089E-02 -1.81153889E-02  3.58329138E-02  1.20356334E-01
  1.01339170E-01  2.68563803E-02  0.00000000E+00  1.64276395E-02  9.90929326E-02
 -3.10380305E-02  0.00000000E+00 -5.72743318E-02  2.75303479E-02 -4.24069769E-02
  0.00000000E+00  1.86017974E-01  1.19943044E-02  6.06116102E-02 -2.81414582E-01
  0.00000000E+00  0.00000000E+00  1.01953089E-02 -1.81153889E-02  1.01953089E-02
 -1.81153889E-02 -1.78937989E-02 -2.51703313E-02 -1.34874330E-02 -8.73317642E-02
  0.00000000E+00  5.39538150E-03  2.12533823E-02 -5.32790943E-02  0.00000000E+00
 -1.03037337E-02  4.19836714E-02 -9.84375340E-02  0.00000000E+00 -7.64732577E-02
  6.77682454E-03  2.27133957E-02  3.62530434E-01  0.00000000E+00  0.00000000E+00
  9.77779374E-02  2.77521544E-02 -1.41841791E-01 -1.04039237E-02  9.77779374E-02
  2.77521544E-02  5.04823256E-02  1.19840209E-01  6.40205723E-02  1.58620194E-01
  0.00000000E+00  2.12022006E-02  2.60487520E-02  7.37066894E-02  0.00000000E+00
 -1.56317300E-01 -1.32581229E-02  1.04601781E-01  0.00000000E+00  5.39448061E-02
  1.38518311E-01  5.65064293E-02 -1.05495376E-01  0.00000000E+00  0.00000000E+00
  2.23970297E-02 -3.44216049E-02  2.34234522E-02 -3.40755327E-02  2.34234522E-02
 -3.40755327E-02  6.66117262E-02  1.57374359E-01 -2.15337047E-01 -1.15999299E-01
  0.00000000E+00  4.77219663E-02 -2.06328719E-02 -5.64907894E-02  0.00000000E+00
 -1.95319456E-01 -2.00638318E-04  2.23361148E-02  0.00000000E+00  6.93601802E-02
  1.20922723E-01  1.36362113E-01  2.57452193E-01  0.00000000E+00  0.00000000E+00
  1.33548404E-01 -3.20091487E-02  1.33548404E-01 -3.20091487E-02  6.66117262E-02
  1.57374359E-01  2.15337047E-01  1.15999299E-01  0.00000000E+00  4.77219663E-02
  2.06328719E-02  5.64907894E-02  0.00000000E+00 -1.95319456E-01  2.00638318E-04
 -2.23361148E-02  0.00000000E+00  6.93601802E-02  1.20922723E-01  1.36362113E-01
  2.57452193E-01  0.00000000E+00  0.00000000E+00  1.33548404E-01 -3.20091487E-02
  1.33548404E-01 -3.20091487E-02  5.04823256E-02  1.19840209E-01 -6.40205723E-02
 -1.58620194E-01  0.00000000E+00  2.12022006E-02 -2.60487520E-02 -7.37066894E-02
  0.00000000E+00 -1.56317300E-01  1.32581229E-02 -1.04601781E-01  0.00000000E+00
  5.39448061E-02  1.38518311E-01  5.65064293E-02 -1.05495376E-01  0.00000000E+00
  0.00000000E+00  2.34234522E-02 -3.40755327E-02  2.23970297E-02 -3.44216049E-02
  2.34234522E-02 -3.40755327E-02  2.54706676E-01  1.90838244E-01 -9.71687602E-02
  1.18234463E-01  0.00000000E+00  1.01648212E-02 -1.35662476E-02 -7.17142068E-02
  0.00000000E+00 -1.62849554E-01  6.26536463E-02 -2.34687999E-01  0.00000000E+00
  2.06455522E-01 -5.67175633E-02  1.72351320E-01  9.45515793E-02  0.00000000E+00
  0.00000000E+00  3.89967634E-02 -9.13565081E-02 -6.27382671E-04 -8.28419436E-02
 -6.27382671E-04 -8.28419436E-02 -1.21201975E-01 -9.66286157E-02  8.14137138E-02
 -2.25013044E-01  0.00000000E+00 -1.28874164E-02 -8.89657051E-03 -3.06966789E-02
  0.00000000E+00 -5.18155580E-02  1.02339439E-02 -9.02242664E-02  0.00000000E+00
  6.94474149E-03 -1.16575348E-01 -5.65882392E-02 -1.37672197E-01  0.00000000E+00
  0.00000000E+00  3.14565615E-02  2.99349800E-02  3.14565615E-02  2.99349800E-02
 -1.21201975E-01 -9.66286157E-02 -8.14137138E-02  2.25013044E-01  0.00000000E+00
 -1.28874164E-02  8.89657051E-03  3.06966789E-02  0.00000000E+00 -5.18155580E-02
 -1.02339439E-02  9.02242664E-02  0.00000000E+00  6.94474149E-03 -1.16575348E-01
 -5.65882392E-02 -1.37672197E-01  0.00000000E+00  0.00000000E+00  3.14565615E-02
  2.99349800E-02  3.14565615E-02  2.99349800E-02  2.54706676E-01  1.90838244E-01
  9.71687602E-02 -1.18234463E-01  0.00000000E+00  1.01648212E-02  1.35662476E-02
  7.17142068E-02  0.00000000E+00 -1.62849554E-01 -6.26536463E-02  2.34687999E-01
  0.00000000E+00  2.06455522E-01 -5.67175633E-02  1.72351320E-01  9.45515793E-02
  0.00000000E+00  0.00000000E+00 -6.27382671E-04 -8.28419436E-02  3.89967634E-02
 -9.13565081E-02 -6.27382671E-04 -8.28419436E-02  2.36624817E-01 -5.84918772E-03
 -1.34468925E-02  1.42525785E-02  0.00000000E+00  5.60227371E-03 -5.01387727E-03
 -2.00929126E-02  0.00000000E+00  9.14588926E-03  6.68667459E-03 -2.51551632E-02
  0.00000000E+00 -7.24660018E-03 -7.03090486E-02 -6.40851072E-03  1.00455184E-02
  0.00000000E+00  0.00000000E+00 -7.90540433E-04 -4.98127074E-04 -3.71792955E-03
  1.43032798E-03 -3.71792955E-03  1.43032798E-03  6.53062485E-01 -6.62984199E-03
 -6.31993062E-03  5.88127022E-03  0.00000000E+00  1.25074640E-02  1.15768180E-02
  1.09024534E-02  0.00000000E+00  1.92962002E-02  3.64161221E-03 -6.53778417E-03
  0.00000000E+00 -7.86111565E-02 -8.47582314E-02 -4.64838784E-02 -7.26878906E-03
  0.00000000E+00  0.00000000E+00 -3.79757565E-02  1.34778559E-03 -3.79757565E-02
  1.34778559E-03  6.53062485E-01 -6.62984199E-03  6.31993062E-03 -5.88127022E-03
  0.00000000E+00  1.25074640E-02 -1.15768180E-02 -1.09024534E-02  0.00000000E+00
  1.92962002E-02 -3.64161221E-03  6.53778417E-03  0.00000000E+00 -7.86111565E-02
 -8.47582314E-02 -4.64838784E-02 -7.26878906E-03  0.00000000E+00  0.00000000E+00
 -3.79757565E-02  1.34778559E-03 -3.79757565E-02  1.34778559E-03  2.36624817E-01
 -5.84918772E-03  1.34468925E-02 -1.42525785E-02  0.00000000E+00  5.60227371E-03
  5.01387727E-03  2.00929126E-02  0.00000000E+00  9.14588926E-03 -6.68667459E-03
  2.51551632E-02  0.00000000E+00 -7.24660018E-03 -7.03090486E-02 -6.40851072E-03
  1.00455184E-02  0.00000000E+00  0.00000000E+00 -3.71792955E-03  1.43032798E-03
 -7.90540433E-04 -4.98127074E-04 -3.71792955E-03  1.43032798E-03  6.03240592E-01
 -6.09077108E-02  6.61847869E-02 -5.30099662E-02  0.00000000E+00  7.48688916E-03
  1.34279192E-03  4.25802141E-02  0.00000000E+00  9.36431584E-02 -5.69526924E-02
  1.16973523E-01  0.00000000E+00 -1.66241211E-01 -1.03332781E-03 -1.32628460E-01
 -2.99885384E-02  0.00000000E+00  0.00000000E+00 -8.18229110E-02  4.88851410E-02
 -4.44320102E-02  3.18921757E-02 -4.44320102E-02  3.18921757E-02 -2.02415108E-01
  2.64770242E-02  2.65618961E-03  4.76734792E-02  0.00000000E+00  3.20797261E-04
 -1.96436531E-03  9.16550941E-03  0.00000000E+00  3.79733671E-02 -2.04519676E-02
  4.91740551E-02  0.00000000E+00  3.67400411E-02  4.61936693E-02  3.04450746E-02
  3.56676688E-02  0.00000000E+00  0.00000000E+00  3.67954241E-03 -4.50275658E-03
  3.67954241E-03 -4.50275658E-03 -2.02415108E-01  2.64770242E-02 -2.65618961E-03
 -4.76734792E-02  0.00000000E+00  3.20797261E-04  1.96436531E-03 -9.16550941E-03
  0.00000000E+00  3.79733671E-02  2.04519676E-02 -4.91740551E-02  0.00000000E+00
  3.67400411E-02  4.61936693E-02  3.04450746E-02  3.56676688E-02  0.00000000E+00
  0.00000000E+00  3.67954241E-03 -4.50275658E-03  3.67954241E-03 -4.50275658E-03
  6.03240592E-01 -6.09077108E-02 -6.61847869E-02  5.30099662E-02  0.00000000E+00
  7.48688916E-03 -1.34279192E-03 -4.25802141E-02  0.00000000E+00  9.36431584E-02
  5.69526924E-02 -1.16973523E-01  0.00000000E+00 -1.66241211E-01 -1.03332781E-03
 -1.32628460E-01 -2.99885384E-02  0.00000000E+00  0.00000000E+00 -4.44320102E-02
  3.18921757E-02 -8.18229110E-02  4.88851410E-02 -4.44320102E-02  3.18921757E-02
  3.37491628E-02  1.55919567E-04 -3.65382161E-01  1.01221944E-01  0.00000000E+00
 -8.60350322E-03  4.57792660E-02  1.03104861E-01  0.00000000E+00 -1.85172660E-02
  3.68541102E-01  5.49702197E-02  0.00000000E+00  1.55156732E-02  2.23944173E-01
 -2.43767250E-01  8.32006665E-02  0.00000000E+00  0.00000000E+00  1.17784308E-01
 -9.96445906E-02 -1.18026393E-01  4.97560528E-02 -1.18026393E-01  4.97560528E-02
 -3.76388577E-03  7.09078390E-03 -1.13842086E-01  1.26069099E-01  0.00000000E+00
 -2.05048132E-02  1.49353272E-02 -4.69363559E-02  0.00000000E+00 -8.37145084E-03
  1.67207443E-01 -1.00989718E-01  0.00000000E+00 -8.88044681E-02  9.72903136E-02
  5.81090131E-03 -1.10137192E-01  0.00000000E+00  0.00000000E+00 -1.13083883E-02
 -4.74723027E-03 -1.13083883E-02 -4.74723027E-03 -3.76388577E-03  7.09078390E-03
  1.13842086E-01 -1.26069099E-01  0.00000000E+00 -2.05048132E-02 -1.49353272E-02
  4.69363559E-02  0.00000000E+00 -8.37145084E-03 -1.67207443E-01  1.00989718E-01
  0.00000000E+00 -8.88044681E-02  9.72903136E-02  5.81090131E-03 -1.10137192E-01
  0.00000000E+00  0.00000000E+00 -1.13083883E-02 -4.74723027E-03 -1.13083883E-02
 -4.74723027E-03  3.37491628E-02  1.55919567E-04  3.65382161E-01 -1.01221944E-01
  0.00000000E+00 -8.60350322E-03 -4.57792660E-02 -1.03104861E-01  0.00000000E+00
 -1.85172660E-02 -3.68541102E-01 -5.49702197E-02  0.00000000E+00  1.55156732E-02
  2.23944173E-01 -2.43767250E-01  8.32006665E-02  0.00000000E+00  0.00000000E+00
 -1.18026393E-01  4.97560528E-02  1.17784308E-01 -9.96445906E-02 -1.18026393E-01
  4.97560528E-02  9.57228773E-03 -2.08475081E-02 -9.45170851E-02  1.67276501E-01
  0.00000000E+00  6.71857012E-03 -4.49173296E-02 -1.48998243E-02  0.00000000E+00
 -4.74332960E-02  3.56915254E-03 -2.75251573E-02  0.00000000E+00 -1.75120622E-01
 -3.95143722E-02  1.72961375E-01 -1.26620988E-01  0.00000000E+00  0.00000000E+00
 -3.43629362E-02 -2.84774719E-02  5.58728032E-02 -2.63898093E-03  5.58728032E-02
 -2.63898093E-03 -3.03911379E-02  5.16412628E-03  9.06041869E-02  2.77890157E-01
  0.00000000E+00  1.04438309E-02  9.07694094E-02  9.21197811E-02  0.00000000E+00
 -3.94854976E-02  4.06856967E-02  9.38869552E-03  0.00000000E+00 -1.92563676E-01
 -2.80049894E-01  4.84134734E-01 -1.07913740E-01  0.00000000E+00  0.00000000E+00
  1.05314431E-01 -6.71144700E-03  1.05314431E-01 -6.71144700E-03 -3.03911379E-02
  5.16412628E-03 -9.06041869E-02 -2.77890157E-01  0.00000000E+00  1.04438309E-02
 -9.07694094E-02 -9.21197811E-02  0.00000000E+00 -3.94854976E-02 -4.06856967E-02
 -9.38869552E-03  0.00000000E+00 -1.92563676E-01 -2.80049894E-01  4.84134734E-01
 -1.07913740E-01  0.00000000E+00  0.00000000E+00  1.05314431E-01 -6.71144700E-03
  1.05314431E-01 -6.71144700E-03  9.57228773E-03 -2.08475081E-02  9.45170851E-02
 -1.67276501E-01  0.00000000E+00  6.71857012E-03  4.49173296E-02  1.48998243E-02
  0.00000000E+00 -4.74332960E-02 -3.56915254E-03  2.75251573E-02  0.00000000E+00
 -1.75120622E-01 -3.95143722E-02  1.72961375E-01 -1.26620988E-01  0.00000000E+00
  0.00000000E+00  5.58728032E-02 -2.63898093E-03 -3.43629362E-02 -2.84774719E-02
  5.58728032E-02 -2.63898093E-03 -2.71564599E-03 -7.65011387E-03 -2.99239627E-01
 -2.19641094E-01  0.00000000E+00  1.33924309E-03 -6.68728905E-02 -1.16479702E-02
  0.00000000E+00  3.63057414E-02 -1.56543726E-02  1.02062573E-01  0.00000000E+00
 -1.33579522E-01 -7.61289741E-02  1.91600863E-01  3.30878302E-01  0.00000000E+00
  0.00000000E+00 -7.84029819E-02  3.36387429E-02  3.91365843E-02  1.88939531E-02
  3.91365843E-02  1.88939531E-02 -8.55161200E-03 -1.47524982E-02  1.13279907E-01
 -2.34102687E-01  0.00000000E+00  1.87621190E-02  1.18107289E-01 -4.74716074E-02
  0.00000000E+00 -1.15316815E-02  3.26619499E-02  4.17313074E-02  0.00000000E+00
 -2.99647596E-01  1.75505145E-01  9.68545040E-02  2.72456704E-01  0.00000000E+00
  0.00000000E+00  2.65742424E-02 -2.39863643E-02  2.65742424E-02 -2.39863643E-02
 -8.55161200E-03 -1.47524982E-02 -1.13279907E-01  2.34102687E-01  0.00000000E+00
  1.87621190E-02 -1.18107289E-01  4.74716074E-02  0.00000000E+00 -1.15316815E-02
 -3.26619499E-02 -4.17313074E-02  0.00000000E+00 -2.99647596E-01  1.75505145E-01
  9.68545040E-02  2.72456704E-01  0.00000000E+00  0.00000000E+00  2.65742424E-02
 -2.39863643E-02  2.65742424E-02 -2.39863643E-02 -2.71564599E-03 -7.65011387E-03
  2.99239627E-01  2.19641094E-01  0.00000000E+00  1.33924309E-03  6.68728905E-02
  1.16479702E-02  0.00000000E+00  3.63057414E-02  1.56543726E-02 -1.02062573E-01
  0.00000000E+00 -1.33579522E-01 -7.61289741E-02  1.91600863E-01  3.30878302E-01
  0.00000000E+00  0.00000000E+00  3.91365843E-02  1.88939531E-02 -7.84029819E-02
  3.36387429E-02  3.91365843E-02  1.88939531E-02 -3.78364687E-02  8.45846779E-02
  7.72126856E-02  3.28584254E-01  0.00000000E+00 -2.01682367E-02 -5.08166437E-02
  8.03460885E-02  0.00000000E+00  2.27395841E-03 -1.74418449E-01 -1.89985814E-01
  0.00000000E+00 -2.20695522E-01  4.15647274E-01 -1.93997680E-02  1.15488478E-01
  0.00000000E+00  0.00000000E+00 -1.80382599E-01  1.40356730E-02 -6.47341245E-02
 -8.27654457E-02 -6.47341245E-02 -8.27654457E-02  3.45330176E-02 -6.62434128E-02
  2.42832361E-01  6.72617365E-02  0.00000000E+00 -1.36627169E-02 -1.19352973E-02
 -5.42768558E-02  0.00000000E+00  7.71284167E-02 -1.18196872E-01 -1.85508478E-02
  0.00000000E+00 -1.27318086E-01  1.09903086E-01 -1.22134068E-01  8.14038827E-02
  0.00000000E+00  0.00000000E+00 -1.97930534E-02  7.00098368E-02 -1.97930534E-02
  7.00098368E-02  3.45330176E-02 -6.62434128E-02 -2.42832361E-01 -6.72617365E-02
  0.00000000E+00 -1.36627169E-02  1.19352973E-02  5.42768558E-02  0.00000000E+00
  7.71284167E-02  1.18196872E-01  1.85508478E-02  0.00000000E+00 -1.27318086E-01
  1.09903086E-01 -1.22134068E-01  8.14038827E-02  0.00000000E+00  0.00000000E+00
 -1.97930534E-02  7.00098368E-02 -1.97930534E-02  7.00098368E-02 -3.78364687E-02
  8.45846779E-02 -7.72126856E-02 -3.28584254E-01  0.00000000E+00 -2.01682367E-02
  5.08166437E-02 -8.03460885E-02  0.00000000E+00  2.27395841E-03  1.74418449E-01
  1.89985814E-01  0.00000000E+00 -2.20695522E-01  4.15647274E-01 -1.93997680E-02
  1.15488478E-01  0.00000000E+00  0.00000000E+00 -6.47341245E-02 -8.27654457E-02
 -1.80382599E-01  1.40356730E-02 -6.47341245E-02 -8.27654457E-02 -3.51012940E-04
 -9.28772159E-04  2.89268138E-01  2.20399777E-03  0.00000000E+00  3.91108964E-03
  4.51038655E-02 -1.13377240E-02  0.00000000E+00 -1.26944243E-03 -1.00032517E-01
  1.03210065E-02  0.00000000E+00  3.68243552E-01 -1.68196378E-02 -3.52902026E-01
  3.47750190E-01  0.00000000E+00  0.00000000E+00  1.58160183E-01  7.32439746E-02
 -7.33818357E-02 -3.58000491E-02 -7.33818357E-02 -3.58000491E-02 -8.38408204E-03
 -1.62239598E-02  8.45177514E-02  5.60122294E-02  0.00000000E+00  1.96038570E-02
  9.32129189E-02 -3.31203195E-03  0.00000000E+00 -1.32277164E-02 -2.46790712E-02
  3.24332911E-02  0.00000000E+00 -2.15624061E-01 -5.73263438E-02  2.39626652E-01
  5.24852702E-02  0.00000000E+00  0.00000000E+00  6.76189092E-02 -3.71689016E-03
  6.76189092E-02 -3.71689016E-03 -8.38408204E-03 -1.62239598E-02 -8.45177514E-02
 -5.60122294E-02  0.00000000E+00  1.96038570E-02 -9.32129189E-02  3.31203195E-03
  0.00000000E+00 -1.32277164E-02  2.46790712E-02 -3.24332911E-02  0.00000000E+00
 -2.15624061E-01 -5.73263438E-02  2.39626652E-01  5.24852702E-02  0.00000000E+00
  0.00000000E+00  6.76189092E-02 -3.71689016E-03  6.76189092E-02 -3.71689016E-03
 -3.51012940E-04 -9.28772159E-04 -2.89268138E-01 -2.20399777E-03  0.00000000E+00
  3.91108964E-03 -4.51038655E-02  1.13377240E-02  0.00000000E+00 -1.26944243E-03
  1.00032517E-01 -1.03210065E-02  0.00000000E+00  3.68243552E-01 -1.68196378E-02
 -3.52902026E-01  3.47750190E-01  0.00000000E+00  0.00000000E+00 -7.33818357E-02
 -3.58000491E-02  1.58160183E-01  7.32439746E-02 -7.33818357E-02 -3.58000491E-02
  4.23094686E-02 -9.97557337E-02 -1.82441336E-01  1.76079316E-01  0.00000000E+00
  5.80539164E-03 -1.73967722E-02 -4.95861174E-02  0.00000000E+00 -6.92062110E-02
  4.74069840E-02 -1.39944034E-01  0.00000000E+00  3.01165149E-02 -1.50502581E-01
 -4.89399835E-02  2.45278520E-01  0.00000000E+00  0.00000000E+00  1.07127609E-01
 -2.23140807E-02  1.42202906E-01  1.08846503E-02  1.42202906E-01  1.08846503E-02
 -4.09896309E-02  6.87036367E-02  1.21542974E-01  3.29323854E-01  0.00000000E+00
  2.83377363E-04 -3.33933106E-02  5.95023518E-02  0.00000000E+00 -1.30021207E-02
  3.32419131E-03 -3.95162368E-02  0.00000000E+00  3.59581566E-01 -1.65656259E-01
 -7.97411537E-02  5.10490319E-01  0.00000000E+00  0.00000000E+00 -1.07071203E-01
 -1.89054979E-02 -1.07071203E-01 -1.89054979E-02 -4.09896309E-02  6.87036367E-02
 -1.21542974E-01 -3.29323854E-01  0.00000000E+00  2.83377363E-04  3.33933106E-02
 -5.95023518E-02  0.00000000E+00 -1.30021207E-02 -3.32419131E-03  3.95162368E-02
  0.00000000E+00  3.59581566E-01 -1.65656259E-01 -7.97411537E-02  5.10490319E-01
  0.00000000E+00  0.00000000E+00 -1.07071203E-01 -1.89054979E-02 -1.07071203E-01
 -1.89054979E-02  4.23094686E-02 -9.97557337E-02  1.82441336E-01 -1.76079316E-01
  0.00000000E+00  5.80539164E-03  1.73967722E-02  4.95861174E-02  0.00000000E+00
 -6.92062110E-02 -4.74069840E-02  1.39944034E-01  0.00000000E+00  3.01165149E-02
 -1.50502581E-01 -4.89399835E-02  2.45278520E-01  0.00000000E+00  0.00000000E+00
  1.42202906E-01  1.08846503E-02  1.07127609E-01 -2.23140807E-02  1.42202906E-01
  1.08846503E-02 -6.52128079E-02  1.79440404E-01 -9.35072947E-02 -1.45024667E-01
  0.00000000E+00 -7.89285788E-04  1.19453390E-02  7.10133544E-02  0.00000000E+00
  1.19596508E-01  6.72373841E-02  3.45684805E-01  0.00000000E+00  1.55984057E-01
  5.94291641E-02  6.80363619E-02  3.06552182E-02  0.00000000E+00  0.00000000E+00
 -3.06477966E-01 -5.28832067E-02 -2.60460683E-01  8.54171415E-03 -2.60460683E-01
  8.54171415E-03  6.95522919E-02 -9.50714865E-02  2.98985021E-01  7.09907107E-02
  0.00000000E+00 -1.89455820E-04 -9.85565975E-02 -3.17022654E-03  0.00000000E+00
 -3.99947097E-03  2.08886282E-02  4.46370093E-02  0.00000000E+00  2.72320458E-01
 -3.03327785E-01 -8.98824724E-02  9.47345616E-02  0.00000000E+00  0.00000000E+00
  2.88227001E-01  4.85858648E-02  2.88227001E-01  4.85858648E-02  6.95522919E-02
 -9.50714865E-02 -2.98985021E-01 -7.09907107E-02  0.00000000E+00 -1.89455820E-04
  9.85565975E-02  3.17022654E-03  0.00000000E+00 -3.99947097E-03 -2.08886282E-02
 -4.46370093E-02  0.00000000E+00  2.72320458E-01 -3.03327785E-01 -8.98824724E-02
  9.47345616E-02  0.00000000E+00  0.00000000E+00  2.88227001E-01  4.85858648E-02
  2.88227001E-01  4.85858648E-02 -6.52128079E-02  1.79440404E-01  9.35072947E-02
  1.45024667E-01  0.00000000E+00 -7.89285788E-04 -1.19453390E-02 -7.10133544E-02
  0.00000000E+00  1.19596508E-01 -6.72373841E-02 -3.45684805E-01  0.00000000E+00
  1.55984057E-01  5.94291641E-02  6.80363619E-02  3.06552182E-02  0.00000000E+00
  0.00000000E+00 -2.60460683E-01  8.54171415E-03 -3.06477966E-01 -5.28832067E-02
 -2.60460683E-01  8.54171415E-03  5.70505540E-02 -9.87273138E-02  3.05282546E-02
 -2.72424619E-01  0.00000000E+00 -2.41295483E-02 -6.06519947E-03  9.83086636E-02
  0.00000000E+00 -1.81250762E-01  3.23907695E-02 -4.30271754E-02  0.00000000E+00
 -1.21492541E-01  1.10191127E-01 -1.04616721E-01 -2.82713584E-02  0.00000000E+00
  0.00000000E+00  3.24735449E-01  3.27859871E-03  3.36152780E-01 -1.92992460E-03
  3.36152780E-01 -1.92992460E-03  5.78416073E-02 -7.45741176E-02  3.20772618E-01
  1.57067114E-01  0.00000000E+00 -3.21914442E-02 -1.21045586E-01 -6.96681996E-02
  0.00000000E+00 -1.55440752E-01 -7.50442996E-03 -3.18894757E-02  0.00000000E+00
 -1.73412326E-02  1.57779064E-01 -2.13005949E-01 -1.36425767E-01  0.00000000E+00
  0.00000000E+00  3.80602709E-01  5.19316659E-02  3.80602709E-01  5.19316659E-02
  5.78416073E-02 -7.45741176E-02 -3.20772618E-01 -1.57067114E-01  0.00000000E+00
 -3.21914442E-02  1.21045586E-01  6.96681996E-02  0.00000000E+00 -1.55440752E-01
  7.50442996E-03  3.18894757E-02  0.00000000E+00 -1.73412326E-02  1.57779064E-01
 -2.13005949E-01 -1.36425767E-01  0.00000000E+00  0.00000000E+00  3.80602709E-01
  5.19316659E-02  3.80602709E-01  5.19316659E-02  5.70505540E-02 -9.87273138E-02
 -3.05282546E-02  2.72424619E-01  0.00000000E+00 -2.41295483E-02  6.06519947E-03
 -9.83086636E-02  0.00000000E+00 -1.81250762E-01 -3.23907695E-02  4.30271754E-02
  0.00000000E+00 -1.21492541E-01  1.10191127E-01 -1.04616721E-01 -2.82713584E-02
  0.00000000E+00  0.00000000E+00  3.36152780E-01 -1.92992460E-03  3.24735449E-01
  3.27859871E-03  3.36152780E-01 -1.92992460E-03 -1.57763045E-03  6.81213406E-03
  4.95976582E-01 -1.77794473E-02  0.00000000E+00  4.15043075E-03 -1.61258147E-01
  3.26510081E-02  0.00000000E+00 -2.96934468E-02  3.67146978E-01  7.17638340E-02
  0.00000000E+00 -3.89686621E-01 -2.63612399E-02  4.25313104E-01  2.76300139E-01
  0.00000000E+00  0.00000000E+00  4.60166457E-01  1.59974421E-01 -2.66567969E-01
 -7.27949938E-02 -2.66567969E-01 -7.27949938E-02 -5.63387232E-03 -3.04203312E-02
 -4.89701825E-02  7.24027258E-02  0.00000000E+00  3.82616183E-03  6.22454645E-02
 -4.03447251E-02  0.00000000E+00 -2.59114503E-02  2.10089624E-01 -9.36674723E-02
  0.00000000E+00  7.36121249E-02 -5.25451532E-02 -7.86572633E-02  3.56615272E-02
  0.00000000E+00  0.00000000E+00 -2.37083583E-03  6.09128823E-03 -2.37083583E-03
  6.09128823E-03 -5.63387232E-03 -3.04203312E-02  4.89701825E-02 -7.24027258E-02
  0.00000000E+00  3.82616183E-03 -6.22454645E-02  4.03447251E-02  0.00000000E+00
 -2.59114503E-02 -2.10089624E-01  9.36674723E-02  0.00000000E+00  7.36121249E-02
 -5.25451532E-02 -7.86572633E-02  3.56615272E-02  0.00000000E+00  0.00000000E+00
 -2.37083583E-03  6.09128823E-03 -2.37083583E-03  6.09128823E-03 -1.57763045E-03
  6.81213406E-03 -4.95976582E-01  1.77794473E-02  0.00000000E+00  4.15043075E-03
  1.61258147E-01 -3.26510081E-02  0.00000000E+00 -2.96934468E-02 -3.67146978E-01
 -7.17638340E-02  0.00000000E+00 -3.89686621E-01 -2.63612399E-02  4.25313104E-01
  2.76300139E-01  0.00000000E+00  0.00000000E+00 -2.66567969E-01 -7.27949938E-02
  4.60166457E-01  1.59974421E-01 -2.66567969E-01 -7.27949938E-02  3.97922360E-02
 -4.30258940E-02 -4.12683436E-02  4.79202809E-01  0.00000000E+00 -6.00546076E-02
  8.18899475E-02 -1.09175783E-01  0.00000000E+00  1.01257132E-01 -9.95293962E-02
  2.83959004E-01  0.00000000E+00  2.67166175E-01 -5.42447244E-01  2.96897273E-01
 -4.68127096E-03  0.00000000E+00  0.00000000E+00 -6.36814199E-02 -4.15936856E-02
 -6.85660498E-02 -7.67791786E-02 -6.85660498E-02 -7.67791786E-02 -4.09337838E-02
  4.94804630E-02 -6.13912479E-03  4.98698427E-01  0.00000000E+00  8.32330699E-02
  8.89849922E-02 -1.64389656E-01  0.00000000E+00  2.64008142E-03  6.29533881E-03
  5.96619740E-02  0.00000000E+00 -2.34621237E-01  5.50331713E-01 -3.31268037E-01
 -1.35118047E-01  0.00000000E+00  0.00000000E+00  1.38047425E-01  7.43157861E-02
  1.38047425E-01  7.43157861E-02 -4.09337838E-02  4.94804630E-02  6.13912479E-03
 -4.98698427E-01  0.00000000E+00  8.32330699E-02 -8.89849922E-02  1.64389656E-01
  0.00000000E+00  2.64008142E-03 -6.29533881E-03 -5.96619740E-02  0.00000000E+00
 -2.34621237E-01  5.50331713E-01 -3.31268037E-01 -1.35118047E-01  0.00000000E+00
  0.00000000E+00  1.38047425E-01  7.43157861E-02  1.38047425E-01  7.43157861E-02
  3.97922360E-02 -4.30258940E-02  4.12683436E-02 -4.79202809E-01  0.00000000E+00
 -6.00546076E-02 -8.18899475E-02  1.09175783E-01  0.00000000E+00  1.01257132E-01
  9.95293962E-02 -2.83959004E-01  0.00000000E+00  2.67166175E-01 -5.42447244E-01
  2.96897273E-01 -4.68127096E-03  0.00000000E+00  0.00000000E+00 -6.85660498E-02
 -7.67791786E-02 -6.36814199E-02 -4.15936856E-02 -6.85660498E-02 -7.67791786E-02
 -1.67734721E-02 -2.19563455E-02 -2.02737250E-01 -3.87796801E-02  0.00000000E+00
  7.63188393E-02  2.68022264E-01 -9.95265739E-02  0.00000000E+00 -5.92480631E-02
 -4.80916362E-01 -1.41952609E-01  0.00000000E+00 -1.74332869E-01  1.42076058E-01
 -3.56421974E-02  1.35825213E-01  0.00000000E+00  0.00000000E+00  7.78120162E-02
  1.25639563E-01 -4.64502847E-02  2.34614360E-02 -4.64502847E-02  2.34614360E-02
 -2.87928393E-02 -3.07320126E-01 -4.92591174E-01  9.83271289E-02  0.00000000E+00
  1.37248799E-01  7.57399517E-01 -1.28395778E-01  0.00000000E+00 -7.33182166E-02
  2.09268088E-01  2.15055211E-01  0.00000000E+00  1.43210040E-01 -2.95778997E-01
 -3.25133582E-01 -6.17781298E-02  0.00000000E+00  0.00000000E+00  2.05451036E-01
 -3.96115744E-02  2.05451036E-01 -3.96115744E-02 -2.87928393E-02 -3.07320126E-01
  4.92591174E-01 -9.83271289E-02  0.00000000E+00  1.37248799E-01 -7.57399517E-01
  1.28395778E-01  0.00000000E+00 -7.33182166E-02 -2.09268088E-01 -2.15055211E-01
  0.00000000E+00  1.43210040E-01 -2.95778997E-01 -3.25133582E-01 -6.17781298E-02
  0.00000000E+00  0.00000000E+00  2.05451036E-01 -3.96115744E-02  2.05451036E-01
 -3.96115744E-02 -1.67734721E-02 -2.19563455E-02  2.02737250E-01  3.87796801E-02
  0.00000000E+00  7.63188393E-02 -2.68022264E-01  9.95265739E-02  0.00000000E+00
 -5.92480631E-02  4.80916362E-01  1.41952609E-01  0.00000000E+00 -1.74332869E-01
  1.42076058E-01 -3.56421974E-02  1.35825213E-01  0.00000000E+00  0.00000000E+00
 -4.64502847E-02  2.34614360E-02  7.78120162E-02  1.25639563E-01 -4.64502847E-02
  2.34614360E-02 -5.67005952E-02 -2.42913085E-01  1.57689361E-01  3.73045900E-01
  0.00000000E+00  2.37495347E-01 -4.89675759E-01 -5.20035482E-01  0.00000000E+00
 -1.34067089E-01  2.42288448E-01 -2.20009529E-02  0.00000000E+00 -5.20296346E-02
 -6.60808606E-02 -3.24038223E-01 -8.61409963E-02  0.00000000E+00  0.00000000E+00
 -3.30752611E-01  1.93232267E-01  2.44420151E-02  1.50498246E-01  2.44420151E-02
  1.50498246E-01 -2.26803283E-02 -1.62174258E-01  1.17682220E-01 -2.88636651E-01
  0.00000000E+00  1.52869791E-01 -7.21737665E-03  5.90077674E-01  0.00000000E+00
 -2.13537505E-01  5.97931052E-01  2.31682594E-01  0.00000000E+00 -9.51450699E-02
  7.88589398E-02 -2.31754464E-01  5.71786490E-02  0.00000000E+00  0.00000000E+00
  1.65678749E-01 -8.40062270E-02  1.65678749E-01 -8.40062270E-02 -2.26803283E-02
 -1.62174258E-01 -1.17682220E-01  2.88636651E-01  0.00000000E+00  1.52869791E-01
  7.21737665E-03 -5.90077674E-01  0.00000000E+00 -2.13537505E-01 -5.97931052E-01
 -2.31682594E-01  0.00000000E+00 -9.51450699E-02  7.88589398E-02 -2.31754464E-01
  5.71786490E-02  0.00000000E+00  0.00000000E+00  1.65678749E-01 -8.40062270E-02
  1.65678749E-01 -8.40062270E-02 -5.67005952E-02 -2.42913085E-01 -1.57689361E-01
 -3.73045900E-01  0.00000000E+00  2.37495347E-01  4.89675759E-01  5.20035482E-01
  0.00000000E+00 -1.34067089E-01 -2.42288448E-01  2.20009529E-02  0.00000000E+00
 -5.20296346E-02 -6.60808606E-02 -3.24038223E-01 -8.61409963E-02  0.00000000E+00
  0.00000000E+00  2.44420151E-02  1.50498246E-01 -3.30752611E-01  1.93232267E-01
  2.44420151E-02  1.50498246E-01  4.06108201E-02  1.37659531E-01 -4.03289783E-03
  1.97673998E-01  0.00000000E+00 -2.80206124E-01  2.45227964E-02 -8.02464651E-01
  0.00000000E+00  3.66893016E-01  1.15679148E-02  8.25953490E-01  0.00000000E+00
 -6.95263817E-02  3.94893657E-01 -5.34503404E-02  7.05452945E-03  0.00000000E+00
  0.00000000E+00  3.70380209E-01 -3.36342578E-01  3.56502216E-01 -3.36478280E-01
  3.56502216E-01 -3.36478280E-01 -3.59288182E-02 -2.38699057E-01 -1.91252623E-02
 -1.58984254E-01  0.00000000E+00  1.95298117E-01 -3.02272262E-02 -6.39871613E-02
  0.00000000E+00  1.41774828E-01  1.49711532E-02  3.62095040E-02  0.00000000E+00
 -4.32221846E-02 -2.74416522E-01 -2.79009861E-02  2.27970201E-02  0.00000000E+00
  0.00000000E+00 -1.61140936E-01  2.01414669E-01 -1.61140936E-01  2.01414669E-01
 -3.59288182E-02 -2.38699057E-01  1.91252623E-02  1.58984254E-01  0.00000000E+00
  1.95298117E-01  3.02272262E-02  6.39871613E-02  0.00000000E+00  1.41774828E-01
 -1.49711532E-02 -3.62095040E-02  0.00000000E+00 -4.32221846E-02 -2.74416522E-01
 -2.79009861E-02  2.27970201E-02  0.00000000E+00  0.00000000E+00 -1.61140936E-01
  2.01414669E-01 -1.61140936E-01  2.01414669E-01  4.06108201E-02  1.37659531E-01
  4.03289783E-03 -1.97673998E-01  0.00000000E+00 -2.80206124E-01 -2.45227964E-02
  8.02464651E-01  0.00000000E+00  3.66893016E-01 -1.15679148E-02 -8.25953490E-01
  0.00000000E+00 -6.95263817E-02  3.94893657E-01 -5.34503404E-02  7.05452945E-03
  0.00000000E+00  0.00000000E+00  3.56502216E-01 -3.36478280E-01  3.70380209E-01
 -3.36342578E-01  3.56502216E-01 -3.36478280E-01 -2.78271367E-02 -1.16256761E-01
 -1.14133906E-01  2.57980317E-01  0.00000000E+00  1.75751968E-02  6.24830834E-01
 -4.63568327E-01  0.00000000E+00  1.95518402E-01 -2.54225261E-01 -1.27957285E-01
  0.00000000E+00 -2.77060283E-01 -1.58305365E-02  9.20692299E-02  8.95917405E-02
  0.00000000E+00  0.00000000E+00  5.93954982E-01 -5.47895275E-01 -3.26165039E-01
  3.58983721E-01 -3.26165039E-01  3.58983721E-01  4.23492382E-02  1.09289734E-01
  1.56082444E-01 -2.74061304E-01  0.00000000E+00 -2.49098333E-01 -2.50077343E-01
  6.12480063E-01  0.00000000E+00  1.68642288E-01 -4.51085421E-01  1.03094216E-01
  0.00000000E+00  5.48274837E-02  1.70228442E-01  2.80926800E-02  1.80471706E-03
  0.00000000E+00  0.00000000E+00  2.70654950E-01 -3.35655543E-01  2.70654950E-01
 -3.35655543E-01  4.23492382E-02  1.09289734E-01 -1.56082444E-01  2.74061304E-01
  0.00000000E+00 -2.49098333E-01  2.50077343E-01 -6.12480063E-01  0.00000000E+00
  1.68642288E-01  4.51085421E-01 -1.03094216E-01  0.00000000E+00  5.48274837E-02
  1.70228442E-01  2.80926800E-02  1.80471706E-03  0.00000000E+00  0.00000000E+00
  2.70654950E-01 -3.35655543E-01  2.70654950E-01 -3.35655543E-01 -2.78271367E-02
 -1.16256761E-01  1.14133906E-01 -2.57980317E-01  0.00000000E+00  1.75751968E-02
 -6.24830834E-01  4.63568327E-01  0.00000000E+00  1.95518402E-01  2.54225261E-01
  1.27957285E-01  0.00000000E+00 -2.77060283E-01 -1.58305365E-02  9.20692299E-02
  8.95917405E-02  0.00000000E+00  0.00000000E+00 -3.26165039E-01  3.58983721E-01
  5.93954982E-01 -5.47895275E-01 -3.26165039E-01  3.58983721E-01 -3.11472157E-02
 -1.35132718E-01 -9.26780337E-02 -3.53227385E-02  0.00000000E+00  4.73957575E-01
  5.69098267E-01 -2.88886927E-02  0.00000000E+00 -5.17175288E-01 -3.95856946E-01
  1.57189270E-01  0.00000000E+00 -1.73462225E-01 -6.90476658E-02  2.80548886E-02
  2.06866657E-03  0.00000000E+00  0.00000000E+00  2.02594107E-01 -1.53627643E-02
 -2.32937899E-01  3.33517211E-01 -2.32937899E-01  3.33517211E-01 -4.64307817E-02
 -1.55672851E-01  2.37511737E-01  2.12061479E-03  0.00000000E+00  6.84440966E-01
 -7.01301788E-01 -2.87999553E-01  0.00000000E+00 -6.34517889E-01  2.77208869E-01
  3.12079267E-01  0.00000000E+00 -1.90602870E-01 -1.46189034E-01  3.98125491E-02
 -2.82767306E-02  0.00000000E+00  0.00000000E+00 -3.67025517E-01  5.36292274E-01
 -3.67025517E-01  5.36292274E-01 -4.64307817E-02 -1.55672851E-01 -2.37511737E-01
 -2.12061479E-03  0.00000000E+00  6.84440966E-01  7.01301788E-01  2.87999553E-01
  0.00000000E+00 -6.34517889E-01 -2.77208869E-01 -3.12079267E-01  0.00000000E+00
 -1.90602870E-01 -1.46189034E-01  3.98125491E-02 -2.82767306E-02  0.00000000E+00
  0.00000000E+00 -3.67025517E-01  5.36292274E-01 -3.67025517E-01  5.36292274E-01
 -3.11472157E-02 -1.35132718E-01  9.26780337E-02  3.53227385E-02  0.00000000E+00
  4.73957575E-01 -5.69098267E-01  2.88886927E-02  0.00000000E+00 -5.17175288E-01
  3.95856946E-01 -1.57189270E-01  0.00000000E+00 -1.73462225E-01 -6.90476658E-02
  2.80548886E-02  2.06866657E-03  0.00000000E+00  0.00000000E+00 -2.32937899E-01
  3.33517211E-01  2.02594107E-01 -1.53627643E-02 -2.32937899E-01  3.33517211E-01
  4.68285444E-02  2.01778025E-01  1.31201680E-01 -1.61353978E-01  0.00000000E+00
 -5.81013336E-01 -4.91309191E-01  6.62426305E-01  0.00000000E+00  2.67310723E-01
 -7.10317355E-01 -2.29160309E-01  0.00000000E+00  1.57271857E-01  1.72291836E-02
  1.14761318E-01  7.66332777E-03  0.00000000E+00  0.00000000E+00  3.00108365E-01
 -1.23600344E+00 -2.99269720E-03  2.56939491E-02 -2.99269720E-03  2.56939491E-02
  1.26908255E-02  3.87379384E-01  7.16106153E-02  2.59176004E-02  0.00000000E+00
 -4.98211485E-01 -4.70543335E-02  2.57363068E-01  0.00000000E+00  1.84992422E-01
  1.39373039E+00  7.69323560E-01  0.00000000E+00  1.18590579E-02  7.17203256E-02
 -7.00053450E-03  4.15575456E-02  0.00000000E+00  0.00000000E+00 -1.12785508E-01
  2.58806045E-01 -1.12785508E-01  2.58806045E-01  1.26908255E-02  3.87379384E-01
 -7.16106153E-02 -2.59176004E-02  0.00000000E+00 -4.98211485E-01  4.70543335E-02
 -2.57363068E-01  0.00000000E+00  1.84992422E-01 -1.39373039E+00 -7.69323560E-01
  0.00000000E+00  1.18590579E-02  7.17203256E-02 -7.00053450E-03  4.15575456E-02
  0.00000000E+00  0.00000000E+00 -1.12785508E-01  2.58806045E-01 -1.12785508E-01
  2.58806045E-01  4.68285444E-02  2.01778025E-01 -1.31201680E-01  1.61353978E-01
  0.00000000E+00 -5.81013336E-01  4.91309191E-01 -6.62426305E-01  0.00000000E+00
  2.67310723E-01  7.10317355E-01  2.29160309E-01  0.00000000E+00  1.57271857E-01
  1.72291836E-02  1.14761318E-01  7.66332777E-03  0.00000000E+00  0.00000000E+00
 -2.99269720E-03  2.56939491E-02  3.00108365E-01 -1.23600344E+00 -2.99269720E-03
  2.56939491E-02 -1.73925218E-01  1.68442463E+00 -9.76331140E-02  4.04294218E-02
  0.00000000E+00 -3.62717197E-01  5.37257145E-01 -6.76224841E-01  0.00000000E+00
  9.67607638E-02 -7.13942741E-02 -1.95527657E-01  0.00000000E+00 -7.35253528E-01
 -5.49774922E-01 -6.74226408E-01 -1.61994221E-02  0.00000000E+00  0.00000000E+00
 -3.04254558E-02  9.15081932E-01  7.06728657E-02  1.40284824E-02  7.06728657E-02
  1.40284824E-02 -1.16183829E-01  1.31296162E+00  1.60256798E-01  8.46634889E-02
  0.00000000E+00 -4.78507190E-01 -5.34582593E-01 -6.82098855E-01  0.00000000E+00
 -4.41509621E-03  6.56548771E-01  1.81627840E-01  0.00000000E+00 -4.73107651E-01
 -4.88255241E-01 -4.08884714E-01 -6.13470729E-02  0.00000000E+00  0.00000000E+00
  7.52362721E-02 -3.77953058E-01  7.52362721E-02 -3.77953058E-01 -1.16183829E-01
  1.31296162E+00 -1.60256798E-01 -8.46634889E-02  0.00000000E+00 -4.78507190E-01
  5.34582593E-01  6.82098855E-01  0.00000000E+00 -4.41509621E-03 -6.56548771E-01
 -1.81627840E-01  0.00000000E+00 -4.73107651E-01 -4.88255241E-01 -4.08884714E-01
 -6.13470729E-02  0.00000000E+00  0.00000000E+00  7.52362721E-02 -3.77953058E-01
  7.52362721E-02 -3.77953058E-01 -1.73925218E-01  1.68442463E+00  9.76331140E-02
 -4.04294218E-02  0.00000000E+00 -3.62717197E-01 -5.37257145E-01  6.76224841E-01
  0.00000000E+00  9.67607638E-02  7.13942741E-02  1.95527657E-01  0.00000000E+00
 -7.35253528E-01 -5.49774922E-01 -6.74226408E-01 -1.61994221E-02  0.00000000E+00
  0.00000000E+00  7.06728657E-02  1.40284824E-02 -3.04254558E-02  9.15081932E-01
  7.06728657E-02  1.40284824E-02 -4.91787924E-02 -1.36858884E-01  5.27205240E-02
 -8.29584124E-02  0.00000000E+00  4.88862729E-01 -3.98011018E-01  4.95357005E-01
  0.00000000E+00 -2.03386104E-01  1.68736074E-01  3.08841380E-01  0.00000000E+00
 -9.47854200E-02 -5.55878095E-02 -1.36618412E-01  2.91043093E-02  0.00000000E+00
  0.00000000E+00  6.92521566E-02 -6.59238739E-01 -5.51693069E-04 -1.73115338E-02
 -5.51693069E-04 -1.73115338E-02 -3.02506378E-01  1.77128258E+00 -1.27320962E-01
 -1.42199977E-01  0.00000000E+00  6.37803773E-01  6.96209601E-01  8.58381891E-01
  0.00000000E+00 -8.79191215E-02 -8.81168517E-01 -3.23712341E-01  0.00000000E+00
 -9.27009769E-01 -1.00471933E+00 -1.14536545E+00  1.20186487E-02  0.00000000E+00
  0.00000000E+00  7.02496215E-02  4.93519780E-01  7.02496215E-02  4.93519780E-01
 -3.02506378E-01  1.77128258E+00  1.27320962E-01  1.42199977E-01  0.00000000E+00
  6.37803773E-01 -6.96209601E-01 -8.58381891E-01  0.00000000E+00 -8.79191215E-02
  8.81168517E-01  3.23712341E-01  0.00000000E+00 -9.27009769E-01 -1.00471933E+00
 -1.14536545E+00  1.20186487E-02  0.00000000E+00  0.00000000E+00  7.02496215E-02
  4.93519780E-01  7.02496215E-02  4.93519780E-01 -4.91787924E-02 -1.36858884E-01
 -5.27205240E-02  8.29584124E-02  0.00000000E+00  4.88862729E-01  3.98011018E-01
 -4.95357005E-01  0.00000000E+00 -2.03386104E-01 -1.68736074E-01 -3.08841380E-01
  0.00000000E+00 -9.47854200E-02 -5.55878095E-02 -1.36618412E-01  2.91043093E-02
  0.00000000E+00  0.00000000E+00 -5.51693069E-04 -1.73115338E-02  6.92521566E-02
 -6.59238739E-01 -5.51693069E-04 -1.73115338E-02 -2.50108290E-01  1.86026275E+00
  1.61832810E-01  2.15690890E-02  0.00000000E+00  2.85167986E-01 -8.44620502E-01
  3.14811187E-01  0.00000000E+00 -1.52708269E-01  1.07568667E-01  1.05604950E-01
  0.00000000E+00 -8.68886943E-01 -1.06757631E+00 -9.50413647E-01  1.48539662E-02
  0.00000000E+00  0.00000000E+00  1.51167669E-01 -9.30778748E-01  4.18050360E-02
  3.82119793E-01  4.18050360E-02  3.82119793E-01  7.19083569E-02 -1.11393893E+00
 -1.50203940E-01  1.25542036E-01  0.00000000E+00  4.89991607E-01  4.89990290E-01
  1.99310550E-01  0.00000000E+00 -1.15163069E-01 -7.88155908E-01 -7.65690939E-02
  0.00000000E+00  3.32821088E-01  5.19184295E-01  2.86298475E-01  4.39612439E-02
  0.00000000E+00  0.00000000E+00 -6.24928371E-02  2.48413312E-01 -6.24928371E-02
  2.48413312E-01  7.19083569E-02 -1.11393893E+00  1.50203940E-01 -1.25542036E-01
  0.00000000E+00  4.89991607E-01 -4.89990290E-01 -1.99310550E-01  0.00000000E+00
 -1.15163069E-01  7.88155908E-01  7.65690939E-02  0.00000000E+00  3.32821088E-01
  5.19184295E-01  2.86298475E-01  4.39612439E-02  0.00000000E+00  0.00000000E+00
 -6.24928371E-02  2.48413312E-01 -6.24928371E-02  2.48413312E-01 -2.50108290E-01
  1.86026275E+00 -1.61832810E-01 -2.15690890E-02  0.00000000E+00  2.85167986E-01
  8.44620502E-01 -3.14811187E-01  0.00000000E+00 -1.52708269E-01 -1.07568667E-01
 -1.05604950E-01  0.00000000E+00 -8.68886943E-01 -1.06757631E+00 -9.50413647E-01
  1.48539662E-02  0.00000000E+00  0.00000000E+00  4.18050360E-02  3.82119793E-01
  1.51167669E-01 -9.30778748E-01  4.18050360E-02  3.82119793E-01 -1.20713828E-01
  3.76358974E-01 -3.19349079E-01  4.93232093E-02  0.00000000E+00  3.99156784E-01
  1.59311403E+00  9.29473955E-01  0.00000000E+00 -4.45282365E-02 -7.58509970E-02
  2.62007265E-01  0.00000000E+00 -4.16079927E-01 -5.53546705E-01 -3.00937251E-01
 -7.76570424E-03  0.00000000E+00  0.00000000E+00  3.20204228E-02  8.33244952E-01
  8.85379052E-02 -1.31325084E+00  8.85379052E-02 -1.31325084E+00  9.10698485E-02
 -2.73634050E-01  5.19702092E-02 -3.15433510E-01  0.00000000E+00 -3.78266450E-01
  4.88820690E-02  2.08129182E+00  0.00000000E+00  2.20821630E-01  6.22090424E-01
 -4.04945453E-01  0.00000000E+00  2.64374891E-01  4.70044257E-01  2.17013428E-01
  4.69525155E-02  0.00000000E+00  0.00000000E+00 -1.61072538E-02  6.65871595E-01
 -1.61072538E-02  6.65871595E-01  9.10698485E-02 -2.73634050E-01 -5.19702092E-02
  3.15433510E-01  0.00000000E+00 -3.78266450E-01 -4.88820690E-02 -2.08129182E+00
  0.00000000E+00  2.20821630E-01 -6.22090424E-01  4.04945453E-01  0.00000000E+00
  2.64374891E-01  4.70044257E-01  2.17013428E-01  4.69525155E-02  0.00000000E+00
  0.00000000E+00 -1.61072538E-02  6.65871595E-01 -1.61072538E-02  6.65871595E-01
 -1.20713828E-01  3.76358974E-01  3.19349079E-01 -4.93232093E-02  0.00000000E+00
  3.99156784E-01 -1.59311403E+00 -9.29473955E-01  0.00000000E+00 -4.45282365E-02
  7.58509970E-02 -2.62007265E-01  0.00000000E+00 -4.16079927E-01 -5.53546705E-01
 -3.00937251E-01 -7.76570424E-03  0.00000000E+00  0.00000000E+00  8.85379052E-02
 -1.31325084E+00  3.20204228E-02  8.33244952E-01  8.85379052E-02 -1.31325084E+00
  9.86250850E-02  1.15593097E-01 -1.35187555E-02  1.33162556E-01  0.00000000E+00
 -2.30307031E+00 -1.38696708E-01 -1.04876943E+00  0.00000000E+00 -9.58098083E-01
 -1.70898330E-02  4.58525758E-01  0.00000000E+00  2.77549628E-01  2.84854746E-01
  2.22558271E-01  3.18672879E-02  0.00000000E+00  0.00000000E+00 -1.03032477E-01
  1.32507824E+00 -1.32204464E-01  1.59157107E+00 -1.32204464E-01  1.59157107E+00
  1.24185123E-01  2.44589790E-01 -1.44515647E-01 -1.06943802E-01  0.00000000E+00
 -2.67919366E+00  1.20496646E+00  7.22007854E-01  0.00000000E+00 -9.09707300E-01
 -6.79631400E-01 -6.08105769E-01  0.00000000E+00  3.40041209E-01  2.82317493E-01
  2.53870737E-01  4.86184321E-02  0.00000000E+00  0.00000000E+00 -1.30564694E-01
  2.17706723E+00 -1.30564694E-01  2.17706723E+00  1.24185123E-01  2.44589790E-01
  1.44515647E-01  1.06943802E-01  0.00000000E+00 -2.67919366E+00 -1.20496646E+00
 -7.22007854E-01  0.00000000E+00 -9.09707300E-01  6.79631400E-01  6.08105769E-01
  0.00000000E+00  3.40041209E-01  2.82317493E-01  2.53870737E-01  4.86184321E-02
  0.00000000E+00  0.00000000E+00 -1.30564694E-01  2.17706723E+00 -1.30564694E-01
  2.17706723E+00  9.86250850E-02  1.15593097E-01  1.35187555E-02 -1.33162556E-01
  0.00000000E+00 -2.30307031E+00  1.38696708E-01  1.04876943E+00  0.00000000E+00
 -9.58098083E-01  1.70898330E-02 -4.58525758E-01  0.00000000E+00  2.77549628E-01
  2.84854746E-01  2.22558271E-01  3.18672879E-02  0.00000000E+00  0.00000000E+00
 -1.32204464E-01  1.59157107E+00 -1.03032477E-01  1.32507824E+00 -1.32204464E-01
  1.59157107E+00  1.45655664E-01  4.31884985E-01 -1.44682750E-01 -2.13557662E-03
  0.00000000E+00 -3.85944085E+00  8.85189462E-01  9.92795501E-01  0.00000000E+00
  7.39149997E-01  2.28447553E+00 -1.36366759E+00  0.00000000E+00  2.92587073E-01
  1.84318213E-01  3.76854761E-01 -1.28003217E-02  0.00000000E+00  0.00000000E+00
  8.04064642E-02  1.11592149E+00  1.00929470E-01 -1.37985575E-01  1.00929470E-01
 -1.37985575E-01 -1.04987689E-01 -3.41948551E-01 -5.53657450E-02  2.76591204E-02
  0.00000000E+00  2.70666927E+00 -8.26561293E-02  1.30025014E+00  0.00000000E+00
 -8.23439543E-01 -1.58804640E+00  4.37029168E+00  0.00000000E+00 -2.18212491E-01
 -9.93670415E-02 -2.60065184E-01  1.03753595E-02  0.00000000E+00  0.00000000E+00
 -8.77960630E-02 -3.70911275E-02 -8.77960630E-02 -3.70911275E-02 -1.04987689E-01
 -3.41948551E-01  5.53657450E-02 -2.76591204E-02  0.00000000E+00  2.70666927E+00
  8.26561293E-02 -1.30025014E+00  0.00000000E+00 -8.23439543E-01  1.58804640E+00
 -4.37029168E+00  0.00000000E+00 -2.18212491E-01 -9.93670415E-02 -2.60065184E-01
  1.03753595E-02  0.00000000E+00  0.00000000E+00 -8.77960630E-02 -3.70911275E-02
 -8.77960630E-02 -3.70911275E-02  1.45655664E-01  4.31884985E-01  1.44682750E-01
  2.13557662E-03  0.00000000E+00 -3.85944085E+00 -8.85189462E-01 -9.92795501E-01
  0.00000000E+00  7.39149997E-01 -2.28447553E+00  1.36366759E+00  0.00000000E+00
  2.92587073E-01  1.84318213E-01  3.76854761E-01 -1.28003217E-02  0.00000000E+00
  0.00000000E+00  1.00929470E-01 -1.37985575E-01  8.04064642E-02  1.11592149E+00
  1.00929470E-01 -1.37985575E-01 -1.30655853E-01 -4.34972415E-01 -3.19830341E-02
 -7.14285627E-02  0.00000000E+00  4.55746190E+00  8.15353325E-02 -1.08023674E+00
  0.00000000E+00  8.59106498E-01  2.37963454E+00 -8.08149340E-01  0.00000000E+00
 -2.83520929E-01 -1.09324897E-01 -2.92319604E-01  2.76013665E-02  0.00000000E+00
  0.00000000E+00 -7.56719787E-02 -7.82442896E-01  4.09331270E-02 -1.29887903E+00
  4.09331270E-02 -1.29887903E+00  1.48348424E-01  4.91956754E-01 -9.86847463E-02
  5.01840844E-02  0.00000000E+00 -4.21426280E+00  7.50498999E-01 -1.69032630E+00
  0.00000000E+00 -8.04944378E-01 -1.76896717E+00  5.25938640E+00  0.00000000E+00
  3.17339377E-01  1.28359573E-01  3.47015357E-01 -3.78447158E-02  0.00000000E+00
  0.00000000E+00 -2.62180047E-02  1.36275321E+00 -2.62180047E-02  1.36275321E+00
  1.48348424E-01  4.91956754E-01  9.86847463E-02 -5.01840844E-02  0.00000000E+00
 -4.21426280E+00 -7.50498999E-01  1.69032630E+00  0.00000000E+00 -8.04944378E-01
  1.76896717E+00 -5.25938640E+00  0.00000000E+00  3.17339377E-01  1.28359573E-01
  3.47015357E-01 -3.78447158E-02  0.00000000E+00  0.00000000E+00 -2.62180047E-02
  1.36275321E+00 -2.62180047E-02  1.36275321E+00 -1.30655853E-01 -4.34972415E-01
  3.19830341E-02  7.14285627E-02  0.00000000E+00  4.55746190E+00 -8.15353325E-02
  1.08023674E+00  0.00000000E+00  8.59106498E-01 -2.37963454E+00  8.08149340E-01
  0.00000000E+00 -2.83520929E-01 -1.09324897E-01 -2.92319604E-01  2.76013665E-02
  0.00000000E+00  0.00000000E+00  4.09331270E-02 -1.29887903E+00 -7.56719787E-02
 -7.82442896E-01  4.09331270E-02 -1.29887903E+00  2.94292696E-02  5.82342061E-02
 -1.93828530E-02 -1.27411921E-02  0.00000000E+00 -8.60554162E-01  1.51418015E-01
 -3.55643020E-01  0.00000000E+00 -2.92457431E+01  1.41658762E+00  8.66374062E+00
  0.00000000E+00  4.84285505E-02  9.11302082E-02  7.73142661E-02  1.57340637E-05
  0.00000000E+00  0.00000000E+00 -1.29357383E-01  1.20398825E+00 -9.53794639E-02
  8.60234765E-01 -9.53794639E-02  8.60234765E-01  1.40463895E-02  6.12514707E-02
  1.37726040E-02  9.23245371E-02  0.00000000E+00 -1.58805418E-02 -3.91679523E-01
 -6.94830373E-01  0.00000000E+00  2.93416200E+01 -9.56230762E-01  1.13152566E+01
  0.00000000E+00  7.03017445E-03 -7.33825001E-04  4.95609863E-02 -2.94013997E-02
  0.00000000E+00  0.00000000E+00  1.02445518E-01 -1.11999303E+00  1.02445518E-01
 -1.11999303E+00  1.40463895E-02  6.12514707E-02 -1.37726040E-02 -9.23245371E-02
  0.00000000E+00 -1.58805418E-02  3.91679523E-01  6.94830373E-01  0.00000000E+00
  2.93416200E+01  9.56230762E-01 -1.13152566E+01  0.00000000E+00  7.03017445E-03
 -7.33825001E-04  4.95609863E-02 -2.94013997E-02  0.00000000E+00  0.00000000E+00
  1.02445518E-01 -1.11999303E+00  1.02445518E-01 -1.11999303E+00  2.94292696E-02
  5.82342061E-02  1.93828530E-02  1.27411921E-02  0.00000000E+00 -8.60554162E-01
 -1.51418015E-01  3.55643020E-01  0.00000000E+00 -2.92457431E+01 -1.41658762E+00
 -8.66374062E+00  0.00000000E+00  4.84285505E-02  9.11302082E-02  7.73142661E-02
  1.57340637E-05  0.00000000E+00  0.00000000E+00 -9.53794639E-02  8.60234765E-01
 -1.29357383E-01  1.20398825E+00 -9.53794639E-02  8.60234765E-01  0.00000000E+00
  0.00000000E+00  0.00000000E+00  0.00000000E+00  1.50987196E-01  0.00000000E+00
  0.00000000E+00  0.00000000E+00  2.20071814E-01  0.00000000E+00  0.00000000E+00
  0.00000000E+00  1.25884525E-01  0.00000000E+00  0.00000000E+00  0.00000000E+00
  0.00000000E+00  2.97086466E-02  9.47792822E-03  0.00000000E+00  0.00000000E+00
 -1.16700759E-01 -1.08293875E-01  1.16700759E-01  1.08293875E-01  0.00000000E+00
  0.00000000E+00  0.00000000E+00  0.00000000E+00  7.68256944E-02  0.00000000E+00
  0.00000000E+00  0.00000000E+00  1.08469385E-01  0.00000000E+00  0.00000000E+00
  0.00000000E+00  5.01745056E-02  0.00000000E+00  0.00000000E+00  0.00000000E+00
  0.00000000E+00 -2.73689439E-02  2.91304758E-02 -5.34018110E-02 -4.65960426E-02
  5.34018110E-02  4.65960426E-02  0.00000000E+00  0.00000000E+00  0.00000000E+00
  0.00000000E+00 -7.68256944E-02  0.00000000E+00  0.00000000E+00  0.00000000E+00
 -1.08469385E-01  0.00000000E+00  0.00000000E+00  0.00000000E+00 -5.01745056E-02
  0.00000000E+00  0.00000000E+00  0.00000000E+00  0.00000000E+00 -2.73689439E-02
  2.91304758E-02  5.34018110E-02  4.65960426E-02 -5.34018110E-02 -4.65960426E-02
  0.00000000E+00  0.00000000E+00  0.00000000E+00  0.00000000E+00 -1.50987196E-01
  0.00000000E+00  0.00000000E+00  0.00000000E+00 -2.20071814E-01  0.00000000E+00
  0.00000000E+00  0.00000000E+00 -1.25884525E-01  0.00000000E+00  0.00000000E+00
  0.00000000E+00  0.00000000E+00  2.97086466E-02  9.47792822E-03  1.16700759E-01
  1.08293875E-01  0.00000000E+00  0.00000000E+00 -1.16700759E-01 -1.08293875E-01
  0.00000000E+00  0.00000000E+00  0.00000000E+00  0.00000000E+00  8.00303123E-02
  0.00000000E+00  0.00000000E+00  0.00000000E+00  6.48630792E-02  0.00000000E+00
  0.00000000E+00  0.00000000E+00  2.80128592E-02  0.00000000E+00  0.00000000E+00
  0.00000000E+00  0.00000000E+00  6.13848724E-02  6.95941711E-02  0.00000000E+00
  0.00000000E+00 -9.59181786E-02 -6.19049945E-02  9.59181786E-02  6.19049945E-02
  0.00000000E+00  0.00000000E+00  0.00000000E+00  0.00000000E+00 -1.95451230E-01
  0.00000000E+00  0.00000000E+00  0.00000000E+00 -1.60058013E-01  0.00000000E+00
  0.00000000E+00  0.00000000E+00 -2.92646626E-02  0.00000000E+00  0.00000000E+00
  0.00000000E+00  0.00000000E+00  1.40713332E-01  7.76178105E-02  2.00474517E-01
  1.21427786E-01 -2.00474517E-01 -1.21427786E-01  0.00000000E+00  0.00000000E+00
  0.00000000E+00  0.00000000E+00  1.95451230E-01  0.00000000E+00  0.00000000E+00
  0.00000000E+00  1.60058013E-01  0.00000000E+00  0.00000000E+00  0.00000000E+00
  2.92646626E-02  0.00000000E+00  0.00000000E+00  0.00000000E+00  0.00000000E+00
  1.40713332E-01  7.76178105E-02 -2.00474517E-01 -1.21427786E-01  2.00474517E-01
  1.21427786E-01  0.00000000E+00  0.00000000E+00  0.00000000E+00  0.00000000E+00
 -8.00303123E-02  0.00000000E+00  0.00000000E+00  0.00000000E+00 -6.48630792E-02
  0.00000000E+00  0.00000000E+00  0.00000000E+00 -2.80128592E-02  0.00000000E+00
  0.00000000E+00  0.00000000E+00  0.00000000E+00  6.13848724E-02  6.95941711E-02
  9.59181786E-02  6.19049945E-02  0.00000000E+00  0.00000000E+00 -9.59181786E-02
 -6.19049945E-02  0.00000000E+00  0.00000000E+00  0.00000000E+00  0.00000000E+00
  5.46286824E-02  0.00000000E+00  0.00000000E+00  0.00000000E+00  6.27671021E-02
  0.00000000E+00  0.00000000E+00  0.00000000E+00  3.02516090E-02  0.00000000E+00
  0.00000000E+00  0.00000000E+00  0.00000000E+00 -1.48844761E-01 -3.72452082E-01
  0.00000000E+00  0.00000000E+00  1.21918052E-01  8.79978955E-03 -1.21918052E-01
 -8.79978955E-03  0.00000000E+00  0.00000000E+00  0.00000000E+00  0.00000000E+00
  8.14152963E-02  0.00000000E+00  0.00000000E+00  0.00000000E+00  5.83875404E-02
  0.00000000E+00  0.00000000E+00  0.00000000E+00  1.39616277E-02  0.00000000E+00
  0.00000000E+00  0.00000000E+00  0.00000000E+00  9.19394892E-02  3.73164921E-01
  8.18651933E-02  4.88374613E-03 -8.18651933E-02 -4.88374613E-03  0.00000000E+00
  0.00000000E+00  0.00000000E+00  0.00000000E+00 -8.14152963E-02  0.00000000E+00
  0.00000000E+00  0.00000000E+00 -5.83875404E-02  0.00000000E+00  0.00000000E+00
  0.00000000E+00 -1.39616277E-02  0.00000000E+00  0.00000000E+00  0.00000000E+00
  0.00000000E+00  9.19394892E-02  3.73164921E-01 -8.18651933E-02 -4.88374613E-03
  8.18651933E-02  4.88374613E-03  0.00000000E+00  0.00000000E+00  0.00000000E+00
  0.00000000E+00 -5.46286824E-02  0.00000000E+00  0.00000000E+00  0.00000000E+00
 -6.27671021E-02  0.00000000E+00  0.00000000E+00  0.00000000E+00 -3.02516090E-02
  0.00000000E+00  0.00000000E+00  0.00000000E+00  0.00000000E+00 -1.48844761E-01
 -3.72452082E-01 -1.21918052E-01 -8.79978955E-03  0.00000000E+00  0.00000000E+00
  1.21918052E-01  8.79978955E-03  0.00000000E+00  0.00000000E+00  0.00000000E+00
  0.00000000E+00 -7.27444200E-02  0.00000000E+00  0.00000000E+00  0.00000000E+00
 -9.40371085E-02  0.00000000E+00  0.00000000E+00  0.00000000E+00 -1.16444902E-01
  0.00000000E+00  0.00000000E+00  0.00000000E+00  0.00000000E+00  5.93633231E-01
 -1.86216436E-01  0.00000000E+00  0.00000000E+00 -9.40388831E-02  3.02423387E-02
  9.40388831E-02 -3.02423387E-02  0.00000000E+00  0.00000000E+00  0.00000000E+00
  0.00000000E+00  1.19911700E-01  0.00000000E+00  0.00000000E+00  0.00000000E+00
  2.08049940E-02  0.00000000E+00  0.00000000E+00  0.00000000E+00 -4.18401297E-02
  0.00000000E+00  0.00000000E+00  0.00000000E+00  0.00000000E+00  3.13915066E-02
  1.22971037E-01 -2.65953185E-02 -1.43775128E-03  2.65953185E-02  1.43775128E-03
  0.00000000E+00  0.00000000E+00  0.00000000E+00  0.00000000E+00 -1.19911700E-01
  0.00000000E+00  0.00000000E+00  0.00000000E+00 -2.08049940E-02  0.00000000E+00
  0.00000000E+00  0.00000000E+00  4.18401297E-02  0.00000000E+00  0.00000000E+00
  0.00000000E+00  0.00000000E+00  3.13915066E-02  1.22971037E-01  2.65953185E-02
  1.43775128E-03 -2.65953185E-02 -1.43775128E-03  0.00000000E+00  0.00000000E+00
  0.00000000E+00  0.00000000E+00  7.27444200E-02  0.00000000E+00  0.00000000E+00
  0.00000000E+00  9.40371085E-02  0.00000000E+00  0.00000000E+00  0.00000000E+00
  1.16444902E-01  0.00000000E+00  0.00000000E+00  0.00000000E+00  0.00000000E+00
  5.93633231E-01 -1.86216436E-01  9.40388831E-02 -3.02423387E-02  0.00000000E+00
  0.00000000E+00 -9.40388831E-02  3.02423387E-02  0.00000000E+00  0.00000000E+00
  0.00000000E+00  0.00000000E+00  4.99641533E-01  0.00000000E+00  0.00000000E+00
  0.00000000E+00 -6.95354979E-02  0.00000000E+00  0.00000000E+00  0.00000000E+00
 -4.45733654E-01  0.00000000E+00  0.00000000E+00  0.00000000E+00  0.00000000E+00
 -8.75274996E-02  1.55235611E-01  0.00000000E+00  0.00000000E+00 -7.37244751E-02
  1.28329262E-01  7.37244751E-02 -1.28329262E-01  0.00000000E+00  0.00000000E+00
  0.00000000E+00  0.00000000E+00  1.18719761E-01  0.00000000E+00  0.00000000E+00
  0.00000000E+00 -2.38275235E-02  0.00000000E+00  0.00000000E+00  0.00000000E+00
 -1.57317335E-01  0.00000000E+00  0.00000000E+00  0.00000000E+00  0.00000000E+00
 -1.72836239E-01  1.72039712E-01 -2.22736861E-02  3.29776332E-02  2.22736861E-02
 -3.29776332E-02  0.00000000E+00  0.00000000E+00  0.00000000E+00  0.00000000E+00
 -1.18719761E-01  0.00000000E+00  0.00000000E+00  0.00000000E+00  2.38275235E-02
  0.00000000E+00  0.00000000E+00  0.00000000E+00  1.57317335E-01  0.00000000E+00
  0.00000000E+00  0.00000000E+00  0.00000000E+00 -1.72836239E-01  1.72039712E-01
  2.22736861E-02 -3.29776332E-02 -2.22736861E-02  3.29776332E-02  0.00000000E+00
  0.00000000E+00  0.00000000E+00  0.00000000E+00 -4.99641533E-01  0.00000000E+00
  0.00000000E+00  0.00000000E+00  6.95354979E-02  0.00000000E+00  0.00000000E+00
  0.00000000E+00  4.45733654E-01  0.00000000E+00  0.00000000E+00  0.00000000E+00
  0.00000000E+00 -8.75274996E-02  1.55235611E-01  7.37244751E-02 -1.28329262E-01
  0.00000000E+00  0.00000000E+00 -7.37244751E-02  1.28329262E-01  0.00000000E+00
  0.00000000E+00  0.00000000E+00  0.00000000E+00 -1.78473276E-01  0.00000000E+00
  0.00000000E+00  0.00000000E+00 -2.72050577E-02  0.00000000E+00  0.00000000E+00
  0.00000000E+00 -1.15702984E-02  0.00000000E+00  0.00000000E+00  0.00000000E+00
  0.00000000E+00 -4.20797741E-02  4.49194812E-01  0.00000000E+00  0.00000000E+00
  1.72960540E-03  1.89563793E-02 -1.72960540E-03 -1.89563793E-02  0.00000000E+00
  0.00000000E+00  0.00000000E+00  0.00000000E+00  3.79210110E-01  0.00000000E+00
  0.00000000E+00  0.00000000E+00  7.95567640E-02  0.00000000E+00  0.00000000E+00
  0.00000000E+00  1.29563099E-02  0.00000000E+00  0.00000000E+00  0.00000000E+00
  0.00000000E+00  4.45696578E-01  2.51232157E-01  1.25339052E-02 -3.96884085E-02
 -1.25339052E-02  3.96884085E-02  0.00000000E+00  0.00000000E+00  0.00000000E+00
  0.00000000E+00 -3.79210110E-01  0.00000000E+00  0.00000000E+00  0.00000000E+00
 -7.95567640E-02  0.00000000E+00  0.00000000E+00  0.00000000E+00 -1.29563099E-02
  0.00000000E+00  0.00000000E+00  0.00000000E+00  0.00000000E+00  4.45696578E-01
  2.51232157E-01 -1.25339052E-02  3.96884085E-02  1.25339052E-02 -3.96884085E-02
  0.00000000E+00  0.00000000E+00  0.00000000E+00  0.00000000E+00  1.78473276E-01
  0.00000000E+00  0.00000000E+00  0.00000000E+00  2.72050577E-02  0.00000000E+00
  0.00000000E+00  0.00000000E+00  1.15702984E-02  0.00000000E+00  0.00000000E+00
  0.00000000E+00  0.00000000E+00 -4.20797741E-02  4.49194812E-01 -1.72960540E-03
 -1.89563793E-02  0.00000000E+00  0.00000000E+00  1.72960540E-03  1.89563793E-02
  0.00000000E+00  0.00000000E+00  0.00000000E+00  0.00000000E+00  2.77337385E-01
  0.00000000E+00  0.00000000E+00  0.00000000E+00  1.20230965E-02  0.00000000E+00
  0.00000000E+00  0.00000000E+00 -1.05889491E-01  0.00000000E+00  0.00000000E+00
  0.00000000E+00  0.00000000E+00 -2.29431284E-02 -2.63585562E-01  0.00000000E+00
  0.00000000E+00  1.91790250E-02  2.96390162E-02 -1.91790250E-02 -2.96390162E-02
  0.00000000E+00  0.00000000E+00  0.00000000E+00  0.00000000E+00  1.49149912E-01
  0.00000000E+00  0.00000000E+00  0.00000000E+00  2.22974574E-02  0.00000000E+00
  0.00000000E+00  0.00000000E+00 -3.28834590E-02  0.00000000E+00  0.00000000E+00
  0.00000000E+00  0.00000000E+00  5.13260511E-01 -4.86802236E-01  1.23116000E-02
 -2.15792858E-03 -1.23116000E-02  2.15792858E-03  0.00000000E+00  0.00000000E+00
  0.00000000E+00  0.00000000E+00 -1.49149912E-01  0.00000000E+00  0.00000000E+00
  0.00000000E+00 -2.22974574E-02  0.00000000E+00  0.00000000E+00  0.00000000E+00
  3.28834590E-02  0.00000000E+00  0.00000000E+00  0.00000000E+00  0.00000000E+00
  5.13260511E-01 -4.86802236E-01 -1.23116000E-02  2.15792858E-03  1.23116000E-02
 -2.15792858E-03  0.00000000E+00  0.00000000E+00  0.00000000E+00  0.00000000E+00
 -2.77337385E-01  0.00000000E+00  0.00000000E+00  0.00000000E+00 -1.20230965E-02
  0.00000000E+00  0.00000000E+00  0.00000000E+00  1.05889491E-01  0.00000000E+00
  0.00000000E+00  0.00000000E+00  0.00000000E+00 -2.29431284E-02 -2.63585562E-01
 -1.91790250E-02 -2.96390162E-02  0.00000000E+00  0.00000000E+00  1.91790250E-02
  2.96390162E-02  0.00000000E+00  0.00000000E+00  0.00000000E+00  0.00000000E+00
 -1.83468363E-01  0.00000000E+00  0.00000000E+00  0.00000000E+00  4.84514661E-02
  0.00000000E+00  0.00000000E+00  0.00000000E+00  2.94444828E-02  0.00000000E+00
  0.00000000E+00  0.00000000E+00  0.00000000E+00 -1.09124927E-01 -1.05054389E-01
  0.00000000E+00  0.00000000E+00 -7.15933308E-02 -1.12683965E-01  7.15933308E-02
  1.12683965E-01  0.00000000E+00  0.00000000E+00  0.00000000E+00  0.00000000E+00
  6.28271003E-01  0.00000000E+00  0.00000000E+00  0.00000000E+00 -1.93344832E-01
  0.00000000E+00  0.00000000E+00  0.00000000E+00 -1.49501778E-01  0.00000000E+00
  0.00000000E+00  0.00000000E+00  0.00000000E+00 -3.10744341E-01 -1.94006926E-01
  1.86910202E-01  2.81473117E-01 -1.86910202E-01 -2.81473117E-01  0.00000000E+00
  0.00000000E+00  0.00000000E+00  0.00000000E+00 -6.28271003E-01  0.00000000E+00
  0.00000000E+00  0.00000000E+00  1.93344832E-01  0.00000000E+00  0.00000000E+00
  0.00000000E+00  1.49501778E-01  0.00000000E+00  0.00000000E+00  0.00000000E+00
  0.00000000E+00 -3.10744341E-01 -1.94006926E-01 -1.86910202E-01 -2.81473117E-01
  1.86910202E-01  2.81473117E-01  0.00000000E+00  0.00000000E+00  0.00000000E+00
  0.00000000E+00  1.83468363E-01  0.00000000E+00  0.00000000E+00  0.00000000E+00
 -4.84514661E-02  0.00000000E+00  0.00000000E+00  0.00000000E+00 -2.94444828E-02
  0.00000000E+00  0.00000000E+00  0.00000000E+00  0.00000000E+00 -1.09124927E-01
 -1.05054389E-01  7.15933308E-02  1.12683965E-01  0.00000000E+00  0.00000000E+00
 -7.15933308E-02 -1.12683965E-01  0.00000000E+00  0.00000000E+00  0.00000000E+00
  0.00000000E+00  4.67078332E-01  0.00000000E+00  0.00000000E+00  0.00000000E+00
 -6.13041374E-02  0.00000000E+00  0.00000000E+00  0.00000000E+00  4.58900561E-01
  0.00000000E+00  0.00000000E+00  0.00000000E+00  0.00000000E+00  3.74599313E-01
  2.63209719E-01  0.00000000E+00  0.00000000E+00  4.66589126E-01  9.16978895E-02
 -4.66589126E-01 -9.16978895E-02  0.00000000E+00  0.00000000E+00  0.00000000E+00
  0.00000000E+00  1.72886626E-01  0.00000000E+00  0.00000000E+00  0.00000000E+00
 -3.04958756E-02  0.00000000E+00  0.00000000E+00  0.00000000E+00  1.76163622E-01
  0.00000000E+00  0.00000000E+00  0.00000000E+00  0.00000000E+00 -1.58808763E-01
 -6.70582702E-02  1.67419635E-01  3.20353441E-02 -1.67419635E-01 -3.20353441E-02
  0.00000000E+00  0.00000000E+00  0.00000000E+00  0.00000000E+00 -1.72886626E-01
  0.00000000E+00  0.00000000E+00  0.00000000E+00  3.04958756E-02  0.00000000E+00
  0.00000000E+00  0.00000000E+00 -1.76163622E-01  0.00000000E+00  0.00000000E+00
  0.00000000E+00  0.00000000E+00 -1.58808763E-01 -6.70582702E-02 -1.67419635E-01
 -3.20353441E-02  1.67419635E-01  3.20353441E-02  0.00000000E+00  0.00000000E+00
  0.00000000E+00  0.00000000E+00 -4.67078332E-01  0.00000000E+00  0.00000000E+00
  0.00000000E+00  6.13041374E-02  0.00000000E+00  0.00000000E+00  0.00000000E+00
 -4.58900561E-01  0.00000000E+00  0.00000000E+00  0.00000000E+00  0.00000000E+00
  3.74599313E-01  2.63209719E-01 -4.66589126E-01 -9.16978895E-02  0.00000000E+00
  0.00000000E+00  4.66589126E-01  9.16978895E-02  0.00000000E+00  0.00000000E+00
  0.00000000E+00  0.00000000E+00 -1.44466198E-01  0.00000000E+00  0.00000000E+00
  0.00000000E+00  8.41372072E-02  0.00000000E+00  0.00000000E+00  0.00000000E+00
 -2.46214907E-01  0.00000000E+00  0.00000000E+00  0.00000000E+00  0.00000000E+00
 -2.42526162E-02 -6.24586220E-03  0.00000000E+00  0.00000000E+00 -1.79391837E-01
  2.35527863E-01  1.79391837E-01 -2.35527863E-01  0.00000000E+00  0.00000000E+00
  0.00000000E+00  0.00000000E+00  8.35524655E-02  0.00000000E+00  0.00000000E+00
  0.00000000E+00  3.95374549E-01  0.00000000E+00  0.00000000E+00  0.00000000E+00
  3.98367671E-01  0.00000000E+00  0.00000000E+00  0.00000000E+00  0.00000000E+00
 -2.40121768E-01 -2.04947816E-01  6.82691685E-01 -5.06826085E-01 -6.82691685E-01
  5.06826085E-01  0.00000000E+00  0.00000000E+00  0.00000000E+00  0.00000000E+00
 -8.35524655E-02  0.00000000E+00  0.00000000E+00  0.00000000E+00 -3.95374549E-01
  0.00000000E+00  0.00000000E+00  0.00000000E+00 -3.98367671E-01  0.00000000E+00
  0.00000000E+00  0.00000000E+00  0.00000000E+00 -2.40121768E-01 -2.04947816E-01
 -6.82691685E-01  5.06826085E-01  6.82691685E-01 -5.06826085E-01  0.00000000E+00
  0.00000000E+00  0.00000000E+00  0.00000000E+00  1.44466198E-01  0.00000000E+00
  0.00000000E+00  0.00000000E+00 -8.41372072E-02  0.00000000E+00  0.00000000E+00
  0.00000000E+00  2.46214907E-01  0.00000000E+00  0.00000000E+00  0.00000000E+00
  0.00000000E+00 -2.42526162E-02 -6.24586220E-03  1.79391837E-01 -2.35527863E-01
  0.00000000E+00  0.00000000E+00 -1.79391837E-01  2.35527863E-01  0.00000000E+00
  0.00000000E+00  0.00000000E+00  0.00000000E+00 -2.74106416E-01  0.00000000E+00
  0.00000000E+00  0.00000000E+00  9.01819417E-01  0.00000000E+00  0.00000000E+00
  0.00000000E+00 -7.22576599E-01  0.00000000E+00  0.00000000E+00  0.00000000E+00
  0.00000000E+00  2.48349662E-01  1.82585956E-01  0.00000000E+00  0.00000000E+00
  5.19405153E-01 -2.66057311E-01 -5.19405153E-01  2.66057311E-01  0.00000000E+00
  0.00000000E+00  0.00000000E+00  0.00000000E+00 -1.74467769E-01  0.00000000E+00
  0.00000000E+00  0.00000000E+00  3.56480208E-01  0.00000000E+00  0.00000000E+00
  0.00000000E+00 -3.69133707E-01  0.00000000E+00  0.00000000E+00  0.00000000E+00
  0.00000000E+00 -3.70228894E-02 -1.27103168E-01  7.18975917E-02  8.57904860E-02
 -7.18975917E-02 -8.57904860E-02  0.00000000E+00  0.00000000E+00  0.00000000E+00
  0.00000000E+00  1.74467769E-01  0.00000000E+00  0.00000000E+00  0.00000000E+00
 -3.56480208E-01  0.00000000E+00  0.00000000E+00  0.00000000E+00  3.69133707E-01
  0.00000000E+00  0.00000000E+00  0.00000000E+00  0.00000000E+00 -3.70228894E-02
 -1.27103168E-01 -7.18975917E-02 -8.57904860E-02  7.18975917E-02  8.57904860E-02
  0.00000000E+00  0.00000000E+00  0.00000000E+00  0.00000000E+00  2.74106416E-01
  0.00000000E+00  0.00000000E+00  0.00000000E+00 -9.01819417E-01  0.00000000E+00
  0.00000000E+00  0.00000000E+00  7.22576599E-01  0.00000000E+00  0.00000000E+00
  0.00000000E+00  0.00000000E+00  2.48349662E-01  1.82585956E-01 -5.19405153E-01
  2.66057311E-01  0.00000000E+00  0.00000000E+00  5.19405153E-01 -2.66057311E-01
  0.00000000E+00  0.00000000E+00  0.00000000E+00  0.00000000E+00 -3.17069022E-01
  0.00000000E+00  0.00000000E+00  0.00000000E+00  1.38318091E+00  0.00000000E+00
  0.00000000E+00  0.00000000E+00  2.58781125E-01  0.00000000E+00  0.00000000E+00
  0.00000000E+00  0.00000000E+00  3.38448673E-02 -3.37843563E-03  0.00000000E+00
  0.00000000E+00 -2.53586479E-01  1.56850426E+00  2.53586479E-01 -1.56850426E+00
  0.00000000E+00  0.00000000E+00  0.00000000E+00  0.00000000E+00 -8.30761269E-02
  0.00000000E+00  0.00000000E+00  0.00000000E+00  1.59669352E-01  0.00000000E+00
  0.00000000E+00  0.00000000E+00  6.48205996E-01  0.00000000E+00  0.00000000E+00
  0.00000000E+00  0.00000000E+00  5.92364643E-02 -5.24632328E-02 -2.75482057E-01
  8.50690998E-01  2.75482057E-01 -8.50690998E-01  0.00000000E+00  0.00000000E+00
  0.00000000E+00  0.00000000E+00  8.30761269E-02  0.00000000E+00  0.00000000E+00
  0.00000000E+00 -1.59669352E-01  0.00000000E+00  0.00000000E+00  0.00000000E+00
 -6.48205996E-01  0.00000000E+00  0.00000000E+00  0.00000000E+00  0.00000000E+00
  5.92364643E-02 -5.24632328E-02  2.75482057E-01 -8.50690998E-01 -2.75482057E-01
  8.50690998E-01  0.00000000E+00  0.00000000E+00  0.00000000E+00  0.00000000E+00
  3.17069022E-01  0.00000000E+00  0.00000000E+00  0.00000000E+00 -1.38318091E+00
  0.00000000E+00  0.00000000E+00  0.00000000E+00 -2.58781125E-01  0.00000000E+00
  0.00000000E+00  0.00000000E+00  0.00000000E+00  3.38448673E-02 -3.37843563E-03
  2.53586479E-01 -1.56850426E+00  0.00000000E+00  0.00000000E+00 -2.53586479E-01
  1.56850426E+00  0.00000000E+00  0.00000000E+00  0.00000000E+00  0.00000000E+00
 -3.23076540E-02  0.00000000E+00  0.00000000E+00  0.00000000E+00  5.04870249E-01
  0.00000000E+00  0.00000000E+00  0.00000000E+00 -1.05185706E+00  0.00000000E+00
  0.00000000E+00  0.00000000E+00  0.00000000E+00  6.73900771E-02 -8.02273690E-02
  0.00000000E+00  0.00000000E+00  2.30931562E-01 -3.94648169E-01 -2.30931562E-01
  3.94648169E-01  0.00000000E+00  0.00000000E+00  0.00000000E+00  0.00000000E+00
  3.22912947E-01  0.00000000E+00  0.00000000E+00  0.00000000E+00 -1.89336537E+00
  0.00000000E+00  0.00000000E+00  0.00000000E+00  2.28416340E+00  0.00000000E+00
  0.00000000E+00  0.00000000E+00  0.00000000E+00  2.40492171E-02  1.02307135E-01
 -3.23621266E-01 -2.40754515E-01  3.23621266E-01  2.40754515E-01  0.00000000E+00
  0.00000000E+00  0.00000000E+00  0.00000000E+00 -3.22912947E-01  0.00000000E+00
  0.00000000E+00  0.00000000E+00  1.89336537E+00  0.00000000E+00  0.00000000E+00
  0.00000000E+00 -2.28416340E+00  0.00000000E+00  0.00000000E+00  0.00000000E+00
  0.00000000E+00  2.40492171E-02  1.02307135E-01  3.23621266E-01  2.40754515E-01
 -3.23621266E-01 -2.40754515E-01  0.00000000E+00  0.00000000E+00  0.00000000E+00
  0.00000000E+00  3.23076540E-02  0.00000000E+00  0.00000000E+00  0.00000000E+00
 -5.04870249E-01  0.00000000E+00  0.00000000E+00  0.00000000E+00  1.05185706E+00
  0.00000000E+00  0.00000000E+00  0.00000000E+00  0.00000000E+00  6.73900771E-02
 -8.02273690E-02 -2.30931562E-01  3.94648169E-01  0.00000000E+00  0.00000000E+00
  2.30931562E-01 -3.94648169E-01  0.00000000E+00  0.00000000E+00  0.00000000E+00
  0.00000000E+00  1.99788648E-01  0.00000000E+00  0.00000000E+00  0.00000000E+00
 -1.72653874E+00  0.00000000E+00  0.00000000E+00  0.00000000E+00 -9.19807846E-01
  0.00000000E+00  0.00000000E+00  0.00000000E+00  0.00000000E+00 -1.27242563E-01
  1.15873356E-01  0.00000000E+00  0.00000000E+00 -6.50164651E-02 -9.39563714E-01
  6.50164651E-02  9.39563714E-01  0.00000000E+00  0.00000000E+00  0.00000000E+00
  0.00000000E+00 -3.67170288E-01  0.00000000E+00  0.00000000E+00  0.00000000E+00
  3.08512749E+00  0.00000000E+00  0.00000000E+00  0.00000000E+00  2.70341115E+00
  0.00000000E+00  0.00000000E+00  0.00000000E+00  0.00000000E+00 -1.53939750E-02
 -8.96406177E-02  5.78640701E-02  1.97560174E+00 -5.78640701E-02 -1.97560174E+00
  0.00000000E+00  0.00000000E+00  0.00000000E+00  0.00000000E+00  3.67170288E-01
  0.00000000E+00  0.00000000E+00  0.00000000E+00 -3.08512749E+00  0.00000000E+00
  0.00000000E+00  0.00000000E+00 -2.70341115E+00  0.00000000E+00  0.00000000E+00
  0.00000000E+00  0.00000000E+00 -1.53939750E-02 -8.96406177E-02 -5.78640701E-02
 -1.97560174E+00  5.78640701E-02  1.97560174E+00  0.00000000E+00  0.00000000E+00
  0.00000000E+00  0.00000000E+00 -1.99788648E-01  0.00000000E+00  0.00000000E+00
  0.00000000E+00  1.72653874E+00  0.00000000E+00  0.00000000E+00  0.00000000E+00
  9.19807846E-01  0.00000000E+00  0.00000000E+00  0.00000000E+00  0.00000000E+00
 -1.27242563E-01  1.15873356E-01  6.50164651E-02  9.39563714E-01  0.00000000E+00
  0.00000000E+00 -6.50164651E-02 -9.39563714E-01  0.00000000E+00  0.00000000E+00
  0.00000000E+00  0.00000000E+00  4.28328387E-02  0.00000000E+00  0.00000000E+00
  0.00000000E+00  9.82535507E-02  0.00000000E+00  0.00000000E+00  0.00000000E+00
  1.26993288E-01  0.00000000E+00  0.00000000E+00  0.00000000E+00  0.00000000E+00
  5.45966214E-03 -6.42028069E-03  0.00000000E+00  0.00000000E+00 -3.24407116E-02
 -4.81907798E-02  3.24407116E-02  4.81907798E-02  0.00000000E+00  0.00000000E+00
  0.00000000E+00  0.00000000E+00  5.98463399E-02  0.00000000E+00  0.00000000E+00
  0.00000000E+00  1.34031361E-01  0.00000000E+00  0.00000000E+00  0.00000000E+00
  1.57128643E-01  0.00000000E+00  0.00000000E+00  0.00000000E+00  0.00000000E+00
  2.52478937E-03 -2.17726272E-03 -4.36855676E-02 -6.38392990E-02  4.36855676E-02
  6.38392990E-02  0.00000000E+00  0.00000000E+00  0.00000000E+00  0.00000000E+00
  5.98463399E-02  0.00000000E+00  0.00000000E+00  0.00000000E+00  1.34031361E-01
  0.00000000E+00  0.00000000E+00  0.00000000E+00  1.57128643E-01  0.00000000E+00
  0.00000000E+00  0.00000000E+00  0.00000000E+00 -2.52478937E-03  2.17726272E-03
 -4.36855676E-02 -6.38392990E-02  4.36855676E-02  6.38392990E-02  0.00000000E+00
  0.00000000E+00  0.00000000E+00  0.00000000E+00  4.28328387E-02  0.00000000E+00
  0.00000000E+00  0.00000000E+00  9.82535507E-02  0.00000000E+00  0.00000000E+00
  0.00000000E+00  1.26993288E-01  0.00000000E+00  0.00000000E+00  0.00000000E+00
  0.00000000E+00 -5.45966214E-03  6.42028069E-03 -3.24407116E-02 -4.81907798E-02
  0.00000000E+00  0.00000000E+00  3.24407116E-02  4.81907798E-02  0.00000000E+00
  0.00000000E+00  0.00000000E+00  0.00000000E+00 -1.67491396E-01  0.00000000E+00
  0.00000000E+00  0.00000000E+00 -1.58777851E-01  0.00000000E+00  0.00000000E+00
  0.00000000E+00 -5.25409402E-02  0.00000000E+00  0.00000000E+00  0.00000000E+00
  0.00000000E+00 -6.99456334E-02 -8.27482495E-02  0.00000000E+00  0.00000000E+00
  1.59756609E-01  1.01718354E-01 -1.59756609E-01 -1.01718354E-01  0.00000000E+00
  0.00000000E+00  0.00000000E+00  0.00000000E+00  1.51104643E-01  0.00000000E+00
  0.00000000E+00  0.00000000E+00  1.45238515E-01  0.00000000E+00  0.00000000E+00
  0.00000000E+00  2.52242630E-03  0.00000000E+00  0.00000000E+00  0.00000000E+00
  0.00000000E+00 -2.66008433E-02 -7.33911465E-02 -1.23499587E-01 -7.57976540E-02
  1.23499587E-01  7.57976540E-02  0.00000000E+00  0.00000000E+00  0.00000000E+00
  0.00000000E+00  1.51104643E-01  0.00000000E+00  0.00000000E+00  0.00000000E+00
  1.45238515E-01  0.00000000E+00  0.00000000E+00  0.00000000E+00  2.52242630E-03
  0.00000000E+00  0.00000000E+00  0.00000000E+00  0.00000000E+00  2.66008433E-02
  7.33911465E-02 -1.23499587E-01 -7.57976540E-02  1.23499587E-01  7.57976540E-02
  0.00000000E+00  0.00000000E+00  0.00000000E+00  0.00000000E+00 -1.67491396E-01
  0.00000000E+00  0.00000000E+00  0.00000000E+00 -1.58777851E-01  0.00000000E+00
  0.00000000E+00  0.00000000E+00 -5.25409402E-02  0.00000000E+00  0.00000000E+00
  0.00000000E+00  0.00000000E+00  6.99456334E-02  8.27482495E-02  1.59756609E-01
  1.01718354E-01  0.00000000E+00  0.00000000E+00 -1.59756609E-01 -1.01718354E-01
  0.00000000E+00  0.00000000E+00  0.00000000E+00  0.00000000E+00 -1.93234752E-01
  0.00000000E+00  0.00000000E+00  0.00000000E+00 -9.51022620E-02  0.00000000E+00
  0.00000000E+00  0.00000000E+00  2.40958401E-01  0.00000000E+00  0.00000000E+00
  0.00000000E+00  0.00000000E+00 -1.23988157E-01 -4.02832757E-02  0.00000000E+00
  0.00000000E+00  1.32869511E-01  1.57642375E-02 -1.32869511E-01 -1.57642375E-02
  0.00000000E+00  0.00000000E+00  0.00000000E+00  0.00000000E+00 -2.40390427E-01
  0.00000000E+00  0.00000000E+00  0.00000000E+00 -1.38477845E-01  0.00000000E+00
  0.00000000E+00  0.00000000E+00  2.71002047E-01  0.00000000E+00  0.00000000E+00
  0.00000000E+00  0.00000000E+00  3.13529691E-02  5.75182104E-02  1.21481428E-01
  1.09337270E-02 -1.21481428E-01 -1.09337270E-02  0.00000000E+00  0.00000000E+00
  0.00000000E+00  0.00000000E+00 -2.40390427E-01  0.00000000E+00  0.00000000E+00
  0.00000000E+00 -1.38477845E-01  0.00000000E+00  0.00000000E+00  0.00000000E+00
  2.71002047E-01  0.00000000E+00  0.00000000E+00  0.00000000E+00  0.00000000E+00
 -3.13529691E-02 -5.75182104E-02  1.21481428E-01  1.09337270E-02 -1.21481428E-01
 -1.09337270E-02  0.00000000E+00  0.00000000E+00  0.00000000E+00  0.00000000E+00
 -1.93234752E-01  0.00000000E+00  0.00000000E+00  0.00000000E+00 -9.51022620E-02
  0.00000000E+00  0.00000000E+00  0.00000000E+00  2.40958401E-01  0.00000000E+00
  0.00000000E+00  0.00000000E+00  0.00000000E+00  1.23988157E-01  4.02832757E-02
  1.32869511E-01  1.57642375E-02  0.00000000E+00  0.00000000E+00 -1.32869511E-01
 -1.57642375E-02  0.00000000E+00  0.00000000E+00  0.00000000E+00  0.00000000E+00
  4.80872498E-02  0.00000000E+00  0.00000000E+00  0.00000000E+00  3.29878976E-02
  0.00000000E+00  0.00000000E+00  0.00000000E+00 -4.18964121E-02  0.00000000E+00
  0.00000000E+00  0.00000000E+00  0.00000000E+00 -1.06942299E-02 -2.15620117E-01
  0.00000000E+00  0.00000000E+00  4.81904056E-02  8.82311221E-03 -4.81904056E-02
 -8.82311221E-03  0.00000000E+00  0.00000000E+00  0.00000000E+00  0.00000000E+00
  1.43334372E-01  0.00000000E+00  0.00000000E+00  0.00000000E+00  1.05171947E-01
  0.00000000E+00  0.00000000E+00  0.00000000E+00 -3.86682923E-02  0.00000000E+00
  0.00000000E+00  0.00000000E+00  0.00000000E+00  4.69088867E-01  1.41764400E-01
  1.47067399E-01  1.53037619E-02 -1.47067399E-01 -1.53037619E-02  0.00000000E+00
  0.00000000E+00  0.00000000E+00  0.00000000E+00  1.43334372E-01  0.00000000E+00
  0.00000000E+00  0.00000000E+00  1.05171947E-01  0.00000000E+00  0.00000000E+00
  0.00000000E+00 -3.86682923E-02  0.00000000E+00  0.00000000E+00  0.00000000E+00
  0.00000000E+00 -4.69088867E-01 -1.41764400E-01  1.47067399E-01  1.53037619E-02
 -1.47067399E-01 -1.53037619E-02  0.00000000E+00  0.00000000E+00  0.00000000E+00
  0.00000000E+00  4.80872498E-02  0.00000000E+00  0.00000000E+00  0.00000000E+00
  3.29878976E-02  0.00000000E+00  0.00000000E+00  0.00000000E+00 -4.18964121E-02
  0.00000000E+00  0.00000000E+00  0.00000000E+00  0.00000000E+00  1.06942299E-02
  2.15620117E-01  4.81904056E-02  8.82311221E-03  0.00000000E+00  0.00000000E+00
 -4.81904056E-02 -8.82311221E-03  0.00000000E+00  0.00000000E+00  0.00000000E+00
  0.00000000E+00  1.38930362E-01  0.00000000E+00  0.00000000E+00  0.00000000E+00
  8.06089287E-02  0.00000000E+00  0.00000000E+00  0.00000000E+00 -3.02146907E-02
  0.00000000E+00  0.00000000E+00  0.00000000E+00  0.00000000E+00 -1.24531853E-01
 -3.18933468E-01  0.00000000E+00  0.00000000E+00  5.50662985E-02  1.58552144E-03
 -5.50662985E-02 -1.58552144E-03  0.00000000E+00  0.00000000E+00  0.00000000E+00
  0.00000000E+00  3.32335797E-03  0.00000000E+00  0.00000000E+00  0.00000000E+00
  3.06209354E-03  0.00000000E+00  0.00000000E+00  0.00000000E+00 -4.17169032E-02
  0.00000000E+00  0.00000000E+00  0.00000000E+00  0.00000000E+00 -3.00714348E-01
  3.80361665E-01 -4.93109900E-03  4.49419929E-03  4.93109900E-03 -4.49419929E-03
  0.00000000E+00  0.00000000E+00  0.00000000E+00  0.00000000E+00  3.32335797E-03
  0.00000000E+00  0.00000000E+00  0.00000000E+00  3.06209354E-03  0.00000000E+00
  0.00000000E+00  0.00000000E+00 -4.17169032E-02  0.00000000E+00  0.00000000E+00
  0.00000000E+00  0.00000000E+00  3.00714348E-01 -3.80361665E-01 -4.93109900E-03
  4.49419929E-03  4.93109900E-03 -4.49419929E-03  0.00000000E+00  0.00000000E+00
  0.00000000E+00  0.00000000E+00  1.38930362E-01  0.00000000E+00  0.00000000E+00
  0.00000000E+00  8.06089287E-02  0.00000000E+00  0.00000000E+00  0.00000000E+00
 -3.02146907E-02  0.00000000E+00  0.00000000E+00  0.00000000E+00  0.00000000E+00
  1.24531853E-01  3.18933468E-01  5.50662985E-02  1.58552144E-03  0.00000000E+00
  0.00000000E+00 -5.50662985E-02 -1.58552144E-03  0.00000000E+00  0.00000000E+00
  0.00000000E+00  0.00000000E+00 -2.01552281E-01  0.00000000E+00  0.00000000E+00
  0.00000000E+00 -1.15412752E-01  0.00000000E+00  0.00000000E+00  0.00000000E+00
  2.64612633E-02  0.00000000E+00  0.00000000E+00  0.00000000E+00  0.00000000E+00
  6.01280823E-01 -1.87476111E-01  0.00000000E+00  0.00000000E+00 -5.93569701E-02
  1.39392524E-02  5.93569701E-02 -1.39392524E-02  0.00000000E+00  0.00000000E+00
  0.00000000E+00  0.00000000E+00 -2.08324407E-02  0.00000000E+00  0.00000000E+00
  0.00000000E+00 -2.45105288E-03  0.00000000E+00  0.00000000E+00  0.00000000E+00
  6.04584327E-02  0.00000000E+00  0.00000000E+00  0.00000000E+00  0.00000000E+00
 -5.18452481E-02  1.22998537E-01 -3.45583708E-03 -1.40236411E-02  3.45583708E-03
  1.40236411E-02  0.00000000E+00  0.00000000E+00  0.00000000E+00  0.00000000E+00
 -2.08324407E-02  0.00000000E+00  0.00000000E+00  0.00000000E+00 -2.45105288E-03
  0.00000000E+00  0.00000000E+00  0.00000000E+00  6.04584327E-02  0.00000000E+00
  0.00000000E+00  0.00000000E+00  0.00000000E+00  5.18452481E-02 -1.22998537E-01
 -3.45583708E-03 -1.40236411E-02  3.45583708E-03  1.40236411E-02  0.00000000E+00
  0.00000000E+00  0.00000000E+00  0.00000000E+00 -2.01552281E-01  0.00000000E+00
  0.00000000E+00  0.00000000E+00 -1.15412752E-01  0.00000000E+00  0.00000000E+00
  0.00000000E+00  2.64612633E-02  0.00000000E+00  0.00000000E+00  0.00000000E+00
  0.00000000E+00 -6.01280823E-01  1.87476111E-01 -5.93569701E-02  1.39392524E-02
  0.00000000E+00  0.00000000E+00  5.93569701E-02 -1.39392524E-02  0.00000000E+00
  0.00000000E+00  0.00000000E+00  0.00000000E+00 -2.19609666E-01  0.00000000E+00
  0.00000000E+00  0.00000000E+00 -4.99842256E-02  0.00000000E+00  0.00000000E+00
  0.00000000E+00 -1.38083158E-02  0.00000000E+00  0.00000000E+00  0.00000000E+00
  0.00000000E+00 -2.40431203E-02  5.29962741E-01  0.00000000E+00  0.00000000E+00
 -1.74419379E-02  2.33175222E-02  1.74419379E-02 -2.33175222E-02  0.00000000E+00
  0.00000000E+00  0.00000000E+00  0.00000000E+00  2.25140524E-01  0.00000000E+00
  0.00000000E+00  0.00000000E+00  5.90407411E-02  0.00000000E+00  0.00000000E+00
  0.00000000E+00  6.05346862E-03  0.00000000E+00  0.00000000E+00  0.00000000E+00
  0.00000000E+00  6.52348650E-03  5.35830264E-01  3.49000818E-02 -2.02211398E-02
 -3.49000818E-02  2.02211398E-02  0.00000000E+00  0.00000000E+00  0.00000000E+00
  0.00000000E+00  2.25140524E-01  0.00000000E+00  0.00000000E+00  0.00000000E+00
  5.90407411E-02  0.00000000E+00  0.00000000E+00  0.00000000E+00  6.05346862E-03
  0.00000000E+00  0.00000000E+00  0.00000000E+00  0.00000000E+00 -6.52348650E-03
 -5.35830264E-01  3.49000818E-02 -2.02211398E-02 -3.49000818E-02  2.02211398E-02
  0.00000000E+00  0.00000000E+00  0.00000000E+00  0.00000000E+00 -2.19609666E-01
  0.00000000E+00  0.00000000E+00  0.00000000E+00 -4.99842256E-02  0.00000000E+00
  0.00000000E+00  0.00000000E+00 -1.38083158E-02  0.00000000E+00  0.00000000E+00
  0.00000000E+00  0.00000000E+00  2.40431203E-02 -5.29962741E-01 -1.74419379E-02
  2.33175222E-02  0.00000000E+00  0.00000000E+00  1.74419379E-02 -2.33175222E-02
  0.00000000E+00  0.00000000E+00  0.00000000E+00  0.00000000E+00  5.08422947E-01
  0.00000000E+00  0.00000000E+00  0.00000000E+00 -1.65147536E-01  0.00000000E+00
  0.00000000E+00  0.00000000E+00 -1.31311330E-01  0.00000000E+00  0.00000000E+00
  0.00000000E+00  0.00000000E+00  1.75308219E-01  2.08902221E-01  0.00000000E+00
  0.00000000E+00  1.51721796E-01  2.01776047E-01 -1.51721796E-01 -2.01776047E-01
  0.00000000E+00  0.00000000E+00  0.00000000E+00  0.00000000E+00 -4.88822748E-01
  0.00000000E+00  0.00000000E+00  0.00000000E+00  1.73024971E-01  0.00000000E+00
  0.00000000E+00  0.00000000E+00  8.57774282E-02  0.00000000E+00  0.00000000E+00
  0.00000000E+00  0.00000000E+00  1.64913503E-01  1.69413476E-01 -1.24334650E-01
 -1.76027231E-01  1.24334650E-01  1.76027231E-01  0.00000000E+00  0.00000000E+00
  0.00000000E+00  0.00000000E+00 -4.88822748E-01  0.00000000E+00  0.00000000E+00
  0.00000000E+00  1.73024971E-01  0.00000000E+00  0.00000000E+00  0.00000000E+00
  8.57774282E-02  0.00000000E+00  0.00000000E+00  0.00000000E+00  0.00000000E+00
 -1.64913503E-01 -1.69413476E-01 -1.24334650E-01 -1.76027231E-01  1.24334650E-01
  1.76027231E-01  0.00000000E+00  0.00000000E+00  0.00000000E+00  0.00000000E+00
  5.08422947E-01  0.00000000E+00  0.00000000E+00  0.00000000E+00 -1.65147536E-01
  0.00000000E+00  0.00000000E+00  0.00000000E+00 -1.31311330E-01  0.00000000E+00
  0.00000000E+00  0.00000000E+00  0.00000000E+00 -1.75308219E-01 -2.08902221E-01
  1.51721796E-01  2.01776047E-01  0.00000000E+00  0.00000000E+00 -1.51721796E-01
 -2.01776047E-01  0.00000000E+00  0.00000000E+00  0.00000000E+00  0.00000000E+00
  4.98552037E-01  0.00000000E+00  0.00000000E+00  0.00000000E+00 -1.97607506E-01
  0.00000000E+00  0.00000000E+00  0.00000000E+00  2.14014572E-01  0.00000000E+00
  0.00000000E+00  0.00000000E+00  0.00000000E+00  2.12405560E-01  1.26357804E-01
  0.00000000E+00  0.00000000E+00  2.12397471E-01  1.38048408E-01 -2.12397471E-01
 -1.38048408E-01  0.00000000E+00  0.00000000E+00  0.00000000E+00  0.00000000E+00
  5.42294377E-01  0.00000000E+00  0.00000000E+00  0.00000000E+00 -2.40938037E-01
  0.00000000E+00  0.00000000E+00  0.00000000E+00  2.07040678E-01  0.00000000E+00
  0.00000000E+00  0.00000000E+00  0.00000000E+00 -1.90613043E-01 -1.39223887E-01
  1.99581459E-01  1.36725538E-01 -1.99581459E-01 -1.36725538E-01  0.00000000E+00
  0.00000000E+00  0.00000000E+00  0.00000000E+00  5.42294377E-01  0.00000000E+00
  0.00000000E+00  0.00000000E+00 -2.40938037E-01  0.00000000E+00  0.00000000E+00
  0.00000000E+00  2.07040678E-01  0.00000000E+00  0.00000000E+00  0.00000000E+00
  0.00000000E+00  1.90613043E-01  1.39223887E-01  1.99581459E-01  1.36725538E-01
 -1.99581459E-01 -1.36725538E-01  0.00000000E+00  0.00000000E+00  0.00000000E+00
  0.00000000E+00  4.98552037E-01  0.00000000E+00  0.00000000E+00  0.00000000E+00
 -1.97607506E-01  0.00000000E+00  0.00000000E+00  0.00000000E+00  2.14014572E-01
  0.00000000E+00  0.00000000E+00  0.00000000E+00  0.00000000E+00 -2.12405560E-01
 -1.26357804E-01  2.12397471E-01  1.38048408E-01  0.00000000E+00  0.00000000E+00
 -2.12397471E-01 -1.38048408E-01  0.00000000E+00  0.00000000E+00  0.00000000E+00
  0.00000000E+00 -1.40318073E-01  0.00000000E+00  0.00000000E+00  0.00000000E+00
  3.72320035E-01  0.00000000E+00  0.00000000E+00  0.00000000E+00 -2.59405054E-01
  0.00000000E+00  0.00000000E+00  0.00000000E+00  0.00000000E+00  1.68430687E-01
  1.62962894E-01  0.00000000E+00  0.00000000E+00  2.69092020E-01 -3.90930693E-02
 -2.69092020E-01  3.90930693E-02  0.00000000E+00  0.00000000E+00  0.00000000E+00
  0.00000000E+00 -1.61011403E-01  0.00000000E+00  0.00000000E+00  0.00000000E+00
  6.08841522E-01  0.00000000E+00  0.00000000E+00  0.00000000E+00 -1.31878184E-01
  0.00000000E+00  0.00000000E+00  0.00000000E+00  0.00000000E+00 -3.83770011E-01
 -2.37990770E-01  5.66280154E-01 -1.16466716E-01 -5.66280154E-01  1.16466716E-01
  0.00000000E+00  0.00000000E+00  0.00000000E+00  0.00000000E+00 -1.61011403E-01
  0.00000000E+00  0.00000000E+00  0.00000000E+00  6.08841522E-01  0.00000000E+00
  0.00000000E+00  0.00000000E+00 -1.31878184E-01  0.00000000E+00  0.00000000E+00
  0.00000000E+00  0.00000000E+00  3.83770011E-01  2.37990770E-01  5.66280154E-01
 -1.16466716E-01 -5.66280154E-01  1.16466716E-01  0.00000000E+00  0.00000000E+00
  0.00000000E+00  0.00000000E+00 -1.40318073E-01  0.00000000E+00  0.00000000E+00
  0.00000000E+00  3.72320035E-01  0.00000000E+00  0.00000000E+00  0.00000000E+00
 -2.59405054E-01  0.00000000E+00  0.00000000E+00  0.00000000E+00  0.00000000E+00
 -1.68430687E-01 -1.62962894E-01  2.69092020E-01 -3.90930693E-02  0.00000000E+00
  0.00000000E+00 -2.69092020E-01  3.90930693E-02  0.00000000E+00  0.00000000E+00
  0.00000000E+00  0.00000000E+00 -4.18611548E-02  0.00000000E+00  0.00000000E+00
  0.00000000E+00  5.69322856E-01  0.00000000E+00  0.00000000E+00  0.00000000E+00
  2.97477421E-01  0.00000000E+00  0.00000000E+00  0.00000000E+00  0.00000000E+00
  3.16027126E-01  1.69463804E-01  0.00000000E+00  0.00000000E+00  6.21614542E-01
 -3.44579851E-01 -6.21614542E-01  3.44579851E-01  0.00000000E+00  0.00000000E+00
  0.00000000E+00  0.00000000E+00 -5.78109750E-02  0.00000000E+00  0.00000000E+00
  0.00000000E+00 -1.88268918E-01  0.00000000E+00  0.00000000E+00  0.00000000E+00
 -3.81425938E-01  0.00000000E+00  0.00000000E+00  0.00000000E+00  0.00000000E+00
  1.73046967E-01  6.95773292E-02 -3.48552060E-01  2.15792257E-01  3.48552060E-01
 -2.15792257E-01  0.00000000E+00  0.00000000E+00  0.00000000E+00  0.00000000E+00
 -5.78109750E-02  0.00000000E+00  0.00000000E+00  0.00000000E+00 -1.88268918E-01
  0.00000000E+00  0.00000000E+00  0.00000000E+00 -3.81425938E-01  0.00000000E+00
  0.00000000E+00  0.00000000E+00  0.00000000E+00 -1.73046967E-01 -6.95773292E-02
 -3.48552060E-01  2.15792257E-01  3.48552060E-01 -2.15792257E-01  0.00000000E+00
  0.00000000E+00  0.00000000E+00  0.00000000E+00 -4.18611548E-02  0.00000000E+00
  0.00000000E+00  0.00000000E+00  5.69322856E-01  0.00000000E+00  0.00000000E+00
  0.00000000E+00  2.97477421E-01  0.00000000E+00  0.00000000E+00  0.00000000E+00
  0.00000000E+00 -3.16027126E-01 -1.69463804E-01  6.21614542E-01 -3.44579851E-01
  0.00000000E+00  0.00000000E+00 -6.21614542E-01  3.44579851E-01  0.00000000E+00
  0.00000000E+00  0.00000000E+00  0.00000000E+00  2.01517678E-01  0.00000000E+00
  0.00000000E+00  0.00000000E+00 -1.03834395E+00  0.00000000E+00  0.00000000E+00
  0.00000000E+00  1.59389438E+00  0.00000000E+00  0.00000000E+00  0.00000000E+00
  0.00000000E+00 -1.19518356E-01  1.17476261E-02  0.00000000E+00  0.00000000E+00
 -2.30139588E-01 -1.30855567E-02  2.30139588E-01  1.30855567E-02  0.00000000E+00
  0.00000000E+00  0.00000000E+00  0.00000000E+00 -3.31931633E-01  0.00000000E+00
  0.00000000E+00  0.00000000E+00  1.27963429E+00  0.00000000E+00  0.00000000E+00
  0.00000000E+00 -1.21125152E+00  0.00000000E+00  0.00000000E+00  0.00000000E+00
  0.00000000E+00 -1.39049606E-01  4.75048659E-02  7.02653528E-02  6.20462472E-01
 -7.02653528E-02 -6.20462472E-01  0.00000000E+00  0.00000000E+00  0.00000000E+00
  0.00000000E+00 -3.31931633E-01  0.00000000E+00  0.00000000E+00  0.00000000E+00
  1.27963429E+00  0.00000000E+00  0.00000000E+00  0.00000000E+00 -1.21125152E+00
  0.00000000E+00  0.00000000E+00  0.00000000E+00  0.00000000E+00  1.39049606E-01
 -4.75048659E-02  7.02653528E-02  6.20462472E-01 -7.02653528E-02 -6.20462472E-01
  0.00000000E+00  0.00000000E+00  0.00000000E+00  0.00000000E+00  2.01517678E-01
  0.00000000E+00  0.00000000E+00  0.00000000E+00 -1.03834395E+00  0.00000000E+00
  0.00000000E+00  0.00000000E+00  1.59389438E+00  0.00000000E+00  0.00000000E+00
  0.00000000E+00  0.00000000E+00  1.19518356E-01 -1.17476261E-02 -2.30139588E-01
 -1.30855567E-02  0.00000000E+00  0.00000000E+00  2.30139588E-01  1.30855567E-02
  0.00000000E+00  0.00000000E+00  0.00000000E+00  0.00000000E+00 -3.53699166E-01
  0.00000000E+00  0.00000000E+00  0.00000000E+00  1.48644792E+00  0.00000000E+00
  0.00000000E+00  0.00000000E+00  4.27829643E-01  0.00000000E+00  0.00000000E+00
  0.00000000E+00  0.00000000E+00  6.62864042E-02  3.81045298E-03  0.00000000E+00
  0.00000000E+00 -2.24189592E-01  1.58355617E+00  2.24189592E-01 -1.58355617E+00
  0.00000000E+00  0.00000000E+00  0.00000000E+00  0.00000000E+00 -1.01069444E-01
  0.00000000E+00  0.00000000E+00  0.00000000E+00  1.22378386E-01  0.00000000E+00
  0.00000000E+00  0.00000000E+00  3.76834720E-02  0.00000000E+00  0.00000000E+00
  0.00000000E+00  0.00000000E+00  4.90990402E-02 -5.14585360E-02 -1.71724204E-01
  6.18762303E-01  1.71724204E-01 -6.18762303E-01  0.00000000E+00  0.00000000E+00
  0.00000000E+00  0.00000000E+00 -1.01069444E-01  0.00000000E+00  0.00000000E+00
  0.00000000E+00  1.22378386E-01  0.00000000E+00  0.00000000E+00  0.00000000E+00
  3.76834720E-02  0.00000000E+00  0.00000000E+00  0.00000000E+00  0.00000000E+00
 -4.90990402E-02  5.14585360E-02 -1.71724204E-01  6.18762303E-01  1.71724204E-01
 -6.18762303E-01  0.00000000E+00  0.00000000E+00  0.00000000E+00  0.00000000E+00
 -3.53699166E-01  0.00000000E+00  0.00000000E+00  0.00000000E+00  1.48644792E+00
  0.00000000E+00  0.00000000E+00  0.00000000E+00  4.27829643E-01  0.00000000E+00
  0.00000000E+00  0.00000000E+00  0.00000000E+00 -6.62864042E-02 -3.81045298E-03
 -2.24189592E-01  1.58355617E+00  0.00000000E+00  0.00000000E+00  2.24189592E-01
 -1.58355617E+00  0.00000000E+00  0.00000000E+00  0.00000000E+00  0.00000000E+00
  2.14370944E-02  0.00000000E+00  0.00000000E+00  0.00000000E+00 -3.71829203E-01
  0.00000000E+00  0.00000000E+00  0.00000000E+00 -1.33980687E+00  0.00000000E+00
  0.00000000E+00  0.00000000E+00  0.00000000E+00 -4.26752424E-02  6.15426857E-02
  0.00000000E+00  0.00000000E+00  8.50062834E-02 -4.20517988E-01 -8.50062834E-02
  4.20517988E-01  0.00000000E+00  0.00000000E+00  0.00000000E+00  0.00000000E+00
 -2.30582909E-01  0.00000000E+00  0.00000000E+00  0.00000000E+00  1.07393024E+00
  0.00000000E+00  0.00000000E+00  0.00000000E+00  1.51843658E+00  0.00000000E+00
  0.00000000E+00  0.00000000E+00  0.00000000E+00 -4.30044873E-02  5.67469045E-02
 -3.26386176E-01  1.76725152E+00  3.26386176E-01 -1.76725152E+00  0.00000000E+00
  0.00000000E+00  0.00000000E+00  0.00000000E+00 -2.30582909E-01  0.00000000E+00
  0.00000000E+00  0.00000000E+00  1.07393024E+00  0.00000000E+00  0.00000000E+00
  0.00000000E+00  1.51843658E+00  0.00000000E+00  0.00000000E+00  0.00000000E+00
  0.00000000E+00  4.30044873E-02 -5.67469045E-02 -3.26386176E-01  1.76725152E+00
  3.26386176E-01 -1.76725152E+00  0.00000000E+00  0.00000000E+00  0.00000000E+00
  0.00000000E+00  2.14370944E-02  0.00000000E+00  0.00000000E+00  0.00000000E+00
 -3.71829203E-01  0.00000000E+00  0.00000000E+00  0.00000000E+00 -1.33980687E+00
  0.00000000E+00  0.00000000E+00  0.00000000E+00  0.00000000E+00  4.26752424E-02
 -6.15426857E-02  8.50062834E-02 -4.20517988E-01  0.00000000E+00  0.00000000E+00
 -8.50062834E-02  4.20517988E-01  1.34461417E-02  6.82557440E-02 -1.87610696E-03
 -4.10570523E-03  0.00000000E+00  8.65121136E-02 -6.67622969E-03 -3.85003756E-03
  0.00000000E+00  6.30798517E-02 -1.90388159E-02  2.54048230E-02  0.00000000E+00
  5.28297563E-02  5.48908835E-02  5.25578615E-02  3.67918366E-04  0.00000000E+00
  0.00000000E+00  3.44420273E-02  6.61282736E-02  3.19779901E-02  6.14488108E-02
  3.19779901E-02  6.14488108E-02  6.09378114E-03  3.14454774E-02 -7.58270795E-03
  2.48115884E-02  0.00000000E+00  3.90703791E-02 -2.54149102E-02  7.05290445E-02
  0.00000000E+00  2.43763629E-02 -3.94489633E-02  9.23435085E-02  0.00000000E+00
  2.13522507E-02  2.89557002E-02  2.37187346E-02  3.68707453E-03  0.00000000E+00
  0.00000000E+00  1.14931033E-02  2.21231301E-02  1.14931033E-02  2.21231301E-02
 -6.09378114E-03 -3.14454774E-02 -7.58270795E-03  2.48115884E-02  0.00000000E+00
 -3.90703791E-02 -2.54149102E-02  7.05290445E-02  0.00000000E+00 -2.43763629E-02
 -3.94489633E-02  9.23435085E-02  0.00000000E+00 -2.13522507E-02 -2.89557002E-02
 -2.37187346E-02 -3.68707453E-03  0.00000000E+00  0.00000000E+00 -1.14931033E-02
 -2.21231301E-02 -1.14931033E-02 -2.21231301E-02 -1.34461417E-02 -6.82557440E-02
 -1.87610696E-03 -4.10570523E-03  0.00000000E+00 -8.65121136E-02 -6.67622969E-03
 -3.85003756E-03  0.00000000E+00 -6.30798517E-02 -1.90388159E-02  2.54048230E-02
  0.00000000E+00 -5.28297563E-02 -5.48908835E-02 -5.25578615E-02 -3.67918366E-04
  0.00000000E+00  0.00000000E+00 -3.19779901E-02 -6.14488108E-02 -3.44420273E-02
 -6.61282736E-02 -3.19779901E-02 -6.14488108E-02  4.14021914E-03  1.68383236E-02
  2.59174557E-02  1.85324577E-02  0.00000000E+00  1.56900508E-02  6.60481491E-02
  4.42800962E-02  0.00000000E+00  1.06391795E-02  9.32538858E-02  4.71522677E-02
  0.00000000E+00  1.51413407E-02  6.84184084E-03  1.62027695E-02 -4.53704686E-03
  0.00000000E+00  0.00000000E+00 -6.11133877E-03 -1.11179717E-02  2.57472331E-02
  3.93903341E-02  2.57472331E-02  3.93903341E-02 -1.24646719E-02 -5.53814891E-02
  3.83230298E-02  1.88895447E-02  0.00000000E+00 -5.44739459E-02  9.46066150E-02
  4.80981901E-02  0.00000000E+00 -2.60197309E-02  1.10104709E-01  6.43603136E-02
  0.00000000E+00 -3.68234223E-02 -4.32664273E-02 -4.72798873E-02 -1.93135572E-04
  0.00000000E+00  0.00000000E+00 -4.99794534E-02 -7.60015486E-02 -4.99794534E-02
 -7.60015486E-02  1.24646719E-02  5.53814891E-02  3.83230298E-02  1.88895447E-02
  0.00000000E+00  5.44739459E-02  9.46066150E-02  4.80981901E-02  0.00000000E+00
  2.60197309E-02  1.10104709E-01  6.43603136E-02  0.00000000E+00  3.68234223E-02
  4.32664273E-02  4.72798873E-02  1.93135572E-04  0.00000000E+00  0.00000000E+00
  4.99794534E-02  7.60015486E-02  4.99794534E-02  7.60015486E-02 -4.14021914E-03
 -1.68383236E-02  2.59174557E-02  1.85324577E-02  0.00000000E+00 -1.56900508E-02
  6.60481491E-02  4.42800962E-02  0.00000000E+00 -1.06391795E-02  9.32538858E-02
  4.71522677E-02  0.00000000E+00 -1.51413407E-02 -6.84184084E-03 -1.62027695E-02
  4.53704686E-03  0.00000000E+00  0.00000000E+00 -2.57472331E-02 -3.93903341E-02
  6.11133877E-03  1.11179717E-02 -2.57472331E-02 -3.93903341E-02  2.43641369E-03
  3.22261786E-03 -7.96909984E-02  1.10895138E-01  0.00000000E+00  5.14186609E-03
 -1.20100896E-01  1.48348221E-01  0.00000000E+00  3.65874870E-02 -9.58495801E-02
  4.00585891E-02  0.00000000E+00  2.27095227E-02 -2.51791203E-02  7.38583688E-03
 -6.13259611E-03  0.00000000E+00  0.00000000E+00  1.14857038E-01  1.15993378E-01
  4.06314018E-03  3.10566743E-03  4.06314018E-03  3.10566743E-03 -2.99917353E-02
 -1.12253290E-01  4.98762448E-04 -7.87214538E-02  0.00000000E+00 -6.00619276E-02
 -2.77101405E-03 -9.93989014E-02  0.00000000E+00  2.18063336E-02 -7.73477420E-02
  4.92062862E-03  0.00000000E+00 -7.34621114E-02 -8.56148699E-02 -9.03076476E-02
 -4.45446768E-02  0.00000000E+00  0.00000000E+00 -2.37343419E-02 -9.62487234E-03
 -2.37343419E-02 -9.62487234E-03  2.99917353E-02  1.12253290E-01  4.98762448E-04
 -7.87214538E-02  0.00000000E+00  6.00619276E-02 -2.77101405E-03 -9.93989014E-02
  0.00000000E+00 -2.18063336E-02 -7.73477420E-02  4.92062862E-03  0.00000000E+00
  7.34621114E-02  8.56148699E-02  9.03076476E-02  4.45446768E-02  0.00000000E+00
  0.00000000E+00  2.37343419E-02  9.62487234E-03  2.37343419E-02  9.62487234E-03
 -2.43641369E-03 -3.22261786E-03 -7.96909984E-02  1.10895138E-01  0.00000000E+00
 -5.14186609E-03 -1.20100896E-01  1.48348221E-01  0.00000000E+00 -3.65874870E-02
 -9.58495801E-02  4.00585891E-02  0.00000000E+00 -2.27095227E-02  2.51791203E-02
 -7.38583688E-03  6.13259611E-03  0.00000000E+00  0.00000000E+00 -4.06314018E-03
 -3.10566743E-03 -1.14857038E-01 -1.15993378E-01 -4.06314018E-03 -3.10566743E-03
  1.44591914E-02  4.72030128E-02 -1.27668916E-01 -1.31082510E-01  0.00000000E+00
  1.14491995E-02 -1.28385875E-01 -1.26842245E-01  0.00000000E+00 -3.95956590E-02
 -5.06852287E-02 -6.33795648E-02  0.00000000E+00  4.93778598E-02  5.16009616E-02
  1.41188720E-03 -5.59147082E-02  0.00000000E+00  0.00000000E+00  1.01105132E-01
  6.16970153E-02 -1.02417245E-01 -8.22487348E-02 -1.02417245E-01 -8.22487348E-02
 -9.29831539E-03 -3.02132759E-02  5.97208618E-02  1.64310620E-01  0.00000000E+00
 -1.99876329E-02  6.05092894E-02  1.50444409E-01  0.00000000E+00 -6.34925000E-03
 -5.80799077E-03 -4.84988749E-02  0.00000000E+00 -1.49614277E-02  1.43609178E-03
 -5.14490781E-02 -2.40675704E-02  0.00000000E+00  0.00000000E+00 -9.03315336E-02
 -5.93785034E-02 -9.03315336E-02 -5.93785034E-02  9.29831539E-03  3.02132759E-02
  5.97208618E-02  1.64310620E-01  0.00000000E+00  1.99876329E-02  6.05092894E-02
  1.50444409E-01  0.00000000E+00  6.34925000E-03 -5.80799077E-03 -4.84988749E-02
  0.00000000E+00  1.49614277E-02 -1.43609178E-03  5.14490781E-02  2.40675704E-02
  0.00000000E+00  0.00000000E+00  9.03315336E-02  5.93785034E-02  9.03315336E-02
  5.93785034E-02 -1.44591914E-02 -4.72030128E-02 -1.27668916E-01 -1.31082510E-01
  0.00000000E+00 -1.14491995E-02 -1.28385875E-01 -1.26842245E-01  0.00000000E+00
  3.95956590E-02 -5.06852287E-02 -6.33795648E-02  0.00000000E+00 -4.93778598E-02
 -5.16009616E-02 -1.41188720E-03  5.59147082E-02  0.00000000E+00  0.00000000E+00
  1.02417245E-01  8.22487348E-02 -1.01105132E-01 -6.16970153E-02  1.02417245E-01
  8.22487348E-02 -6.62433480E-02 -1.80481679E-01 -1.40458426E-01 -1.04890848E-02
  0.00000000E+00 -4.70579611E-02 -9.12827959E-02  1.05856434E-02  0.00000000E+00
  1.00900121E-01  9.39207111E-02  1.53400210E-01  0.00000000E+00 -1.04666400E-01
 -1.02005502E-01 -1.72606632E-01 -7.77114214E-02  0.00000000E+00  0.00000000E+00
  1.12780290E-01  8.18148719E-02 -9.29258327E-02  6.29530950E-03 -9.29258327E-02
  6.29530950E-03  5.05914913E-02  1.08252986E-01 -3.22978666E-02 -1.15285058E-02
  0.00000000E+00  2.28990202E-02 -1.67491234E-02  4.76838443E-03  0.00000000E+00
 -1.20747533E-02  1.19397241E-01  2.03979235E-01  0.00000000E+00  8.31465458E-02
  2.06895726E-02  1.13917978E-01  2.95358528E-02  0.00000000E+00  0.00000000E+00
  2.96327160E-02 -2.23845440E-02  2.96327160E-02 -2.23845440E-02 -5.05914913E-02
 -1.08252986E-01 -3.22978666E-02 -1.15285058E-02  0.00000000E+00 -2.28990202E-02
 -1.67491234E-02  4.76838443E-03  0.00000000E+00  1.20747533E-02  1.19397241E-01
  2.03979235E-01  0.00000000E+00 -8.31465458E-02 -2.06895726E-02 -1.13917978E-01
 -2.95358528E-02  0.00000000E+00  0.00000000E+00 -2.96327160E-02  2.23845440E-02
 -2.96327160E-02  2.23845440E-02  6.62433480E-02  1.80481679E-01 -1.40458426E-01
 -1.04890848E-02  0.00000000E+00  4.70579611E-02 -9.12827959E-02  1.05856434E-02
  0.00000000E+00 -1.00900121E-01  9.39207111E-02  1.53400210E-01  0.00000000E+00
  1.04666400E-01  1.02005502E-01  1.72606632E-01  7.77114214E-02  0.00000000E+00
  0.00000000E+00  9.29258327E-02 -6.29530950E-03 -1.12780290E-01 -8.18148719E-02
  9.29258327E-02 -6.29530950E-03  5.36002998E-02  1.60559588E-01 -1.46085254E-01
  7.31814577E-02  0.00000000E+00  3.51450919E-02 -7.79166666E-02  5.38481244E-02
  0.00000000E+00 -1.17691878E-01  1.81795450E-01 -1.99351871E-02  0.00000000E+00
  1.23342312E-01  1.40493073E-01  7.80299714E-02  1.88107360E-02  0.00000000E+00
  0.00000000E+00  1.17480905E-01 -1.17974246E-02 -1.43805507E-02 -3.39651925E-02
 -1.43805507E-02 -3.39651925E-02  3.35720455E-02  1.02916323E-01 -8.89576192E-02
 -1.40816155E-01  0.00000000E+00  2.98288096E-02 -4.06294959E-02 -1.10997262E-01
  0.00000000E+00 -7.68980320E-02  2.22951008E-01 -1.08101824E-01  0.00000000E+00
 -1.58640381E-02  1.71545499E-01  6.40835447E-02 -1.08698255E-01  0.00000000E+00
  0.00000000E+00  2.48324254E-02 -1.76421197E-02  2.48324254E-02 -1.76421197E-02
 -3.35720455E-02 -1.02916323E-01 -8.89576192E-02 -1.40816155E-01  0.00000000E+00
 -2.98288096E-02 -4.06294959E-02 -1.10997262E-01  0.00000000E+00  7.68980320E-02
  2.22951008E-01 -1.08101824E-01  0.00000000E+00  1.58640381E-02 -1.71545499E-01
 -6.40835447E-02  1.08698255E-01  0.00000000E+00  0.00000000E+00 -2.48324254E-02
  1.76421197E-02 -2.48324254E-02  1.76421197E-02 -5.36002998E-02 -1.60559588E-01
 -1.46085254E-01  7.31814577E-02  0.00000000E+00 -3.51450919E-02 -7.79166666E-02
  5.38481244E-02  0.00000000E+00  1.17691878E-01  1.81795450E-01 -1.99351871E-02
  0.00000000E+00 -1.23342312E-01 -1.40493073E-01 -7.80299714E-02 -1.88107360E-02
  0.00000000E+00  0.00000000E+00  1.43805507E-02  3.39651925E-02 -1.17480905E-01
  1.17974246E-02  1.43805507E-02  3.39651925E-02  2.13974956E-02  5.19010353E-02
  6.65485014E-02  1.11050529E-01  0.00000000E+00  1.59581759E-02  5.23199056E-02
  4.20309885E-02  0.00000000E+00 -5.03321894E-02 -1.24875050E-02 -4.07600206E-02
  0.00000000E+00  7.60199068E-02  2.00094736E-02  1.16018024E-02 -3.51285992E-01
  0.00000000E+00  0.00000000E+00  1.31026251E-01  8.69525077E-03 -1.97153146E-02
 -1.46999404E-02 -1.97153146E-02 -1.46999404E-02  7.69109877E-03  3.23879696E-02
  1.40819373E-01 -5.25031013E-02  0.00000000E+00 -9.71321708E-04  6.07221684E-02
 -1.13291726E-02  0.00000000E+00 -1.01656834E-02 -2.81087930E-04 -8.71098061E-02
  0.00000000E+00  5.73500220E-02 -3.22076912E-02  4.52101022E-02  3.75822614E-01
  0.00000000E+00  0.00000000E+00  5.52099293E-02  4.19447359E-03  5.52099293E-02
  4.19447359E-03 -7.69109877E-03 -3.23879696E-02  1.40819373E-01 -5.25031013E-02
  0.00000000E+00  9.71321708E-04  6.07221684E-02 -1.13291726E-02  0.00000000E+00
  1.01656834E-02 -2.81087930E-04 -8.71098061E-02  0.00000000E+00 -5.73500220E-02
  3.22076912E-02 -4.52101022E-02 -3.75822614E-01  0.00000000E+00  0.00000000E+00
 -5.52099293E-02 -4.19447359E-03 -5.52099293E-02 -4.19447359E-03 -2.13974956E-02
 -5.19010353E-02  6.65485014E-02  1.11050529E-01  0.00000000E+00 -1.59581759E-02
  5.23199056E-02  4.20309885E-02  0.00000000E+00  5.03321894E-02 -1.24875050E-02
 -4.07600206E-02  0.00000000E+00 -7.60199068E-02 -2.00094736E-02 -1.16018024E-02
  3.51285992E-01  0.00000000E+00  0.00000000E+00  1.97153146E-02  1.46999404E-02
 -1.31026251E-01 -8.69525077E-03  1.97153146E-02  1.46999404E-02 -2.72334649E-01
 -1.74009522E-02  7.91150712E-02  5.39085557E-02  0.00000000E+00 -9.70870814E-03
  1.00990078E-02  7.81878336E-02  0.00000000E+00  5.85991037E-03 -8.80497825E-02
  2.45909788E-02  0.00000000E+00 -6.73131911E-02  1.40584847E-01 -2.38672914E-02
 -2.48759268E-02  0.00000000E+00  0.00000000E+00 -1.74080731E-02  2.41605282E-02
  2.72328204E-02  1.36797196E-03  2.72328204E-02  1.36797196E-03  5.12028513E-01
  9.86906556E-02  1.43913804E-01  1.41674254E-02  0.00000000E+00 -4.81068755E-03
  4.82897676E-02 -4.33644634E-02  0.00000000E+00  1.14758952E-02 -6.35018054E-02
 -4.24146788E-02  0.00000000E+00 -8.71487680E-02  1.62252866E-01 -2.22291494E-02
 -5.23513779E-02  0.00000000E+00  0.00000000E+00 -1.22252001E-01 -2.78731964E-02
 -1.22252001E-01 -2.78731964E-02 -5.12028513E-01 -9.86906556E-02  1.43913804E-01
  1.41674254E-02  0.00000000E+00  4.81068755E-03  4.82897676E-02 -4.33644634E-02
  0.00000000E+00 -1.14758952E-02 -6.35018054E-02 -4.24146788E-02  0.00000000E+00
  8.71487680E-02 -1.62252866E-01  2.22291494E-02  5.23513779E-02  0.00000000E+00
  0.00000000E+00  1.22252001E-01  2.78731964E-02  1.22252001E-01  2.78731964E-02
  2.72334649E-01  1.74009522E-02  7.91150712E-02  5.39085557E-02  0.00000000E+00
  9.70870814E-03  1.00990078E-02  7.81878336E-02  0.00000000E+00 -5.85991037E-03
 -8.80497825E-02  2.45909788E-02  0.00000000E+00  6.73131911E-02 -1.40584847E-01
  2.38672914E-02  2.48759268E-02  0.00000000E+00  0.00000000E+00 -2.72328204E-02
 -1.36797196E-03  1.74080731E-02 -2.41605282E-02 -2.72328204E-02 -1.36797196E-03
  5.40073554E-01  1.68322182E-03 -2.74451924E-02  5.83856079E-02  0.00000000E+00
  1.54363053E-02 -4.09965750E-03 -3.55503444E-02  0.00000000E+00 -2.35143950E-03
  6.44583247E-03 -2.21203126E-02  0.00000000E+00 -9.86265233E-03 -1.30219083E-01
 -1.78437535E-02  5.29186391E-02  0.00000000E+00  0.00000000E+00 -1.34549365E-02
 -2.89349966E-03 -1.36727240E-02 -3.80110092E-03 -1.36727240E-02 -3.80110092E-03
  3.99684910E-01 -4.87900129E-03 -1.70291984E-02 -1.10025135E-02  0.00000000E+00
  1.22559192E-02 -6.99418849E-03  4.32162947E-02  0.00000000E+00  7.74771736E-04
  2.15725782E-03  1.02799827E-02  0.00000000E+00  3.44261872E-02 -1.60880650E-01
 -3.86122429E-03  3.11991257E-03  0.00000000E+00  0.00000000E+00  8.55642671E-04
 -3.13410533E-04  8.55642671E-04 -3.13410533E-04 -3.99684910E-01  4.87900129E-03
 -1.70291984E-02 -1.10025135E-02  0.00000000E+00 -1.22559192E-02 -6.99418849E-03
  4.32162947E-02  0.00000000E+00 -7.74771736E-04  2.15725782E-03  1.02799827E-02
  0.00000000E+00 -3.44261872E-02  1.60880650E-01  3.86122429E-03 -3.11991257E-03
  0.00000000E+00  0.00000000E+00 -8.55642671E-04  3.13410533E-04 -8.55642671E-04
  3.13410533E-04 -5.40073554E-01 -1.68322182E-03 -2.74451924E-02  5.83856079E-02
  0.00000000E+00 -1.54363053E-02 -4.09965750E-03 -3.55503444E-02  0.00000000E+00
  2.35143950E-03  6.44583247E-03 -2.21203126E-02  0.00000000E+00  9.86265233E-03
  1.30219083E-01  1.78437535E-02 -5.29186391E-02  0.00000000E+00  0.00000000E+00
  1.36727240E-02  3.80110092E-03  1.34549365E-02  2.89349966E-03  1.36727240E-02
  3.80110092E-03  3.28245487E-01 -7.60479839E-03  1.15173236E-01 -1.51867174E-01
  0.00000000E+00 -2.04563612E-02  1.35522350E-02  8.67596527E-02  0.00000000E+00
  7.32529278E-02 -7.44665004E-02  1.25406538E-01  0.00000000E+00 -1.59798413E-01
  1.68484473E-01 -1.15050265E-01 -1.52490319E-01  0.00000000E+00  0.00000000E+00
 -9.50677940E-02  2.40624991E-02 -7.12051103E-02  1.18824310E-02 -7.12051103E-02
  1.18824310E-02 -1.70824831E-01  4.34937377E-02  1.22826773E-01 -8.61518020E-02
  0.00000000E+00 -1.79976365E-02  3.28661082E-02 -1.08330794E-01  0.00000000E+00
  2.04303366E-02 -5.74904911E-02  4.93289288E-02  0.00000000E+00 -1.64595225E-01
  3.41143258E-01 -3.56881609E-02 -4.85053770E-02  0.00000000E+00  0.00000000E+00
 -6.85882226E-02 -9.50125020E-03 -6.85882226E-02 -9.50125020E-03  1.70824831E-01
 -4.34937377E-02  1.22826773E-01 -8.61518020E-02  0.00000000E+00  1.79976365E-02
  3.28661082E-02 -1.08330794E-01  0.00000000E+00 -2.04303366E-02 -5.74904911E-02
  4.93289288E-02  0.00000000E+00  1.64595225E-01 -3.41143258E-01  3.56881609E-02
  4.85053770E-02  0.00000000E+00  0.00000000E+00  6.85882226E-02  9.50125020E-03
  6.85882226E-02  9.50125020E-03 -3.28245487E-01  7.60479839E-03  1.15173236E-01
 -1.51867174E-01  0.00000000E+00  2.04563612E-02  1.35522350E-02  8.67596527E-02
  0.00000000E+00 -7.32529278E-02 -7.44665004E-02  1.25406538E-01  0.00000000E+00
  1.59798413E-01 -1.68484473E-01  1.15050265E-01  1.52490319E-01  0.00000000E+00
  0.00000000E+00  7.12051103E-02 -1.18824310E-02  9.50677940E-02 -2.40624991E-02
  7.12051103E-02 -1.18824310E-02  8.46875497E-02 -9.60088313E-03 -5.47450094E-02
  3.69478179E-01  0.00000000E+00  6.90674461E-03 -2.18585184E-02  1.46229797E-01
  0.00000000E+00 -3.25132688E-02 -3.41249435E-02  1.08641684E-02  0.00000000E+00
 -1.81585602E-01  3.05125121E-01 -1.55774961E-01  2.22176673E-01  0.00000000E+00
  0.00000000E+00 -5.33423479E-02  1.62623258E-02 -1.14987167E-02 -1.48810968E-02
 -1.14987167E-02 -1.48810968E-02 -1.21766553E-01  9.60185777E-02  2.25128604E-02
  3.17671783E-01  0.00000000E+00 -9.05250004E-03  2.05130407E-02  1.95623406E-02
  0.00000000E+00 -8.55458550E-03 -8.46221914E-03 -8.45909232E-02  0.00000000E+00
  1.81596647E-01 -3.72205884E-02  8.02975956E-02  1.04951397E-01  0.00000000E+00
  0.00000000E+00 -3.23829915E-02 -2.26535694E-02 -3.23829915E-02 -2.26535694E-02
  1.21766553E-01 -9.60185777E-02  2.25128604E-02  3.17671783E-01  0.00000000E+00
  9.05250004E-03  2.05130407E-02  1.95623406E-02  0.00000000E+00  8.55458550E-03
 -8.46221914E-03 -8.45909232E-02  0.00000000E+00 -1.81596647E-01  3.72205884E-02
 -8.02975956E-02 -1.04951397E-01  0.00000000E+00  0.00000000E+00  3.23829915E-02
  2.26535694E-02  3.23829915E-02  2.26535694E-02 -8.46875497E-02  9.60088313E-03
 -5.47450094E-02  3.69478179E-01  0.00000000E+00 -6.90674461E-03 -2.18585184E-02
  1.46229797E-01  0.00000000E+00  3.25132688E-02 -3.41249435E-02  1.08641684E-02
  0.00000000E+00  1.81585602E-01 -3.05125121E-01  1.55774961E-01 -2.22176673E-01
  0.00000000E+00  0.00000000E+00  1.14987167E-02  1.48810968E-02  5.33423479E-02
 -1.62623258E-02  1.14987167E-02  1.48810968E-02  2.59034518E-02 -3.59565627E-02
 -8.99914306E-02  1.23518787E-01  0.00000000E+00  1.13667661E-02 -1.49118136E-02
 -3.45795169E-02  0.00000000E+00 -2.35360617E-02 -3.68750135E-02 -6.68878071E-02
  0.00000000E+00 -1.19995158E-01 -1.21643285E-01  1.67590741E-01 -5.11127976E-02
  0.00000000E+00  0.00000000E+00  5.48025530E-03  1.37412329E-04  6.97004167E-02
  1.35492570E-03  6.97004167E-02  1.35492570E-03 -8.90616908E-02  7.67765678E-02
  3.62964192E-01  2.06408471E-03  0.00000000E+00  2.45907567E-03  9.99822718E-02
  6.53359400E-02  0.00000000E+00  3.81165715E-03 -2.38761563E-02 -2.89183629E-02
  0.00000000E+00 -2.37122418E-01 -9.56986249E-02  4.90439701E-01 -2.44226066E-01
  0.00000000E+00  0.00000000E+00  4.14850050E-02 -9.82340567E-03  4.14850050E-02
 -9.82340567E-03  8.90616908E-02 -7.67765678E-02  3.62964192E-01  2.06408471E-03
  0.00000000E+00 -2.45907567E-03  9.99822718E-02  6.53359400E-02  0.00000000E+00
 -3.81165715E-03 -2.38761563E-02 -2.89183629E-02  0.00000000E+00  2.37122418E-01
  9.56986249E-02 -4.90439701E-01  2.44226066E-01  0.00000000E+00  0.00000000E+00
 -4.14850050E-02  9.82340567E-03 -4.14850050E-02  9.82340567E-03 -2.59034518E-02
  3.59565627E-02 -8.99914306E-02  1.23518787E-01  0.00000000E+00 -1.13667661E-02
 -1.49118136E-02 -3.45795169E-02  0.00000000E+00  2.35360617E-02 -3.68750135E-02
 -6.68878071E-02  0.00000000E+00  1.19995158E-01  1.21643285E-01 -1.67590741E-01
  5.11127976E-02  0.00000000E+00  0.00000000E+00 -6.97004167E-02 -1.35492570E-03
 -5.48025530E-03 -1.37412329E-04 -6.97004167E-02 -1.35492570E-03 -7.15920166E-03
  1.84387192E-02 -3.59269556E-01 -1.47311370E-01  0.00000000E+00 -4.37313785E-03
 -1.14378830E-01 -3.95675756E-03  0.00000000E+00  1.49219572E-02  1.60414126E-02
  4.67165558E-02  0.00000000E+00 -2.78766659E-01 -3.49231104E-02  3.51312911E-01
  1.85286772E-01  0.00000000E+00  0.00000000E+00 -1.69551009E-01 -4.83667726E-03
  7.83044162E-02  9.19398232E-03  7.83044162E-02  9.19398232E-03  1.54553015E-02
 -1.86618157E-04  1.46138386E-01 -1.00400105E-01  0.00000000E+00 -1.61609501E-03
 -6.54677747E-03 -6.08441647E-02  0.00000000E+00 -5.50011161E-03  2.89828350E-02
  1.94382392E-02  0.00000000E+00  1.82505081E-02  7.76986991E-02 -9.69271385E-02
  3.76936930E-01  0.00000000E+00  0.00000000E+00 -2.98966642E-02 -8.87798860E-03
 -2.98966642E-02 -8.87798860E-03 -1.54553015E-02  1.86618157E-04  1.46138386E-01
 -1.00400105E-01  0.00000000E+00  1.61609501E-03 -6.54677747E-03 -6.08441647E-02
  0.00000000E+00  5.50011161E-03  2.89828350E-02  1.94382392E-02  0.00000000E+00
 -1.82505081E-02 -7.76986991E-02  9.69271385E-02 -3.76936930E-01  0.00000000E+00
  0.00000000E+00  2.98966642E-02  8.87798860E-03  2.98966642E-02  8.87798860E-03
  7.15920166E-03 -1.84387192E-02 -3.59269556E-01 -1.47311370E-01  0.00000000E+00
  4.37313785E-03 -1.14378830E-01 -3.95675756E-03  0.00000000E+00 -1.49219572E-02
  1.60414126E-02  4.67165558E-02  0.00000000E+00  2.78766659E-01  3.49231104E-02
 -3.51312911E-01 -1.85286772E-01  0.00000000E+00  0.00000000E+00 -7.83044162E-02
 -9.19398232E-03  1.69551009E-01  4.83667726E-03 -7.83044162E-02 -9.19398232E-03
  9.43898361E-03 -6.31701260E-03  9.46354127E-02 -9.30403226E-02  0.00000000E+00
 -3.35522128E-03  1.92641624E-02 -1.03106273E-02  0.00000000E+00  3.88908681E-03
 -4.33895223E-02  1.07096724E-02  0.00000000E+00  3.35734818E-01 -9.71179342E-02
 -2.51300134E-01  4.89318520E-01  0.00000000E+00  0.00000000E+00  1.38237075E-01
  5.95401410E-02 -3.26697285E-02 -2.05546126E-02 -3.26697285E-02 -2.05546126E-02
 -3.86009496E-02  6.26090505E-02  2.89759689E-01 -1.61835407E-01  0.00000000E+00
 -1.01709463E-02  5.29730942E-02 -1.37029835E-02  0.00000000E+00  3.29548024E-04
 -1.12174178E-02 -2.34283284E-03  0.00000000E+00 -6.14431452E-02  8.48401578E-02
  1.01316390E-01  2.23603096E-01  0.00000000E+00  0.00000000E+00 -2.08586371E-02
 -2.85520615E-02 -2.08586371E-02 -2.85520615E-02  3.86009496E-02 -6.26090505E-02
  2.89759689E-01 -1.61835407E-01  0.00000000E+00  1.01709463E-02  5.29730942E-02
 -1.37029835E-02  0.00000000E+00 -3.29548024E-04 -1.12174178E-02 -2.34283284E-03
  0.00000000E+00  6.14431452E-02 -8.48401578E-02 -1.01316390E-01 -2.23603096E-01
  0.00000000E+00  0.00000000E+00  2.08586371E-02  2.85520615E-02  2.08586371E-02
  2.85520615E-02 -9.43898361E-03  6.31701260E-03  9.46354127E-02 -9.30403226E-02
  0.00000000E+00  3.35522128E-03  1.92641624E-02 -1.03106273E-02  0.00000000E+00
 -3.88908681E-03 -4.33895223E-02  1.07096724E-02  0.00000000E+00 -3.35734818E-01
  9.71179342E-02  2.51300134E-01 -4.89318520E-01  0.00000000E+00  0.00000000E+00
  3.26697285E-02  2.05546126E-02 -1.38237075E-01 -5.95401410E-02  3.26697285E-02
  2.05546126E-02 -6.26380396E-02  1.11091264E-01 -1.66821124E-01 -7.74714672E-02
  0.00000000E+00 -8.02417531E-03  5.50850902E-02  3.44935218E-02  0.00000000E+00
  5.12650351E-02  1.23599359E-01  9.17979792E-02  0.00000000E+00  5.99166857E-02
  2.56372051E-01 -1.19885101E-01  2.58728427E-02  0.00000000E+00  0.00000000E+00
 -1.30650740E-01 -1.02982960E-01 -1.85298612E-01  2.14034995E-02 -1.85298612E-01
  2.14034995E-02  1.31837568E-01 -2.69261959E-01  1.77516167E-01  1.59588820E-01
  0.00000000E+00  9.08950312E-03 -5.17623240E-02 -5.84396374E-02  0.00000000E+00
  8.16059144E-03  2.13450860E-02  6.90686262E-02  0.00000000E+00 -3.04373173E-01
 -1.35781224E-01 -4.68805577E-02  2.57440059E-02  0.00000000E+00  0.00000000E+00
  3.18127326E-01  1.37773524E-01  3.18127326E-01  1.37773524E-01 -1.31837568E-01
  2.69261959E-01  1.77516167E-01  1.59588820E-01  0.00000000E+00 -9.08950312E-03
 -5.17623240E-02 -5.84396374E-02  0.00000000E+00 -8.16059144E-03  2.13450860E-02
  6.90686262E-02  0.00000000E+00  3.04373173E-01  1.35781224E-01  4.68805577E-02
 -2.57440059E-02  0.00000000E+00  0.00000000E+00 -3.18127326E-01 -1.37773524E-01
 -3.18127326E-01 -1.37773524E-01  6.26380396E-02 -1.11091264E-01 -1.66821124E-01
 -7.74714672E-02  0.00000000E+00  8.02417531E-03  5.50850902E-02  3.44935218E-02
  0.00000000E+00 -5.12650351E-02  1.23599359E-01  9.17979792E-02  0.00000000E+00
 -5.99166857E-02 -2.56372051E-01  1.19885101E-01 -2.58728427E-02  0.00000000E+00
  0.00000000E+00  1.85298612E-01 -2.14034995E-02  1.30650740E-01  1.02982960E-01
  1.85298612E-01 -2.14034995E-02  8.56575538E-02 -2.08149449E-01 -2.37508239E-01
 -2.17954401E-01  0.00000000E+00  1.35514062E-02  1.01948601E-01  8.62259788E-02
  0.00000000E+00 -9.23255048E-02  1.07967844E-01 -1.25094158E-01  0.00000000E+00
 -1.52172692E-02 -6.10628896E-02 -2.50014652E-01 -6.65257824E-02  0.00000000E+00
  0.00000000E+00  3.36936203E-01 -6.35749223E-02  3.82199554E-01  1.31575243E-01
  3.82199554E-01  1.31575243E-01  3.09822190E-03 -2.56122983E-02  9.48301409E-02
  3.14338590E-01  0.00000000E+00  1.12517740E-02 -4.30609083E-02 -9.80225466E-02
  0.00000000E+00 -5.68549644E-03 -1.34565881E-02 -1.50388293E-01  0.00000000E+00
 -5.09796186E-02  1.42843639E-01 -1.38136619E-01 -3.04999461E-02  0.00000000E+00
  0.00000000E+00  4.98295621E-02  8.35144350E-02  4.98295621E-02  8.35144350E-02
 -3.09822190E-03  2.56122983E-02  9.48301409E-02  3.14338590E-01  0.00000000E+00
 -1.12517740E-02 -4.30609083E-02 -9.80225466E-02  0.00000000E+00  5.68549644E-03
 -1.34565881E-02 -1.50388293E-01  0.00000000E+00  5.09796186E-02 -1.42843639E-01
  1.38136619E-01  3.04999461E-02  0.00000000E+00  0.00000000E+00 -4.98295621E-02
 -8.35144350E-02 -4.98295621E-02 -8.35144350E-02 -8.56575538E-02  2.08149449E-01
 -2.37508239E-01 -2.17954401E-01  0.00000000E+00 -1.35514062E-02  1.01948601E-01
  8.62259788E-02  0.00000000E+00  9.23255048E-02  1.07967844E-01 -1.25094158E-01
  0.00000000E+00  1.52172692E-02  6.10628896E-02  2.50014652E-01  6.65257824E-02
  0.00000000E+00  0.00000000E+00 -3.82199554E-01 -1.31575243E-01 -3.36936203E-01
  6.35749223E-02 -3.82199554E-01 -1.31575243E-01  2.49688287E-02  1.17397302E-02
  5.22817625E-01 -2.79523618E-01  0.00000000E+00 -9.37973020E-03 -2.35568197E-01
  1.23974106E-01  0.00000000E+00 -4.88867606E-02 -8.98023884E-03  1.83107091E-01
  0.00000000E+00 -2.14046048E-01 -1.57398085E-04  2.59500076E-01  1.41012263E-01
  0.00000000E+00  0.00000000E+00  2.45863348E-01  2.56886549E-01  4.75259027E-02
 -1.16561151E-01  4.75259027E-02 -1.16561151E-01  5.73953824E-02 -4.04798627E-02
 -7.99640186E-02  2.82091011E-01  0.00000000E+00 -1.20649794E-02  1.34017954E-02
 -1.32688839E-01  0.00000000E+00 -7.57068638E-02  2.08383149E-01 -9.35110198E-02
  0.00000000E+00 -5.52433212E-02 -6.93554759E-02  1.05394084E-01  7.00651823E-02
  0.00000000E+00  0.00000000E+00  1.80365743E-01 -3.15921975E-02  1.80365743E-01
 -3.15921975E-02 -5.73953824E-02  4.04798627E-02 -7.99640186E-02  2.82091011E-01
  0.00000000E+00  1.20649794E-02  1.34017954E-02 -1.32688839E-01  0.00000000E+00
  7.57068638E-02  2.08383149E-01 -9.35110198E-02  0.00000000E+00  5.52433212E-02
  6.93554759E-02 -1.05394084E-01 -7.00651823E-02  0.00000000E+00  0.00000000E+00
 -1.80365743E-01  3.15921975E-02 -1.80365743E-01  3.15921975E-02 -2.49688287E-02
 -1.17397302E-02  5.22817625E-01 -2.79523618E-01  0.00000000E+00  9.37973020E-03
 -2.35568197E-01  1.23974106E-01  0.00000000E+00  4.88867606E-02 -8.98023884E-03
  1.83107091E-01  0.00000000E+00  2.14046048E-01  1.57398085E-04 -2.59500076E-01
 -1.41012263E-01  0.00000000E+00  0.00000000E+00 -4.75259027E-02  1.16561151E-01
 -2.45863348E-01 -2.56886549E-01 -4.75259027E-02  1.16561151E-01  1.12506739E-02
  1.71542140E-01 -1.91791329E-01 -2.75500111E-01  0.00000000E+00 -5.41645900E-02
  7.86336359E-02  3.18179241E-01  0.00000000E+00  6.20248324E-02 -1.20204780E-01
  4.91120891E-01  0.00000000E+00  4.17074939E-01 -1.89470992E-01  7.23089409E-02
 -1.32040936E-01  0.00000000E+00  0.00000000E+00 -2.91391002E-01 -1.07420692E-01
 -1.67344025E-02  2.95151355E-03 -1.67344025E-02  2.95151355E-03  4.68761231E-03
  1.81311705E-01  4.34302032E-03  3.25371143E-01  0.00000000E+00 -2.86711559E-02
  2.50202108E-02 -3.06636659E-01  0.00000000E+00 -7.91273169E-03 -6.35184580E-02
 -1.98591537E-01  0.00000000E+00  2.32902732E-01 -1.46910799E-01  2.21576266E-01
 -6.14886932E-02  0.00000000E+00  0.00000000E+00 -1.28281538E-01 -6.59840406E-03
 -1.28281538E-01 -6.59840406E-03 -4.68761231E-03 -1.81311705E-01  4.34302032E-03
  3.25371143E-01  0.00000000E+00  2.86711559E-02  2.50202108E-02 -3.06636659E-01
  0.00000000E+00  7.91273169E-03 -6.35184580E-02 -1.98591537E-01  0.00000000E+00
 -2.32902732E-01  1.46910799E-01 -2.21576266E-01  6.14886932E-02  0.00000000E+00
  0.00000000E+00  1.28281538E-01  6.59840406E-03  1.28281538E-01  6.59840406E-03
 -1.12506739E-02 -1.71542140E-01 -1.91791329E-01 -2.75500111E-01  0.00000000E+00
  5.41645900E-02  7.86336359E-02  3.18179241E-01  0.00000000E+00 -6.20248324E-02
 -1.20204780E-01  4.91120891E-01  0.00000000E+00 -4.17074939E-01  1.89470992E-01
 -7.23089409E-02  1.32040936E-01  0.00000000E+00  0.00000000E+00  1.67344025E-02
 -2.95151355E-03  2.91391002E-01  1.07420692E-01  1.67344025E-02 -2.95151355E-03
  1.27582544E-02 -2.60257776E-05  2.12280754E-01  2.65858614E-01  0.00000000E+00
 -1.88405600E-02 -1.66875769E-01 -1.08097908E-01  0.00000000E+00  3.27653564E-02
  2.56457301E-01  5.94907656E-02  0.00000000E+00  7.03880497E-02 -2.39235637E-01
  1.90518736E-01 -3.20974452E-02  0.00000000E+00  0.00000000E+00  1.10640466E-02
 -3.17476633E-02 -8.55567991E-02 -4.13228415E-02 -8.55567991E-02 -4.13228415E-02
 -7.75261214E-02  5.68932674E-02  6.27635233E-01  1.83522096E-01  0.00000000E+00
  1.14852629E-01 -2.98678275E-01 -1.40587803E-01  0.00000000E+00 -9.92482177E-03
  1.17474376E-01  1.07645704E-01  0.00000000E+00  3.01209631E-01  9.26705035E-02
 -4.28226148E-01 -2.31556273E-01  0.00000000E+00  0.00000000E+00 -5.96583000E-02
  2.10957279E-01 -5.96583000E-02  2.10957279E-01  7.75261214E-02 -5.68932674E-02
  6.27635233E-01  1.83522096E-01  0.00000000E+00 -1.14852629E-01 -2.98678275E-01
 -1.40587803E-01  0.00000000E+00  9.92482177E-03  1.17474376E-01  1.07645704E-01
  0.00000000E+00 -3.01209631E-01 -9.26705035E-02  4.28226148E-01  2.31556273E-01
  0.00000000E+00  0.00000000E+00  5.96583000E-02 -2.10957279E-01  5.96583000E-02
 -2.10957279E-01 -1.27582544E-02  2.60257776E-05  2.12280754E-01  2.65858614E-01
  0.00000000E+00  1.88405600E-02 -1.66875769E-01 -1.08097908E-01  0.00000000E+00
 -3.27653564E-02  2.56457301E-01  5.94907656E-02  0.00000000E+00 -7.03880497E-02
  2.39235637E-01 -1.90518736E-01  3.20974452E-02  0.00000000E+00  0.00000000E+00
  8.55567991E-02  4.13228415E-02 -1.10640466E-02  3.17476633E-02  8.55567991E-02
  4.13228415E-02 -3.40166029E-02  6.19430049E-02  5.78631148E-03 -4.82367267E-01
  0.00000000E+00  8.73752213E-02  2.90930171E-02  1.79972104E-01  0.00000000E+00
 -7.77694423E-02  2.64547385E-03 -6.79200503E-02  0.00000000E+00 -2.42753289E-01
  4.31608956E-01 -1.79066951E-01 -1.90784798E-02  0.00000000E+00  0.00000000E+00
  5.28288388E-02  8.84857404E-02  3.04589749E-02  6.55110271E-02  3.04589749E-02
  6.55110271E-02  2.16462379E-03  4.82276952E-02  3.71677302E-01 -5.05290336E-01
  0.00000000E+00  1.48293498E-04  1.21604954E-02  8.28184575E-02  0.00000000E+00
 -1.79428650E-02  1.45067761E-02 -1.35897372E-01  0.00000000E+00  6.17507360E-01
 -5.06159907E-01 -3.83903850E-02 -3.04341264E-01  0.00000000E+00  0.00000000E+00
  5.87617196E-02 -1.91950119E-02  5.87617196E-02 -1.91950119E-02 -2.16462379E-03
 -4.82276952E-02  3.71677302E-01 -5.05290336E-01  0.00000000E+00 -1.48293498E-04
  1.21604954E-02  8.28184575E-02  0.00000000E+00  1.79428650E-02  1.45067761E-02
 -1.35897372E-01  0.00000000E+00 -6.17507360E-01  5.06159907E-01  3.83903850E-02
  3.04341264E-01  0.00000000E+00  0.00000000E+00 -5.87617196E-02  1.91950119E-02
 -5.87617196E-02  1.91950119E-02  3.40166029E-02 -6.19430049E-02  5.78631148E-03
 -4.82367267E-01  0.00000000E+00 -8.73752213E-02  2.90930171E-02  1.79972104E-01
  0.00000000E+00  7.77694423E-02  2.64547385E-03 -6.79200503E-02  0.00000000E+00
  2.42753289E-01 -4.31608956E-01  1.79066951E-01  1.90784798E-02  0.00000000E+00
  0.00000000E+00 -3.04589749E-02 -6.55110271E-02 -5.28288388E-02 -8.84857404E-02
 -3.04589749E-02 -6.55110271E-02  1.88036981E-02 -2.98202818E-02 -1.56439805E-01
  1.85695104E-01  0.00000000E+00 -7.27321665E-02  9.50396606E-02 -6.22849064E-02
  0.00000000E+00  7.71567037E-03 -4.47445562E-01  1.82892864E-01  0.00000000E+00
  1.36039505E-01 -1.51046738E-01  2.57947932E-02 -1.22164644E-02  0.00000000E+00
  0.00000000E+00 -1.88050627E-01  1.40606765E-01  1.40622004E-01 -1.67389161E-01
  1.40622004E-01 -1.67389161E-01  2.34891611E-02  1.49784334E-01  1.18064863E-01
 -1.93821285E-02  0.00000000E+00 -1.27478893E-01  3.90242556E-01  2.13500384E-01
  0.00000000E+00 -5.05093641E-02  6.77776741E-02 -2.67271963E-02  0.00000000E+00
  2.66403462E-01  3.63249094E-01 -3.77902393E-01 -2.39465659E-01  0.00000000E+00
  0.00000000E+00  5.72284338E-01 -2.93398538E-01  5.72284338E-01 -2.93398538E-01
 -2.34891611E-02 -1.49784334E-01  1.18064863E-01 -1.93821285E-02  0.00000000E+00
  1.27478893E-01  3.90242556E-01  2.13500384E-01  0.00000000E+00  5.05093641E-02
  6.77776741E-02 -2.67271963E-02  0.00000000E+00 -2.66403462E-01 -3.63249094E-01
  3.77902393E-01  2.39465659E-01  0.00000000E+00  0.00000000E+00 -5.72284338E-01
  2.93398538E-01 -5.72284338E-01  2.93398538E-01 -1.88036981E-02  2.98202818E-02
 -1.56439805E-01  1.85695104E-01  0.00000000E+00  7.27321665E-02  9.50396606E-02
 -6.22849064E-02  0.00000000E+00 -7.71567037E-03 -4.47445562E-01  1.82892864E-01
  0.00000000E+00 -1.36039505E-01  1.51046738E-01 -2.57947932E-02  1.22164644E-02
  0.00000000E+00  0.00000000E+00 -1.40622004E-01  1.67389161E-01  1.88050627E-01
 -1.40606765E-01 -1.40622004E-01  1.67389161E-01  6.47009613E-04 -1.22537748E-02
 -7.50133990E-02 -2.51888658E-02  0.00000000E+00  7.08409745E-03  6.19674944E-01
  2.21190871E-01  0.00000000E+00  2.90305797E-02  1.62477722E-02  4.13678063E-02
  0.00000000E+00 -2.64542883E-01 -1.72332016E-01  4.23578823E-01  2.40296302E-01
  0.00000000E+00  0.00000000E+00  6.54824696E-01 -2.80736076E-01 -4.54496977E-01
  1.85636109E-01 -4.54496977E-01  1.85636109E-01  2.44763263E-05  1.27859920E-01
 -6.42360821E-02  5.59571341E-02  0.00000000E+00 -5.63211039E-02  2.46248791E-01
  2.58421540E-02  0.00000000E+00  7.70662494E-02 -3.12918134E-01 -1.52764105E-01
  0.00000000E+00  1.17664698E-01  1.46173015E-01 -1.07354939E-01 -1.22786042E-01
  0.00000000E+00  0.00000000E+00  5.79422653E-02  2.89673128E-02  5.79422653E-02
  2.89673128E-02 -2.44763263E-05 -1.27859920E-01 -6.42360821E-02  5.59571341E-02
  0.00000000E+00  5.63211039E-02  2.46248791E-01  2.58421540E-02  0.00000000E+00
 -7.70662494E-02 -3.12918134E-01 -1.52764105E-01  0.00000000E+00 -1.17664698E-01
 -1.46173015E-01  1.07354939E-01  1.22786042E-01  0.00000000E+00  0.00000000E+00
 -5.79422653E-02 -2.89673128E-02 -5.79422653E-02 -2.89673128E-02 -6.47009613E-04
  1.22537748E-02 -7.50133990E-02 -2.51888658E-02  0.00000000E+00 -7.08409745E-03
  6.19674944E-01  2.21190871E-01  0.00000000E+00 -2.90305797E-02  1.62477722E-02
  4.13678063E-02  0.00000000E+00  2.64542883E-01  1.72332016E-01 -4.23578823E-01
 -2.40296302E-01  0.00000000E+00  0.00000000E+00  4.54496977E-01 -1.85636109E-01
 -6.54824696E-01  2.80736076E-01  4.54496977E-01 -1.85636109E-01  5.86873362E-02
  2.09266010E-01 -3.59989791E-02  1.29882189E-01  0.00000000E+00 -4.28850904E-01
  1.73967730E-01 -6.45718429E-01  0.00000000E+00  2.70415604E-01 -1.29697882E-01
  7.06653216E-01  0.00000000E+00 -6.13894514E-02  4.14159815E-01  4.95257690E-02
  3.44418305E-02  0.00000000E+00  0.00000000E+00  5.54384915E-01 -5.43145220E-01
  3.21151265E-01 -3.81572073E-01  3.21151265E-01 -3.81572073E-01 -1.15254455E-02
 -8.82971126E-02  2.32567159E-03 -1.56458110E-01  0.00000000E+00 -2.22620141E-02
 -7.18416279E-03 -1.11446715E-01  0.00000000E+00  4.02276030E-02 -1.17580185E-01
  1.97979189E-01  0.00000000E+00  2.24629437E-02 -1.88735815E-01  4.07453401E-02
 -1.25110592E-02  0.00000000E+00  0.00000000E+00 -9.80961990E-02  5.59180410E-02
 -9.80961990E-02  5.59180410E-02  1.15254455E-02  8.82971126E-02  2.32567159E-03
 -1.56458110E-01  0.00000000E+00  2.22620141E-02 -7.18416279E-03 -1.11446715E-01
  0.00000000E+00 -4.02276030E-02 -1.17580185E-01  1.97979189E-01  0.00000000E+00
 -2.24629437E-02  1.88735815E-01 -4.07453401E-02  1.25110592E-02  0.00000000E+00
  0.00000000E+00  9.80961990E-02 -5.59180410E-02  9.80961990E-02 -5.59180410E-02
 -5.86873362E-02 -2.09266010E-01 -3.59989791E-02  1.29882189E-01  0.00000000E+00
  4.28850904E-01  1.73967730E-01 -6.45718429E-01  0.00000000E+00 -2.70415604E-01
 -1.29697882E-01  7.06653216E-01  0.00000000E+00  6.13894514E-02 -4.14159815E-01
 -4.95257690E-02 -3.44418305E-02  0.00000000E+00  0.00000000E+00 -3.21151265E-01
  3.81572073E-01 -5.54384915E-01  5.43145220E-01 -3.21151265E-01  3.81572073E-01
 -4.45883357E-02 -3.47137173E-01 -2.37663462E-02  1.98615689E-01  0.00000000E+00
  4.95969672E-01  4.75317270E-02 -1.15043135E-01  0.00000000E+00 -1.79383208E-01
  7.29750216E-02  1.07313425E+00  0.00000000E+00 -1.18881451E-01 -1.38130934E-01
 -1.22058250E-01  7.43953542E-03  0.00000000E+00  0.00000000E+00 -7.66862254E-02
  2.44306101E-01 -7.40222178E-03  7.91145276E-02 -7.40222178E-03  7.91145276E-02
 -4.56674456E-02 -2.16442861E-01 -4.57078009E-02 -3.09752158E-01  0.00000000E+00
  3.11001433E-01 -1.31826907E-01  8.74712108E-01  0.00000000E+00 -1.11614705E-01
  1.48678216E-01 -1.02809189E+00  0.00000000E+00 -2.55021234E-01  5.30736307E-02
 -1.24327034E-01  2.50819888E-02  0.00000000E+00  0.00000000E+00 -9.80316298E-02
  3.33494916E-01 -9.80316298E-02  3.33494916E-01  4.56674456E-02  2.16442861E-01
 -4.57078009E-02 -3.09752158E-01  0.00000000E+00 -3.11001433E-01 -1.31826907E-01
  8.74712108E-01  0.00000000E+00  1.11614705E-01  1.48678216E-01 -1.02809189E+00
  0.00000000E+00  2.55021234E-01 -5.30736307E-02  1.24327034E-01 -2.50819888E-02
  0.00000000E+00  0.00000000E+00  9.80316298E-02 -3.33494916E-01  9.80316298E-02
 -3.33494916E-01  4.45883357E-02  3.47137173E-01 -2.37663462E-02  1.98615689E-01
  0.00000000E+00 -4.95969672E-01  4.75317270E-02 -1.15043135E-01  0.00000000E+00
  1.79383208E-01  7.29750216E-02  1.07313425E+00  0.00000000E+00  1.18881451E-01
  1.38130934E-01  1.22058250E-01 -7.43953542E-03  0.00000000E+00  0.00000000E+00
  7.40222178E-03 -7.91145276E-02  7.66862254E-02 -2.44306101E-01  7.40222178E-03
 -7.91145276E-02 -1.56430484E-02  7.62186829E-02 -3.57591665E-01 -1.34714983E-02
  0.00000000E+00  5.78839267E-02  1.49734936E+00 -9.43572966E-02  0.00000000E+00
 -2.30312715E-01 -1.17019735E+00 -2.64203573E-01  0.00000000E+00 -1.44664348E-01
 -1.44110662E-02  3.92232562E-02  1.40727400E-02  0.00000000E+00  0.00000000E+00
  4.33315788E-02  1.01316520E+00 -7.31628811E-02 -3.31052768E-01 -7.31628811E-02
 -3.31052768E-01 -4.91874506E-02 -1.31011742E-01  3.74874482E-02  1.04096949E-01
  0.00000000E+00  3.53463788E-01 -3.82969451E-01 -3.69507038E-01  0.00000000E+00
 -3.64127248E-01  1.21963458E+00  4.02290604E-01  0.00000000E+00 -1.16882153E-01
 -1.62211639E-01 -2.74184776E-02 -3.94385826E-02  0.00000000E+00  0.00000000E+00
 -2.92857638E-01  4.58982944E-01 -2.92857638E-01  4.58982944E-01  4.91874506E-02
  1.31011742E-01  3.74874482E-02  1.04096949E-01  0.00000000E+00 -3.53463788E-01
 -3.82969451E-01 -3.69507038E-01  0.00000000E+00  3.64127248E-01  1.21963458E+00
  4.02290604E-01  0.00000000E+00  1.16882153E-01  1.62211639E-01  2.74184776E-02
  3.94385826E-02  0.00000000E+00  0.00000000E+00  2.92857638E-01 -4.58982944E-01
  2.92857638E-01 -4.58982944E-01  1.56430484E-02 -7.62186829E-02 -3.57591665E-01
 -1.34714983E-02  0.00000000E+00 -5.78839267E-02  1.49734936E+00 -9.43572966E-02
  0.00000000E+00  2.30312715E-01 -1.17019735E+00 -2.64203573E-01  0.00000000E+00
  1.44664348E-01  1.44110662E-02 -3.92232562E-02 -1.40727400E-02  0.00000000E+00
  0.00000000E+00  7.31628811E-02  3.31052768E-01 -4.33315788E-02 -1.01316520E+00
  7.31628811E-02  3.31052768E-01 -2.24339611E-02  3.83466264E-01 -9.59298174E-02
 -1.41108529E-01  0.00000000E+00 -2.23681098E-01  2.73722410E-01  6.83615228E-01
  0.00000000E+00  1.54448950E-01  1.02629287E+00 -1.63537908E-01  0.00000000E+00
 -8.21511812E-02 -1.28854755E-01 -1.18149090E-01  2.67947502E-02  0.00000000E+00
  0.00000000E+00 -1.97944718E-01  6.89887703E-01  2.35207309E-01 -9.53178252E-01
  2.35207309E-01 -9.53178252E-01 -1.46722533E-01  1.46324456E+00 -2.35146420E-01
 -7.73831603E-02  0.00000000E+00 -2.68721155E-01  8.92417326E-01  5.24970959E-01
  0.00000000E+00  2.11135012E-01 -5.31640038E-01  2.56335663E-01  0.00000000E+00
 -6.46389667E-01 -4.97644307E-01 -6.11184345E-01  3.61734539E-03  0.00000000E+00
  0.00000000E+00 -2.88174897E-02  8.31250227E-01 -2.88174897E-02  8.31250227E-01
  1.46722533E-01 -1.46324456E+00 -2.35146420E-01 -7.73831603E-02  0.00000000E+00
  2.68721155E-01  8.92417326E-01  5.24970959E-01  0.00000000E+00 -2.11135012E-01
 -5.31640038E-01  2.56335663E-01  0.00000000E+00  6.46389667E-01  4.97644307E-01
  6.11184345E-01 -3.61734539E-03  0.00000000E+00  0.00000000E+00  2.88174897E-02
 -8.31250227E-01  2.88174897E-02 -8.31250227E-01  2.24339611E-02 -3.83466264E-01
 -9.59298174E-02 -1.41108529E-01  0.00000000E+00  2.23681098E-01  2.73722410E-01
  6.83615228E-01  0.00000000E+00 -1.54448950E-01  1.02629287E+00 -1.63537908E-01
  0.00000000E+00  8.21511812E-02  1.28854755E-01  1.18149090E-01 -2.67947502E-02
  0.00000000E+00  0.00000000E+00 -2.35207309E-01  9.53178252E-01  1.97944718E-01
 -6.89887703E-01 -2.35207309E-01  9.53178252E-01 -2.91679893E-01  2.14807517E+00
  5.28295252E-02  1.14516569E-01  0.00000000E+00  1.39285131E-01 -2.53882012E-01
 -6.65790652E-01  0.00000000E+00 -8.46669463E-02 -3.07245430E-01  1.71736578E-01
  0.00000000E+00 -1.06999907E+00 -9.88685854E-01 -1.09561431E+00  4.13821884E-03
  0.00000000E+00  0.00000000E+00  1.12658878E-01 -5.06858761E-02 -1.41853703E-02
  6.15359933E-01 -1.41853703E-02  6.15359933E-01 -1.03147131E-01  6.57581280E-01
 -2.08028161E-02  9.81328950E-02  0.00000000E+00  1.18768738E-01  9.18963213E-02
 -3.50047790E-01  0.00000000E+00 -7.33158074E-02  2.14584617E-01 -3.11337964E-01
  0.00000000E+00 -3.88644371E-01 -2.97792440E-01 -3.75627913E-01  2.71175835E-02
  0.00000000E+00  0.00000000E+00  5.54214097E-02 -1.57628707E-01  5.54214097E-02
 -1.57628707E-01  1.03147131E-01 -6.57581280E-01 -2.08028161E-02  9.81328950E-02
  0.00000000E+00 -1.18768738E-01  9.18963213E-02 -3.50047790E-01  0.00000000E+00
  7.33158074E-02  2.14584617E-01 -3.11337964E-01  0.00000000E+00  3.88644371E-01
  2.97792440E-01  3.75627913E-01 -2.71175835E-02  0.00000000E+00  0.00000000E+00
 -5.54214097E-02  1.57628707E-01 -5.54214097E-02  1.57628707E-01  2.91679893E-01
 -2.14807517E+00  5.28295252E-02  1.14516569E-01  0.00000000E+00 -1.39285131E-01
 -2.53882012E-01 -6.65790652E-01  0.00000000E+00  8.46669463E-02 -3.07245430E-01
  1.71736578E-01  0.00000000E+00  1.06999907E+00  9.88685854E-01  1.09561431E+00
 -4.13821884E-03  0.00000000E+00  0.00000000E+00  1.41853703E-02 -6.15359933E-01
 -1.12658878E-01  5.06858761E-02  1.41853703E-02 -6.15359933E-01  1.18496292E-01
 -1.17323035E+00  1.15764614E-01 -2.64225729E-02  0.00000000E+00  1.67499840E-01
 -6.55033221E-01 -4.56170893E-01  0.00000000E+00 -7.07976685E-02 -9.60848756E-01
  1.28317116E-02  0.00000000E+00  5.01243325E-01  6.87164438E-01  4.26334717E-01
  1.72968937E-02  0.00000000E+00  0.00000000E+00  7.33058302E-02 -7.70263696E-01
 -1.63559640E-01  7.07630012E-01 -1.63559640E-01  7.07630012E-01 -2.26630306E-01
  1.74974643E+00 -9.72893372E-02 -1.58670471E-02  0.00000000E+00  3.02196767E-01
  4.62151558E-01 -3.88083516E-01  0.00000000E+00 -1.66765484E-01  7.52446302E-01
 -8.30756945E-03  0.00000000E+00 -8.98234636E-01 -1.04353432E+00 -8.59971876E-01
  6.56913414E-02  0.00000000E+00  0.00000000E+00  4.21466287E-02  1.25137231E-01
  4.21466287E-02  1.25137231E-01  2.26630306E-01 -1.74974643E+00 -9.72893372E-02
 -1.58670471E-02  0.00000000E+00 -3.02196767E-01  4.62151558E-01 -3.88083516E-01
  0.00000000E+00  1.66765484E-01  7.52446302E-01 -8.30756945E-03  0.00000000E+00
  8.98234636E-01  1.04353432E+00  8.59971876E-01 -6.56913414E-02  0.00000000E+00
  0.00000000E+00 -4.21466287E-02 -1.25137231E-01 -4.21466287E-02 -1.25137231E-01
 -1.18496292E-01  1.17323035E+00  1.15764614E-01 -2.64225729E-02  0.00000000E+00
 -1.67499840E-01 -6.55033221E-01 -4.56170893E-01  0.00000000E+00  7.07976685E-02
 -9.60848756E-01  1.28317116E-02  0.00000000E+00 -5.01243325E-01 -6.87164438E-01
 -4.26334717E-01 -1.72968937E-02  0.00000000E+00  0.00000000E+00  1.63559640E-01
 -7.07630012E-01 -7.33058302E-02  7.70263696E-01  1.63559640E-01 -7.07630012E-01
  2.17071853E-03 -1.09021241E-02  2.95367402E-02  1.17744530E-01  0.00000000E+00
  2.22472479E-02 -6.44720696E-01 -7.20748486E-01  0.00000000E+00  6.38960818E-02
 -8.53010336E-02 -1.02705542E-01  0.00000000E+00  6.70718913E-02  3.57181418E-02
 -8.28405027E-02  8.24708297E-02  0.00000000E+00  0.00000000E+00 -1.43535773E-01
  2.23971262E-01 -2.20773721E-02  4.35663156E-01 -2.20773721E-02  4.35663156E-01
  1.34880094E-01 -9.60495314E-01 -2.19344727E-01 -4.23342637E-02  0.00000000E+00
 -1.64540744E-01  2.53787177E+00 -7.20116194E-01  0.00000000E+00  3.95144314E-02
  3.99422329E-01 -1.81879209E-02  0.00000000E+00  8.56945335E-01  4.69752342E-01
  4.06220215E-01 -1.32932456E-01  0.00000000E+00  0.00000000E+00 -1.60270046E-01
  1.25717945E+00 -1.60270046E-01  1.25717945E+00 -1.34880094E-01  9.60495314E-01
 -2.19344727E-01 -4.23342637E-02  0.00000000E+00  1.64540744E-01  2.53787177E+00
 -7.20116194E-01  0.00000000E+00 -3.95144314E-02  3.99422329E-01 -1.81879209E-02
  0.00000000E+00 -8.56945335E-01 -4.69752342E-01 -4.06220215E-01  1.32932456E-01
  0.00000000E+00  0.00000000E+00  1.60270046E-01 -1.25717945E+00  1.60270046E-01
 -1.25717945E+00 -2.17071853E-03  1.09021241E-02  2.95367402E-02  1.17744530E-01
  0.00000000E+00 -2.22472479E-02 -6.44720696E-01 -7.20748486E-01  0.00000000E+00
 -6.38960818E-02 -8.53010336E-02 -1.02705542E-01  0.00000000E+00 -6.70718913E-02
 -3.57181418E-02  8.28405027E-02 -8.24708297E-02  0.00000000E+00  0.00000000E+00
  2.20773721E-02 -4.35663156E-01  1.43535773E-01 -2.23971262E-01  2.20773721E-02
 -4.35663156E-01  7.38450485E-02 -5.19054324E-01 -1.47519524E-01  1.92125839E-01
  0.00000000E+00 -4.26105275E-01  8.51965884E-01 -1.80350670E+00  0.00000000E+00
 -2.33663688E-02  1.25294763E+00  3.20630639E-01  0.00000000E+00  2.18898249E-01
  5.29000515E-01  2.69372660E-01 -2.06876233E-02  0.00000000E+00  0.00000000E+00
 -2.82930514E-01  2.14540460E+00 -9.67950767E-02  4.99938667E-01 -9.67950767E-02
  4.99938667E-01 -4.01209191E-02  3.35189162E-01  3.72121952E-03  1.09267326E-01
  0.00000000E+00 -1.38249294E-01  2.15242606E-02 -1.35600704E+00  0.00000000E+00
  1.65848997E-01 -9.91823799E-01 -7.18198183E-01  0.00000000E+00 -9.63672711E-02
 -3.87813313E-01 -1.16951033E-01 -4.66498464E-02  0.00000000E+00  0.00000000E+00
  8.16064227E-02 -6.39029026E-01  8.16064227E-02 -6.39029026E-01  4.01209191E-02
 -3.35189162E-01  3.72121952E-03  1.09267326E-01  0.00000000E+00  1.38249294E-01
  2.15242606E-02 -1.35600704E+00  0.00000000E+00 -1.65848997E-01 -9.91823799E-01
 -7.18198183E-01  0.00000000E+00  9.63672711E-02  3.87813313E-01  1.16951033E-01
  4.66498464E-02  0.00000000E+00  0.00000000E+00 -8.16064227E-02  6.39029026E-01
 -8.16064227E-02  6.39029026E-01 -7.38450485E-02  5.19054324E-01 -1.47519524E-01
  1.92125839E-01  0.00000000E+00  4.26105275E-01  8.51965884E-01 -1.80350670E+00
  0.00000000E+00  2.33663688E-02  1.25294763E+00  3.20630639E-01  0.00000000E+00
 -2.18898249E-01 -5.29000515E-01 -2.69372660E-01  2.06876233E-02  0.00000000E+00
  0.00000000E+00  9.67950767E-02 -4.99938667E-01  2.82930514E-01 -2.14540460E+00
  9.67950767E-02 -4.99938667E-01 -2.20785427E-01 -6.10027512E-01 -9.74237766E-02
 -2.93185388E-03  0.00000000E+00  5.23462394E+00  3.74963448E-01 -3.53320439E-01
  0.00000000E+00  1.66421531E-01  5.55831373E-01  6.95682768E-02  0.00000000E+00
 -4.88037145E-01 -3.51696287E-01 -5.19385606E-01  1.35640743E-02  0.00000000E+00
  0.00000000E+00 -2.68394799E-02 -9.83371992E-01  1.26942032E-02 -1.71980539E+00
  1.26942032E-02 -1.71980539E+00 -1.18894170E-01 -3.43364944E-01 -7.23642423E-03
  1.24210730E-01  0.00000000E+00  2.74951767E+00  1.31593296E+00 -2.22559386E+00
  0.00000000E+00  1.35656159E-01 -8.93941388E-01  5.98938777E-01  0.00000000E+00
 -4.57176484E-02 -3.87177387E-01 -2.82720697E-01 -7.83827932E-02  0.00000000E+00
  0.00000000E+00  9.72725608E-03 -9.86580760E-01  9.72725608E-03 -9.86580760E-01
  1.18894170E-01  3.43364944E-01 -7.23642423E-03  1.24210730E-01  0.00000000E+00
 -2.74951767E+00  1.31593296E+00 -2.22559386E+00  0.00000000E+00 -1.35656159E-01
 -8.93941388E-01  5.98938777E-01  0.00000000E+00  4.57176484E-02  3.87177387E-01
  2.82720697E-01  7.83827932E-02  0.00000000E+00  0.00000000E+00 -9.72725608E-03
  9.86580760E-01 -9.72725608E-03  9.86580760E-01  2.20785427E-01  6.10027512E-01
 -9.74237766E-02 -2.93185388E-03  0.00000000E+00 -5.23462394E+00  3.74963448E-01
 -3.53320439E-01  0.00000000E+00 -1.66421531E-01  5.55831373E-01  6.95682768E-02
  0.00000000E+00  4.88037145E-01  3.51696287E-01  5.19385606E-01 -1.35640743E-02
  0.00000000E+00  0.00000000E+00 -1.26942032E-02  1.71980539E+00  2.68394799E-02
  9.83371992E-01 -1.26942032E-02  1.71980539E+00  1.49521293E-01  5.81772393E-01
 -2.61054343E-02  7.80537525E-02  0.00000000E+00 -5.08873049E+00 -3.08928936E-01
  1.83931752E+00  0.00000000E+00  3.06158120E-01  4.03572960E-01 -4.46508695E-01
  0.00000000E+00  3.55232695E-01  4.31922250E-02  2.57124277E-01  6.68429615E-02
  0.00000000E+00  0.00000000E+00  3.95185637E-02  6.31896584E-01  1.60953864E-01
  4.61722582E-01  1.60953864E-01  4.61722582E-01 -2.85260233E-01 -1.10834101E+00
  1.35765732E-02 -8.71355433E-02  0.00000000E+00  9.50656443E+00  2.04450887E+00
  8.14307656E-01  0.00000000E+00 -3.11807758E-02 -4.93168101E-01 -1.90893487E-01
  0.00000000E+00 -3.66083521E-01 -2.99493854E-01 -5.96636100E-01 -1.09119695E-01
  0.00000000E+00  0.00000000E+00 -1.75407914E-01 -1.02547606E+00 -1.75407914E-01
 -1.02547606E+00  2.85260233E-01  1.10834101E+00  1.35765732E-02 -8.71355433E-02
  0.00000000E+00 -9.50656443E+00  2.04450887E+00  8.14307656E-01  0.00000000E+00
  3.11807758E-02 -4.93168101E-01 -1.90893487E-01  0.00000000E+00  3.66083521E-01
  2.99493854E-01  5.96636100E-01  1.09119695E-01  0.00000000E+00  0.00000000E+00
  1.75407914E-01  1.02547606E+00  1.75407914E-01  1.02547606E+00 -1.49521293E-01
 -5.81772393E-01 -2.61054343E-02  7.80537525E-02  0.00000000E+00  5.08873049E+00
 -3.08928936E-01  1.83931752E+00  0.00000000E+00 -3.06158120E-01  4.03572960E-01
 -4.46508695E-01  0.00000000E+00 -3.55232695E-01 -4.31922250E-02 -2.57124277E-01
 -6.68429615E-02  0.00000000E+00  0.00000000E+00 -1.60953864E-01 -4.61722582E-01
 -3.95185637E-02 -6.31896584E-01 -1.60953864E-01 -4.61722582E-01 -3.96412485E-03
 -1.95845982E-02 -1.31544918E-01 -4.15971261E-03  0.00000000E+00  5.97565880E-01
  1.05238307E+00 -5.16813250E-03  0.00000000E+00  2.15877398E+01  3.36291531E-01
 -5.83081367E+00  0.00000000E+00 -4.65772429E-02  2.34714973E-02  1.78756248E-02
 -1.13575552E-02  0.00000000E+00  0.00000000E+00  8.53201104E-02  3.72943208E-03
  1.05903784E-01 -1.43948593E+00  1.05903784E-01 -1.43948593E+00 -1.20580869E-03
  4.21753098E-02  6.15970530E-02  4.89840139E-02  0.00000000E+00 -1.42193649E-01
 -8.88067607E-01 -4.26576532E-01  0.00000000E+00  1.69888318E+01  1.02875978E+01
 -1.11489891E+01  0.00000000E+00 -5.59060214E-02 -4.10097121E-02  1.69815756E-02
 -1.31870828E-02  0.00000000E+00  0.00000000E+00  9.31266416E-02 -1.16298989E+00
  9.31266416E-02 -1.16298989E+00  1.20580869E-03 -4.21753098E-02  6.15970530E-02
  4.89840139E-02  0.00000000E+00  1.42193649E-01 -8.88067607E-01 -4.26576532E-01
  0.00000000E+00 -1.69888318E+01  1.02875978E+01 -1.11489891E+01  0.00000000E+00
  5.59060214E-02  4.10097121E-02 -1.69815756E-02  1.31870828E-02  0.00000000E+00
  0.00000000E+00 -9.31266416E-02  1.16298989E+00 -9.31266416E-02  1.16298989E+00
  3.96412485E-03  1.95845982E-02 -1.31544918E-01 -4.15971261E-03  0.00000000E+00
 -5.97565880E-01  1.05238307E+00 -5.16813250E-03  0.00000000E+00 -2.15877398E+01
  3.36291531E-01 -5.83081367E+00  0.00000000E+00  4.65772429E-02 -2.34714973E-02
 -1.78756248E-02  1.13575552E-02  0.00000000E+00  0.00000000E+00 -1.05903784E-01
  1.43948593E+00 -8.53201104E-02 -3.72943208E-03 -1.05903784E-01  1.43948593E+00
  5.19690174E-02  1.53715941E-01 -3.07988816E-02 -1.01798120E-01  0.00000000E+00
 -1.77183099E+00  1.14049449E-01  6.23572682E-01  0.00000000E+00 -5.84482978E+01
 -2.45923993E+00  1.53423152E+01  0.00000000E+00  1.29133891E-01  5.79644536E-02
  1.13374706E-01  1.34103065E-02  0.00000000E+00  0.00000000E+00 -7.60545369E-02
  9.01577926E-01 -9.74224630E-02  8.17755253E-01 -9.74224630E-02  8.17755253E-01
 -3.08937975E-02 -1.73257748E-01  1.44671749E-02  1.31311070E-01  0.00000000E+00
  2.23824907E+00  4.52916506E-01 -4.32156939E-01  0.00000000E+00  8.48207651E+01
  9.73688679E+00  1.69018630E+01  0.00000000E+00  3.95706408E-02 -2.82373967E-02
 -4.38871809E-02 -3.44969424E-02  0.00000000E+00  0.00000000E+00  8.04607455E-02
 -1.35841756E+00  8.04607455E-02 -1.35841756E+00  3.08937975E-02  1.73257748E-01
  1.44671749E-02  1.31311070E-01  0.00000000E+00 -2.23824907E+00  4.52916506E-01
 -4.32156939E-01  0.00000000E+00 -8.48207651E+01  9.73688679E+00  1.69018630E+01
  0.00000000E+00 -3.95706408E-02  2.82373967E-02  4.38871809E-02  3.44969424E-02
  0.00000000E+00  0.00000000E+00 -8.04607455E-02  1.35841756E+00 -8.04607455E-02
  1.35841756E+00 -5.19690174E-02 -1.53715941E-01 -3.07988816E-02 -1.01798120E-01
  0.00000000E+00  1.77183099E+00  1.14049449E-01  6.23572682E-01  0.00000000E+00
  5.84482978E+01 -2.45923993E+00  1.53423152E+01  0.00000000E+00 -1.29133891E-01
 -5.79644536E-02 -1.13374706E-01 -1.34103065E-02  0.00000000E+00  0.00000000E+00
  9.74224630E-02 -8.17755253E-01  7.60545369E-02 -9.01577926E-01  9.74224630E-02
 -8.17755253E-01
Total SCF Density                          R   N=        4656
  2.05297603E+00 -5.75049077E-02  2.82543888E-01  1.89995646E-06 -6.94890286E-04
  4.00290148E-01 -2.39299695E-03 -2.73369875E-03 -1.48023261E-03  3.80136986E-01
  1.31835963E-23 -4.82176997E-21 -2.50507327E-17 -1.11415926E-17  4.01048121E-01
 -1.90267201E-01  2.88191679E-01  3.91600568E-03  1.63949702E-02  2.71727479E-20
  3.08840020E-01 -1.24353875E-03  8.58790152E-04  2.07665150E-01  8.16939267E-04
 -1.26960701E-17  2.93724187E-03  1.08115489E-01  1.39359453E-03 -6.06039612E-04
 -2.71491682E-03  1.77805508E-01 -5.67365313E-18  4.95747278E-03 -5.10405822E-04
  8.54828304E-02 -8.62878343E-21  5.95905375E-21 -1.26960701E-17 -5.64914595E-18
  2.03736168E-01  2.03812097E-20 -6.46331678E-18 -2.88894913E-18  1.03957760E-01
 -9.49881711E-02  1.19138263E-01  1.97208336E-02  2.12316677E-01  1.36840772E-19
  1.44114037E-01  1.08202020E-02  9.63935036E-02  7.50802337E-20  2.02904179E-01
 -2.74414944E-03  3.92163009E-03  3.56312445E-02 -1.21997551E-03 -1.96867691E-18
  5.60910778E-03  1.88457233E-02 -1.52680577E-03 -1.02799043E-18  7.36894999E-03
  4.87022102E-03  2.42531371E-02 -3.26696329E-02 -7.23528911E-03 -2.76260235E-02
 -9.36572239E-19 -3.86194878E-02 -3.82499439E-03 -1.14448628E-02 -4.90044790E-19
 -3.84504594E-02 -2.49631577E-03  8.55474048E-03 -1.90413618E-20  2.72117751E-20
 -1.96867691E-18 -8.94832616E-19  3.19347488E-02  3.89210038E-20 -1.02799043E-18
 -4.74097903E-19  1.66994757E-02  5.11323622E-20 -1.91164528E-19 -1.07305060E-19
  3.24199330E-03 -1.63553978E-02  9.59513922E-04 -1.76973757E-02  1.12294949E-02
 -2.64768823E-18  2.45180533E-03 -9.16856876E-03  5.22428349E-03 -1.35333167E-18
  6.07916275E-03 -1.68195000E-03 -7.11920315E-04 -2.29959807E-19  1.26431453E-03
 -1.39940552E-02 -3.90264934E-03 -4.03382394E-04 -1.40848799E-02 -7.80117852E-19
 -4.31776368E-03 -2.62667899E-04 -6.11068640E-03 -4.10430109E-19 -9.24540337E-03
 -1.46938922E-04  1.58490927E-03 -8.50762591E-20 -3.28565236E-04  8.19640882E-04
 -1.64028133E-02  9.16549453E-04  1.78134777E-02  1.06004345E-02  3.76094633E-19
  2.92838613E-03  9.35016926E-03  4.68065739E-03  1.93851027E-19  8.17562245E-03
  1.77786805E-03 -1.51207074E-03  3.41653312E-20 -3.50175219E-04 -3.44633075E-04
  1.25206878E-03  1.24491929E-04 -2.62471860E-04  1.65505590E-02 -1.19378239E-04
 -1.59021842E-18 -5.58460462E-05  8.85525188E-03 -2.23471958E-04 -8.26174664E-19
  1.37443986E-03  2.08478642E-03 -5.24628465E-04 -1.57270904E-19 -7.93971114E-04
 -1.41581085E-05  8.10071054E-04  9.95746985E-04  1.18320483E-18 -6.57491438E-20
 -3.02681945E-18 -1.34246666E-18  2.10083162E-02 -2.14987677E-19 -1.56724504E-18
 -6.31017853E-19  1.07310408E-02 -6.06350692E-19 -2.81954451E-19  6.50364960E-20
  1.81627182E-03 -9.90170406E-20 -2.06788023E-20 -8.94053478E-20 -1.68856942E-19
  1.14160850E-03  5.26563803E-19 -3.11961044E-20 -1.57803139E-18 -7.89350918E-19
  1.61691920E-02 -9.42404642E-20 -8.27995559E-19 -3.87472448E-19  8.49954057E-03
 -2.52486523E-19 -1.63838800E-19 -3.70955303E-21  1.74848251E-03 -1.08434918E-19
 -3.53071298E-20 -2.30921752E-20 -1.12176501E-19  9.49772224E-04  9.62143764E-04
 -5.24939089E-02  9.82975669E-02 -2.44987567E-01  9.03450442E-02 -1.69994273E-18
  1.03779482E-01 -1.26788563E-01  4.39826693E-02 -8.79772387E-19  7.93395294E-02
 -2.19163368E-02 -1.31788961E-02 -1.52075136E-19  1.41739539E-02 -4.20148527E-03
 -7.94387924E-03 -1.08408414E-02  7.50057575E-19  1.79372941E-19  2.07057269E-01
 -2.02828830E-03  1.61390297E-02 -1.88508445E-01  6.39019833E-02 -1.30804010E-18
  1.65265933E-02 -9.84112812E-02  3.15266126E-02 -6.82865439E-19  2.82315152E-02
 -1.94244498E-02 -1.49718826E-03 -1.34784196E-19  1.04837744E-02 -2.36431114E-03
 -6.89714834E-03 -9.07015467E-03  6.36622900E-19  1.58112474E-19  1.38396383E-01
  1.05438548E-01 -5.22380145E-02  9.72191610E-02  1.23377097E-01  8.63983746E-02
 -2.12822215E-01  1.06954120E-01  6.51242455E-02  3.99629073E-02 -1.08570856E-01
  9.80992712E-02  1.27836794E-02 -2.04347495E-02 -1.77772389E-02 -2.36882786E-03
 -4.49080267E-03  8.61232984E-03  5.34632861E-03 -1.13513495E-02 -9.15177840E-03
 -2.10526462E-02 -3.93895910E-02  2.06794961E-01 -3.21214761E-04  1.30032814E-02
  9.18278833E-02  6.03353037E-02 -1.68540643E-01  1.70749431E-02  4.85106593E-02
  2.76653756E-02 -8.64977323E-02  4.50720671E-02  9.39083880E-03 -8.03992132E-03
 -1.51683803E-02 -2.36087037E-03 -2.56538175E-03  5.96712599E-03  4.40195519E-03
 -9.27892523E-03 -8.01505272E-03 -3.84554552E-02 -3.48479310E-02  1.39312374E-01
  1.08631330E-01 -5.22380145E-02  9.72191610E-02  1.23377097E-01  8.63983746E-02
  2.12822215E-01  1.06954120E-01  6.51242455E-02  3.99629073E-02  1.08570856E-01
  9.80992712E-02  1.27836794E-02 -2.04347495E-02  1.77772389E-02 -2.36882786E-03
 -4.49080267E-03  8.61232984E-03  5.34632861E-03  1.13513495E-02  9.15177840E-03
 -2.10526462E-02 -3.93895910E-02 -2.12372892E-02 -4.42381165E-02  2.06794961E-01
 -3.21214761E-04  1.30032814E-02  9.18278833E-02  6.03353037E-02  1.68540643E-01
  1.70749431E-02  4.85106593E-02  2.76653756E-02  8.64977323E-02  4.50720671E-02
  9.39083880E-03 -8.03992132E-03  1.51683803E-02 -2.36087037E-03 -2.56538175E-03
  5.96712599E-03  4.40195519E-03  9.27892523E-03  8.01505272E-03 -3.84554552E-02
 -3.48479310E-02 -4.42381165E-02 -4.32397310E-02  1.39312374E-01  1.08631330E-01
  1.05074139E-02 -1.95235435E-02 -8.58859615E-04  6.28916660E-02 -5.95953575E-21
  7.12170526E-03 -3.83245926E-04  1.28634246E-02 -2.65930282E-21  2.99924987E-02
  2.04519899E-03 -6.74821712E-03  1.41914188E-20  2.22297670E-03 -5.83427482E-03
  2.13916997E-03 -8.11837335E-05 -1.53586413E-19 -6.91223925E-20  7.81315582E-03
  9.01265463E-03  6.84922823E-03  9.15585054E-03  6.84922823E-03  9.15585054E-03
  2.05328580E+00 -1.94838298E-02  3.23140145E-02 -3.43021619E-04 -1.27649020E-01
 -2.38019062E-21  3.88071894E-03 -2.72406085E-04 -3.87890733E-02 -1.89019693E-21
 -6.23740786E-02 -3.88955471E-03  1.42159457E-02 -2.69892075E-20 -5.00491361E-03
  9.91683168E-03 -4.88964092E-03 -2.97514428E-04  3.51673784E-19  1.54645529E-19
 -1.70843794E-02 -1.74583796E-02 -1.79059990E-02 -1.96877084E-02 -1.79059990E-02
 -1.96877084E-02 -5.81467430E-02  2.87307839E-01 -2.29359302E-03  5.29058813E-03
  5.14943096E-03 -3.18328962E-03 -9.66606589E-20  9.28008820E-03 -7.88824491E-03
 -9.79765602E-04  6.06277609E-19 -1.01372017E-02 -1.89823068E-02  4.54366473E-03
  1.01373513E-18  1.73227524E-03 -1.13740364E-04 -2.33279039E-03 -1.05620941E-02
  4.48324063E-19  7.71192299E-19  1.90120973E-02  3.94584032E-02 -9.23988925E-03
 -2.08670927E-02 -9.23988925E-03 -2.08670927E-02  2.09171112E-03  2.86206109E-03
  3.84046697E-01 -6.43343628E-02  1.29818646E-01 -2.96695821E-03 -3.11778667E-01
 -7.35442138E-20  1.28642081E-01 -1.95422095E-03 -1.55134434E-01  2.50845190E-19
 -1.23487970E-01  3.77424750E-03  5.24498191E-03  4.84369641E-19 -7.41902839E-03
  7.25309252E-03 -7.43458727E-03 -1.83131603E-04  6.35254244E-19  5.44889995E-19
 -2.68389738E-02 -4.27853887E-02 -2.74468988E-02 -4.41020042E-02 -2.74468988E-02
 -4.41020042E-02  3.08257390E-03 -1.52293392E-04  3.97056899E-03  3.77350575E-01
 -1.59149986E-20  3.67108297E-20 -9.66606589E-20 -7.50453146E-20  1.90797000E-03
  6.43935475E-20  6.06277609E-19  2.57606832E-19 -9.52620566E-03 -7.03409668E-20
  1.01373513E-18  4.89708546E-19 -1.65076936E-02  4.40760280E-19  5.32486395E-19
 -5.90610056E-20  7.95441127E-19 -3.56733042E-03 -1.10927920E-02  1.31922926E-19
  2.73797674E-19  1.94907073E-02  4.28611191E-02 -1.94907073E-02 -4.28611191E-02
  1.45141615E-20  1.98595383E-20 -2.52652648E-17 -1.11444983E-17  4.02515508E-01
  7.31948982E-03  2.52341686E-03  1.00205258E-02 -1.21009955E-01  6.95313652E-20
 -2.93626408E-02  5.63746473E-03 -3.41039006E-02  3.91177697E-20 -7.09843402E-02
 -2.90205869E-03  1.74677033E-02 -2.01370774E-20 -5.73504456E-03  1.02726223E-02
 -4.46349288E-03  5.83322025E-04  3.11679275E-19  1.47099781E-19 -3.33493037E-02
 -2.44476700E-02 -2.34116738E-02 -1.70959007E-02 -2.34116738E-02 -1.70959007E-02
 -1.92992805E-01  2.85439971E-01 -1.51961248E-02 -2.39975519E-02 -1.05444298E-19
  3.04703819E-01 -1.99201200E-03  3.75098344E-03 -7.15279523E-04 -3.62142786E-03
  2.88731142E-19  6.71308649E-03 -5.39137477E-03 -1.69105791E-03  4.81416684E-19
 -4.43911879E-03 -9.34975256E-03  1.96371552E-03  5.54457184E-19  8.72277047E-04
 -2.34633870E-06 -1.28729400E-03 -5.21081884E-03  2.57901799E-19  4.18159973E-19
  1.09759012E-02  2.00757320E-02 -5.55821610E-03 -1.12762890E-02 -5.55821610E-03
 -1.12762890E-02 -9.87971882E-04  1.04985515E-04  1.84005694E-01  4.79718367E-03
 -1.31604188E-17 -5.00602446E-03  9.06256546E-02 -1.44682180E-02  4.13575126E-02
 -9.75487638E-03 -1.52533370E-01  4.97897042E-20  3.97254933E-02 -5.74490581E-03
 -7.61340522E-02  1.67667453E-19 -7.01030688E-02  5.59973130E-04  5.18458151E-03
  2.51619244E-19 -3.37520151E-03  3.72883185E-03 -4.22425141E-03 -6.39827600E-04
  3.70526453E-19  2.96169063E-19 -1.55536435E-02 -1.75036047E-02 -2.41291074E-02
 -2.49258973E-02 -2.41291074E-02 -2.49258973E-02  2.35206950E-03 -4.10686594E-03
  1.09311205E-02  1.74760956E-01 -5.69903602E-18 -1.53508965E-02  5.74935480E-03
  8.33706939E-02 -1.38223600E-20  2.60276761E-20  2.88731142E-19  9.23490527E-20
 -4.23258224E-03  4.65813949E-20  4.81416684E-19  1.95796673E-19 -7.47708308E-03
 -3.08025743E-20  5.54457184E-19  2.61359664E-19 -8.92554540E-03  2.61998451E-19
  2.86160303E-19 -3.45269778E-20  4.36011154E-19 -2.12959567E-03 -5.95282656E-03
  7.61606137E-20  1.39303375E-19  1.28821927E-02  2.44932469E-02 -1.28821927E-02
 -2.44932469E-02 -6.85543207E-21  7.28483350E-22 -1.31604188E-17 -5.74159875E-18
  2.08062192E-01 -3.47362726E-20 -6.85788439E-18 -2.95479631E-18  1.07895095E-01
  9.65487916E-02 -9.86526719E-02  5.02247410E-02 -2.34587266E-01  3.48504149E-19
 -1.33204182E-01  2.77005696E-02 -9.95174492E-02  1.92211313E-19 -2.12415511E-01
 -1.63797042E-03  4.12444757E-02 -1.13657030E-20 -1.04935075E-02  1.14035304E-02
 -5.90719673E-03  2.45188275E-03  3.89227356E-19  2.06335336E-19 -1.21753866E-01
 -6.62726450E-02 -7.34088590E-02 -3.00944049E-02 -7.34088590E-02 -3.00944049E-02
 -7.49289637E-02  1.40070926E-01 -3.54528708E-02  1.19591682E-01 -2.46003709E-19
  1.65528108E-01 -1.17211781E-02  6.02964000E-02 -8.13320111E-20  2.89088991E-01
  4.59617541E-03  7.72074566E-04  5.68186809E-03 -1.73149513E-02  9.95796848E-19
 -2.50005915E-03  2.51650320E-03 -6.01930810E-03  5.61085250E-19 -1.52627691E-02
 -2.02590547E-03  3.52866028E-03  1.82944398E-19 -7.60492554E-04  1.02707864E-03
 -6.01926485E-04 -6.42938190E-04  1.24301654E-19  1.38286434E-19 -5.54719222E-03
 -1.65303487E-03 -2.98463431E-03 -3.33038316E-03 -2.98463431E-03 -3.33038316E-03
 -1.17729127E-02  2.32810155E-02  2.66563750E-02  7.01234096E-03 -2.84754905E-18
  2.60520148E-02  1.47321049E-02  2.71204965E-03 -1.48666373E-18  2.78284664E-02
  7.13971527E-03  2.28337385E-02 -2.38610372E-02 -7.40873669E-03 -9.71689659E-02
  3.31139949E-19 -2.87341905E-02 -4.32567959E-03 -4.73429836E-02  1.87433969E-19
 -6.96334108E-02 -7.22170468E-04  1.04396093E-02  7.37897121E-20 -2.57906683E-03
  3.29059362E-03 -3.15431962E-03 -2.45848884E-04  2.64937207E-19  1.48770601E-19
 -2.72767632E-02 -1.40685816E-02 -3.32791662E-02 -1.81945193E-02 -3.32791662E-02
 -1.81945193E-02 -1.06169929E-04  7.26291127E-03 -3.42496946E-04  8.02309225E-02
 -1.21538247E-18  5.41309992E-03 -3.76805692E-04  4.18461824E-02 -6.38169910E-19
  6.38833430E-02  2.44270780E-03  3.07550416E-02  3.18923735E-20  5.35734350E-21
  9.95796848E-19  2.62401777E-19 -1.37827582E-02 -1.73476452E-20  5.61085250E-19
  1.75682060E-19 -7.83444031E-03 -1.05906735E-19  1.82944398E-19  1.03285776E-19
 -2.83909718E-03  1.37039677E-19  9.26598542E-20 -1.84083695E-20  1.51861688E-19
 -1.18414491E-03 -1.77919343E-03 -3.84913783E-20 -1.14702336E-20  9.67767708E-03
  1.09769999E-02 -9.67767708E-03 -1.09769999E-02 -8.16909921E-20  1.61544496E-19
 -2.84754905E-18 -1.16434803E-18  4.37031442E-02  1.80772166E-19 -1.48666373E-18
 -6.16736671E-19  2.28982927E-02  1.93098776E-19 -3.49937986E-19 -1.42842195E-19
  5.75710939E-03  2.19648749E-03 -5.01126945E-03 -2.66219519E-03  7.95259859E-03
 -3.09195501E-19 -5.38602080E-03 -1.57252075E-03  3.95705115E-03 -2.00152981E-19
  8.84468921E-04 -8.46271597E-04  4.37284408E-04 -1.36072382E-19  3.87865963E-04
 -2.24540575E-04  1.10745546E-05 -3.48255692E-04 -4.42524824E-20 -9.17551470E-20
  2.24337173E-03  3.33477356E-03 -9.91800758E-04 -5.22723779E-06 -9.91800758E-04
 -5.22723779E-06 -1.37568563E-02 -3.59330854E-03  8.11752020E-03 -8.53336695E-03
  2.80698295E-18 -2.82638751E-03  3.37140180E-03 -3.36222982E-03  1.46246688E-18
 -3.86641571E-03 -7.63617353E-05 -1.38367124E-03  3.59841270E-19  7.23843967E-04
 -6.12149858E-03  1.06173518E-02  3.36326460E-06 -8.58374216E-03 -5.37710461E-19
  1.20023546E-02 -1.05429808E-04 -4.90811220E-03 -2.94339100E-19  1.38358913E-03
  4.68757370E-04 -1.31723997E-03 -7.07707499E-20 -1.40548777E-04  5.27417792E-06
 -1.05045990E-04 -2.85770173E-06 -2.75667473E-20 -3.90504686E-20  1.65569332E-03
 -1.00259116E-03  1.73459685E-03 -8.92745437E-04  1.73459685E-03 -8.92745437E-04
 -1.29052219E-02 -4.94907523E-03  1.34868973E-03  1.55008437E-02  7.55485488E-19
 -5.69394715E-03  9.72888917E-04  6.86255856E-03  3.97525626E-19 -3.19593873E-03
 -3.30985666E-04  1.91926004E-03  9.63257102E-20 -3.33576872E-04  1.12688308E-03
  2.41209268E-03 -5.35690618E-03  1.98041487E-03  7.78847778E-03  4.28141697E-20
 -5.94438153E-03  1.52224377E-03  4.10109858E-03  2.94868306E-20  2.22655232E-03
  7.64415947E-04  6.67423284E-05  1.83242205E-20 -8.34213049E-07 -1.00387582E-04
  3.51969395E-04  5.34240571E-04 -2.35603979E-20  1.32500895E-21 -2.09747284E-03
 -1.64756932E-03  1.04360196E-03  2.34371002E-03  1.04360196E-03  2.34371002E-03
 -1.58839906E-02  7.37111156E-04 -1.66210256E-02 -1.10230107E-02 -3.90397168E-19
  3.66108087E-03 -7.94854834E-03 -5.51102930E-03 -1.99061441E-19  1.25394320E-03
 -9.30110206E-04 -2.03364507E-03 -4.24910497E-20 -3.68520523E-06 -4.92686705E-04
  1.19742060E-03  2.76108478E-04 -7.17842272E-04  1.03713300E-02  4.93550570E-04
 -7.71325881E-19 -1.42138012E-03  5.82786234E-03  5.63348988E-04 -4.27050488E-19
 -6.96479287E-04  1.25141295E-03  2.04876219E-04 -1.28228611E-19 -5.11500020E-04
  4.43965251E-05  5.19205852E-04  7.39998724E-04 -1.06743459E-19 -9.32505869E-20
 -7.04141541E-03 -5.90070158E-03  3.44057569E-03  3.07443464E-03  3.44057569E-03
  3.07443464E-03 -1.11410816E-03  2.04676670E-03 -1.22861890E-02 -1.38309851E-03
  1.62692598E-18  3.33064374E-03 -5.90625720E-03 -1.31956105E-03  8.55391716E-19
  5.87201530E-03 -7.33528008E-05 -4.24768228E-04  2.25064312E-19 -2.78656681E-04
 -2.60320271E-04  6.91375354E-04  8.35073714E-04 -1.75666161E-19  3.89061762E-19
 -3.47856981E-19 -6.27460271E-19  2.41895748E-03  4.33129674E-19 -2.43825582E-19
 -3.40592326E-19  1.57458220E-03 -1.71312373E-19 -1.43199375E-19 -3.19123986E-20
  1.08332996E-03 -4.32983110E-20 -2.93491796E-20 -2.34649807E-20 -1.07702755E-19
  3.86677221E-04  7.40388408E-04  1.86031418E-19  1.58728285E-19 -2.55909244E-03
 -3.85640687E-03  2.55909244E-03  3.85640687E-03  1.16245538E-18 -8.78507114E-20
  2.98486639E-18  1.45006619E-18 -2.28868203E-02 -3.15984403E-19  1.49472714E-18
  7.46963002E-19 -1.19737993E-02 -1.31449304E-19  2.81972170E-19  2.35080348E-19
 -2.99846597E-03 -1.93752326E-19 -7.94593937E-21 -7.59862625E-20 -1.68370386E-19
  1.66282818E-03 -7.53901830E-20  1.66704480E-19 -7.67657389E-19 -5.56651927E-19
  1.11855275E-02  1.80650925E-19 -4.32134019E-19 -2.97043029E-19  6.10739949E-03
 -7.61924129E-20 -1.22659220E-19 -4.34548700E-20  1.53977834E-03 -9.06656802E-20
 -3.88718756E-20  1.03663129E-21 -9.33073874E-20  7.25074261E-04  8.81916186E-04
  1.83630657E-20  1.18592298E-20 -6.72169813E-03 -6.36296311E-03  6.72169813E-03
  6.36296311E-03  5.01341343E-19 -9.42165716E-21  1.52438264E-18  7.74460129E-19
 -1.55203651E-02 -9.42243815E-20  7.77798056E-19  3.93082734E-19 -8.12859981E-03
  5.57191436E-22  1.71649617E-19  1.19169298E-19 -2.05146746E-03 -1.13687868E-19
 -3.02707792E-20 -2.23919646E-20 -1.06075713E-19  9.30833720E-04  9.20553421E-04
  7.95974359E-03 -1.91275948E-02  1.00442916E-02  2.66041089E-02  1.68443798E-02
 -3.09386770E-02  8.85980284E-03  2.19174193E-02  1.37008234E-02  7.42203423E-03
  4.64020264E-03  2.71359281E-03  1.00870610E-02 -1.08093216E-03  1.82714052E-03
  1.20984394E-03  3.79694981E-03  2.91787650E-03  6.61908253E-03 -1.26334117E-02
 -1.41265000E-02 -1.34426993E-02 -1.84304626E-02  2.65725988E-02  4.32844220E-02
 -5.19335588E-02  9.64108479E-02 -1.24959767E-01 -8.42340357E-02 -2.13555296E-01
  1.09120743E-01 -6.13197335E-02 -4.36399545E-02 -1.10754198E-01  3.77849780E-02
 -1.74731963E-03 -1.52846734E-02 -2.45415940E-02 -1.65571030E-03 -5.54405824E-03
  8.43883563E-03  5.49745056E-03  1.28478766E-02  8.70450451E-03  2.08123299E-01
  9.40196933E-03 -2.09035497E-02  1.78049687E-02  4.82493986E-02  4.08894776E-02
 -2.39998745E-02  1.21217248E-02  2.52604522E-02  2.42669381E-02  1.78746168E-02
  4.91050105E-03 -7.21842280E-04  1.01793937E-02 -1.19469346E-04 -8.34170077E-04
  2.41676801E-03  3.28346730E-03  3.92982551E-03  6.46892025E-03 -1.15527682E-02
 -1.10776486E-02 -1.86953366E-02 -2.13311645E-02  4.31925315E-02  5.33810568E-02
  5.55913979E-04  1.06727214E-02 -9.39614139E-02 -6.24559170E-02 -1.72589444E-01
  1.86874802E-02 -4.62851741E-02 -3.18100624E-02 -8.99921647E-02  1.17926133E-03
 -5.99432845E-03 -1.31144870E-02 -2.19408604E-02 -5.85549201E-04 -3.43801182E-03
  6.03153676E-03  4.10014386E-03  1.14881314E-02  7.76267902E-03  1.44883371E-01
  1.19598613E-01  7.95974359E-03 -1.91275948E-02  1.00442916E-02  2.66041089E-02
 -1.68443798E-02 -3.09386770E-02  8.85980284E-03  2.19174193E-02 -1.37008234E-02
  7.42203423E-03  4.64020264E-03  2.71359281E-03 -1.00870610E-02 -1.08093216E-03
  1.82714052E-03  1.20984394E-03  3.79694981E-03 -2.91787650E-03 -6.61908253E-03
 -1.26334117E-02 -1.41265000E-02  2.65725988E-02  4.32844220E-02 -1.34426993E-02
 -1.84304626E-02 -5.19335588E-02  9.64108479E-02 -1.24959767E-01 -8.42340357E-02
  2.13555296E-01  1.09120743E-01 -6.13197335E-02 -4.36399545E-02  1.10754198E-01
  3.77849780E-02 -1.74731963E-03 -1.52846734E-02  2.45415940E-02 -1.65571030E-03
 -5.54405824E-03  8.43883563E-03  5.49745056E-03 -1.28478766E-02 -8.70450451E-03
 -2.21296798E-02 -4.69075393E-02  2.08123299E-01  9.40196933E-03 -2.09035497E-02
  1.78049687E-02  4.82493986E-02 -4.08894776E-02 -2.39998745E-02  1.21217248E-02
  2.52604522E-02 -2.42669381E-02  1.78746168E-02  4.91050105E-03 -7.21842280E-04
 -1.01793937E-02 -1.19469346E-04 -8.34170077E-04  2.41676801E-03  3.28346730E-03
 -3.92982551E-03 -6.46892025E-03 -1.15527682E-02 -1.10776486E-02  4.31925315E-02
  5.33810568E-02 -1.86953366E-02 -2.13311645E-02  5.55913979E-04  1.06727214E-02
 -9.39614139E-02 -6.24559170E-02  1.72589444E-01  1.86874802E-02 -4.62851741E-02
 -3.18100624E-02  8.99921647E-02  1.17926133E-03 -5.99432845E-03 -1.31144870E-02
  2.19408604E-02 -5.85549201E-04 -3.43801182E-03  6.03153676E-03  4.10014386E-03
 -1.14881314E-02 -7.76267902E-03 -4.69075393E-02 -4.89982419E-02  1.44883371E-01
  1.19598613E-01 -3.15598116E-03  5.69370627E-03  1.01965840E-02 -8.62648461E-03
  7.07530149E-20  1.03778899E-02  8.83870923E-03 -6.07876934E-03  6.13308656E-20
 -1.27094153E-02  3.72880242E-03  2.09353619E-03  2.58737644E-20 -9.71999706E-04
 -2.10331705E-04  5.23372739E-04  1.79343471E-03 -4.97224235E-20 -4.32931765E-21
 -9.12749670E-03 -9.93384835E-03  4.56351164E-03  2.51480982E-03  4.56351164E-03
  2.51480982E-03  1.04862173E-02 -1.94201171E-02 -5.95839944E-02  2.27129661E-02
 -4.13447016E-19  7.05759731E-03 -1.28973660E-02  1.59773314E-03 -8.94934545E-20
  5.22137951E-02  6.63872818E-03  5.45650620E-03  4.60654305E-20 -4.72288407E-03
  8.67292248E-04  2.40500048E-03  3.53606292E-03 -2.30538298E-19 -5.25424043E-20
  7.56601062E-03  1.00560674E-02  7.56601062E-03  1.00560674E-02  2.05328580E+00
  5.79752953E-03 -1.15320919E-02 -1.93071326E-02  1.92384863E-02 -1.33970145E-19
 -1.85775555E-02 -1.53353695E-02  1.23678750E-02 -1.06410502E-19  7.60182737E-03
 -4.63753998E-03  3.54280470E-04 -3.21793979E-20  1.97302729E-03  1.45109152E-05
 -1.24935013E-03 -3.48052425E-03  1.15910811E-19  1.58899061E-20  1.76969645E-02
  2.15115657E-02 -8.27497643E-03 -5.69810257E-03 -8.27497643E-03 -5.69810257E-03
 -1.94201171E-02  3.13474114E-02  1.20428051E-01 -4.44047741E-02  8.35637472E-19
  4.97024184E-03  3.84598255E-02 -8.10423914E-03  2.66868649E-19 -7.93234519E-02
 -1.29234291E-02 -6.43047111E-04 -8.96743033E-20  7.68904238E-03 -2.18000812E-03
 -5.43108540E-03 -6.94744551E-03  4.96764531E-19  1.25855322E-19 -1.89958337E-02
 -2.16467428E-02 -1.89958337E-02 -2.16467428E-02 -5.81467430E-02  2.87307839E-01
 -3.97812978E-03  1.05470703E-02  1.37355382E-02 -3.06988148E-02  1.51570595E-18
  4.63653953E-03  1.53267991E-02 -2.16407576E-02  1.43152756E-18 -3.08396904E-02
  1.53162289E-02  7.98306712E-05  3.66086219E-19 -1.53500480E-03 -2.05420072E-03
  2.06796942E-03  8.06908051E-03 -2.21144261E-19  3.55469543E-20 -2.66906537E-02
 -3.78117457E-02  9.39451127E-03  1.57312624E-02  9.39451127E-03  1.57312624E-02
  5.95839944E-02 -1.20428051E-01 -2.72620314E-01  1.08689530E-01 -2.14911504E-18
 -1.24387416E-01 -1.41291351E-01  4.93288039E-02 -8.14625113E-19  1.63976243E-02
 -3.21328968E-02  2.47641339E-02  6.99640284E-19 -2.85661703E-03  2.05974623E-03
  8.19094223E-03  9.01120042E-03 -1.47005110E-18 -8.91380290E-20  2.86394378E-02
  5.18952376E-02  2.86394378E-02  5.18952376E-02 -2.09171112E-03 -2.86206109E-03
  3.84046697E-01  1.13885153E-02 -2.51014856E-02 -1.91531753E-02  2.96461352E-02
  4.35256751E-19 -5.65210090E-02 -8.20130980E-03  2.91172998E-02  4.73162591E-19
 -7.25431135E-02 -1.97277106E-02  2.48842820E-02 -3.29650784E-20  2.78626912E-03
  6.43415233E-04 -2.21232594E-03 -5.46190683E-03  1.82322749E-19  5.13375165E-20
  2.05258628E-02  3.82810501E-02 -1.19124566E-02 -8.51540303E-03 -1.19124566E-02
 -8.51540303E-03 -2.27129661E-02  4.44047741E-02  1.08689530E-01 -3.37145059E-02
  6.51212476E-19  4.24543182E-02  4.47797988E-02 -1.52899618E-02  3.77034505E-19
  9.85265986E-02  2.31070755E-02 -5.72607315E-03  5.29380363E-19  7.63269246E-03
 -9.04413965E-03 -1.33299713E-03  2.83095963E-03 -1.48390471E-19  1.06704982E-19
 -2.50143905E-03 -2.58598001E-03 -2.50143905E-03 -2.58598001E-03 -3.08257390E-03
  1.52293392E-04  3.97056899E-03  3.77350575E-01 -2.76038205E-20  7.31850020E-20
  1.51570595E-18  3.55142783E-19 -2.04700710E-02  3.21724559E-20  1.43152756E-18
  3.79907689E-19 -1.90978064E-02 -2.13993340E-19  3.66086219E-19  1.04477349E-19
 -3.74423554E-03 -8.53934519E-20  1.75005650E-20  2.18236421E-20  8.45631127E-20
  6.21892183E-04 -6.60531711E-04 -1.85203614E-19 -2.62371692E-19  7.34768286E-03
 -3.16761628E-03 -7.34768286E-03  3.16761628E-03  4.13447016E-19 -8.35637472E-19
 -2.14911504E-18  6.51212476E-19  3.70998032E-03 -8.63111081E-19 -8.14625113E-19
  4.08599568E-19 -2.38914994E-03  1.13781375E-19  6.99640284E-19  5.40878516E-19
 -1.32961688E-02 -1.38965985E-18  9.10906702E-20  1.93819888E-19 -1.42973979E-19
  1.13977299E-02 -1.59749974E-03  1.70648406E-02  4.35168368E-02 -1.70648406E-02
 -4.35168368E-02 -1.45141615E-20 -1.98595383E-20 -2.52652648E-17 -1.11444983E-17
  4.02515508E-01  8.16049545E-03 -1.77141450E-02 -6.40575717E-02  3.03040199E-02
 -4.44488694E-19 -2.44672532E-02 -3.85020140E-02  1.63046804E-02 -2.67161390E-19
  9.79032844E-03 -8.74484872E-03  2.68080452E-04 -6.06795775E-20  4.48694063E-03
 -8.04132815E-04 -2.89919296E-03 -5.52145365E-03  2.68244243E-19  5.46045503E-20
  4.58223732E-02  4.50512703E-02 -2.19185982E-02 -1.46656535E-02 -2.19185982E-02
 -1.46656535E-02  7.05759731E-03  4.97024184E-03  1.24387416E-01 -4.24543182E-02
  8.63111081E-19 -2.59367033E-02  3.89887117E-02 -5.19754316E-03  2.70538534E-19
 -9.91834428E-02 -1.61370344E-02 -9.63167380E-04 -1.11973170E-19  8.76713044E-03
 -2.31967270E-03 -5.99828855E-03 -8.13061197E-03  5.50848814E-19  1.35823964E-19
 -3.04910721E-02 -2.48119550E-02 -3.04910721E-02 -2.48119550E-02 -1.92992805E-01
  2.85439971E-01  1.51961248E-02  2.39975519E-02  1.05444298E-19  3.04703819E-01
 -8.26584077E-04  3.45414717E-03  2.13138152E-02 -1.81087918E-02  1.54964857E-18
 -1.66789347E-03  1.53050145E-02 -1.03619733E-02  1.12189262E-18 -1.72506576E-02
  8.77150069E-03  8.70208574E-04  2.35861700E-19 -1.65590239E-03 -4.18941733E-04
  1.48988383E-03  4.75983976E-03 -1.22835640E-19  2.78822922E-20 -2.36188079E-02
 -2.67048980E-02  8.08768004E-03  1.09068927E-02  8.08768004E-03  1.09068927E-02
  1.28973660E-02 -3.84598255E-02 -1.41291351E-01  4.47797988E-02 -8.14625113E-19
 -3.89887117E-02 -7.34919567E-02  1.96338873E-02 -2.87573354E-19  1.85936021E-02
 -1.47023533E-02  1.10464523E-02  3.84451074E-19 -1.60005179E-03  3.24162987E-04
  4.81854727E-03  5.24510111E-03 -8.20480211E-19 -5.48052733E-20  2.60091976E-02
  3.02630230E-02  2.60091976E-02  3.02630230E-02  9.87971882E-04 -1.04985515E-04
  1.84005694E-01  4.79718367E-03 -1.31604188E-17  5.00602446E-03  9.06256546E-02
  8.65037202E-03 -1.27953426E-02 -1.34112112E-02  1.94379200E-02  4.67642736E-19
 -2.65817876E-02 -6.09805607E-03  1.52758187E-02  3.63963334E-19 -3.57081981E-02
 -9.81987053E-03  1.20942675E-02  1.85983523E-21  1.71335306E-03 -1.70166855E-04
 -1.03691830E-03 -2.68958026E-03  1.00732100E-19  3.16115224E-20  1.31161870E-02
  2.07371791E-02 -6.02969168E-03 -3.97568553E-03 -6.02969168E-03 -3.97568553E-03
 -1.59773314E-03  8.10423914E-03  4.93288039E-02 -1.52899618E-02  4.08599568E-19
  5.19754316E-03  1.96338873E-02 -6.42776748E-03  2.25189275E-19  4.19442461E-02
  9.57146681E-03 -1.38855010E-03  2.61003050E-19  3.80882010E-03 -4.06111663E-03
 -7.25535767E-04  1.14467574E-03 -7.99825704E-20  5.64881416E-20 -5.16823134E-03
 -1.37412187E-03 -5.16823134E-03 -1.37412187E-03 -2.35206950E-03  4.10686594E-03
  1.09311205E-02  1.74760956E-01 -5.69903602E-18  1.53508965E-02  5.74935480E-03
  8.33706939E-02 -5.73557921E-21  2.39679607E-20  1.54964857E-18  4.35046722E-19
 -2.02014080E-02 -1.15733359E-20  1.12189262E-18  3.34376465E-19 -1.46376751E-02
 -1.19700483E-19  2.35861700E-19  7.60371600E-20 -2.52197526E-03  5.49547771E-21
  2.66100075E-20  8.63958497E-21  7.95548007E-20 -1.41328660E-04 -6.13990067E-04
 -1.63888402E-19 -1.85302454E-19  8.68720773E-03  1.95894559E-03 -8.68720773E-03
 -1.95894559E-03  8.94934545E-20 -2.66868649E-19 -8.14625113E-19  3.77034505E-19
 -2.38914994E-03 -2.70538534E-19 -2.87573354E-19  2.25189275E-19 -3.20482686E-03
  1.29019032E-19  3.84451074E-19  2.71237818E-19 -7.01075922E-03 -7.41303057E-19
  4.60570336E-20  1.06455435E-19 -6.90064046E-20  6.07562880E-03 -9.11254312E-04
  1.07079676E-02  2.34570466E-02 -1.07079676E-02 -2.34570466E-02  6.85543207E-21
 -7.28483350E-22 -1.31604188E-17 -5.74159875E-18  2.08062192E-01  3.47362726E-20
 -6.85788439E-18 -2.95479631E-18  1.07895095E-01 -4.20533311E-02  2.13668840E-02
 -6.55618759E-02  1.40099328E-01 -4.54926901E-19  4.15047226E-02 -3.57970482E-02
  5.83639861E-02 -2.48391919E-19  1.48343387E-01  4.99157551E-03 -3.01182124E-02
  3.46360129E-20  7.34373057E-03 -6.24428991E-03  2.18747934E-03 -1.32042339E-03
 -1.16427882E-19 -7.92696304E-20  7.78351410E-02  4.61346191E-02  2.14055397E-02
  1.15604383E-02  2.14055397E-02  1.15604383E-02  5.22137951E-02 -7.93234519E-02
 -1.63976243E-02 -9.85265986E-02 -1.13781375E-19 -9.91834428E-02 -1.85936021E-02
 -4.19442461E-02 -1.29019032E-19 -2.30132780E-01 -3.43077043E-02 -3.98838364E-02
 -2.38057520E-19  3.46553964E-03  7.50602012E-04  6.55833005E-04 -5.29569438E-03
 -2.47805024E-20 -5.77653014E-20 -5.80675764E-03  8.42781665E-03 -5.80675764E-03
  8.42781665E-03 -7.49289637E-02  1.40070926E-01  3.54528708E-02 -1.19591682E-01
  2.46003709E-19  1.65528108E-01  1.17211781E-02 -6.02964000E-02  8.13320111E-20
  2.89088991E-01  5.65030184E-03  8.48892581E-06  1.51681358E-02 -2.83830932E-02
  1.66852526E-19 -3.72278241E-03  8.98055392E-03 -1.24175760E-02  1.34541274E-19
 -1.97328362E-02  2.17150784E-03  3.04120928E-03 -3.57108503E-21 -1.70087142E-03
  1.11704422E-03 -3.61480944E-05  1.42816578E-03 -2.98150974E-20 -1.35821592E-20
 -1.75637098E-02 -1.45068874E-02 -1.01204353E-03  5.88732177E-04 -1.01204353E-03
  5.88732177E-04 -6.63872818E-03  1.29234291E-02 -3.21328968E-02  2.31070755E-02
  6.99640284E-19  1.61370344E-02 -1.47023533E-02  9.57146681E-03  3.84451074E-19
  3.43077043E-02  1.50322501E-03  6.88527104E-03  2.21799063E-19 -1.33636491E-03
  8.04713530E-05  1.10547233E-03  1.89798814E-03 -2.42690850E-19 -5.28363966E-20
  1.07708576E-02  6.06540661E-03  1.07708576E-02  6.06540661E-03  1.17729127E-02
 -2.32810155E-02  2.66563750E-02  7.01234096E-03 -2.84754905E-18 -2.60520148E-02
  1.47321049E-02  2.71204965E-03 -1.48666373E-18 -2.78284664E-02  7.13971527E-03
  1.30116865E-02 -1.98064908E-02 -1.24690722E-02  2.00681849E-03 -6.18805927E-20
 -2.66506548E-02 -6.09547522E-03  3.50609639E-03 -1.34053905E-20 -3.65519129E-02
 -6.55331239E-03  1.02119616E-02 -5.29283184E-20  7.92766064E-04  2.74064202E-04
 -1.06737548E-03 -1.59664124E-03  8.42403397E-20  1.32695665E-20  3.53732487E-03
  1.11723976E-02 -1.13964171E-02 -5.32049835E-03 -1.13964171E-02 -5.32049835E-03
 -5.45650620E-03  6.43047111E-04  2.47641339E-02 -5.72607315E-03  5.40878516E-19
  9.63167380E-04  1.10464523E-02 -1.38855010E-03  2.71237818E-19  3.98838364E-02
  6.88527104E-03  5.30693056E-03  1.32323503E-19  1.81166078E-03 -2.02591700E-03
 -3.13380954E-04  4.46885429E-04 -1.77388607E-20  9.13901588E-22 -4.40124975E-03
 -1.64513029E-03 -4.40124975E-03 -1.64513029E-03  1.06169929E-04 -7.26291127E-03
 -3.42496946E-04  8.02309225E-02 -1.21538247E-18 -5.41309992E-03 -3.76805692E-04
  4.18461824E-02 -6.38169910E-19 -6.38833430E-02  2.44270780E-03  3.07550416E-02
  3.92068450E-20  5.89037556E-23  1.66852526E-19 -1.72306296E-19 -8.87784727E-04
 -2.58319922E-20  1.34541274E-19 -5.72737771E-20 -1.04088871E-03 -1.36924057E-19
 -3.57108503E-21  1.36470495E-20  2.68615543E-04 -4.48556530E-20 -9.32736723E-21
  3.05452087E-21 -2.23740589E-20  2.75021346E-04  3.55252210E-04 -1.21872719E-19
 -1.00661752E-19 -6.19163124E-04 -2.39229158E-03  6.19163124E-04  2.39229158E-03
 -4.60654305E-20  8.96743033E-20  6.99640284E-19  5.29380363E-19 -1.32961688E-02
  1.11973170E-19  3.84451074E-19  2.61003050E-19 -7.01075922E-03  2.38057520E-19
  2.21799063E-19  1.32323503E-19 -3.04613887E-03 -2.57664884E-19 -2.06257314E-20
  3.25099542E-20 -7.47703686E-20  2.06674412E-03  4.40655739E-04  9.33686859E-03
  1.12324807E-02 -9.33686859E-03 -1.12324807E-02  8.16909921E-20 -1.61544496E-19
 -2.84754905E-18 -1.16434803E-18  4.37031442E-02 -1.80772166E-19 -1.48666373E-18
 -6.16736671E-19  2.28982927E-02 -1.93098776E-19 -3.49937986E-19 -1.42842195E-19
  5.75710939E-03  7.00558989E-04 -1.69889512E-03 -8.05414111E-04  3.40156649E-03
  3.00498787E-20 -2.76251912E-03 -3.86022753E-04  2.55281113E-03  3.88376000E-20
  1.81600904E-04 -6.25726589E-04  5.59711499E-04 -4.47984560E-20  9.18217118E-05
  1.16400288E-04 -4.01678744E-05 -1.58523609E-04 -1.88559818E-20 -3.80581340E-20
  1.00269947E-03  1.46658081E-03 -1.71072297E-04  3.84071495E-06 -1.71072297E-04
  3.84071495E-06 -4.72288407E-03  7.68904238E-03  2.85661703E-03 -7.63269246E-03
  1.38965985E-18  8.76713044E-03  1.60005179E-03 -3.80882010E-03  7.41303057E-19
  3.46553964E-03  1.33636491E-03 -1.81166078E-03  2.57664884E-19  1.51282873E-04
 -5.13834951E-04  2.08573824E-04  1.22356818E-04 -1.74871776E-19 -5.29904974E-20
  3.52414377E-03  1.04568600E-03  3.52414377E-03  1.04568600E-03 -1.37568563E-02
 -3.59330854E-03 -8.11752020E-03  8.53336695E-03 -2.80698295E-18 -2.82638751E-03
 -3.37140180E-03  3.36222982E-03 -1.46246688E-18 -3.86641571E-03  7.63617353E-05
  1.38367124E-03 -3.59841270E-19  7.23843967E-04 -1.79906675E-03  3.35707331E-03
  3.05306590E-03 -7.50413949E-03  4.75241459E-21  4.79828188E-03  1.47126924E-03
 -4.35685507E-03  1.97943169E-20 -7.09584357E-04  7.78547474E-04 -6.07764347E-04
  1.08125170E-20 -3.57341060E-04  1.20068102E-04  2.83079288E-05  2.38785372E-04
 -8.94107282E-21  1.98095116E-21 -2.74696738E-03 -3.21998668E-03  4.63539170E-04
 -2.00179745E-04  4.63539170E-04 -2.00179745E-04  8.67292248E-04 -2.18000812E-03
 -2.05974623E-03  9.04413965E-03 -9.10906702E-20 -2.31967270E-03 -3.24162987E-04
  4.06111663E-03 -4.60570336E-20  7.50602012E-04 -8.04713530E-05  2.02591700E-03
  2.06257314E-20 -5.13834951E-04  7.06695512E-04 -2.26892333E-04 -1.09463842E-04
 -4.79957008E-21  8.93485995E-21 -2.41134439E-03 -1.62554371E-03 -2.41134439E-03
 -1.62554371E-03 -1.29052219E-02 -4.94907523E-03 -1.34868973E-03 -1.55008437E-02
 -7.55485488E-19 -5.69394715E-03 -9.72888917E-04 -6.86255856E-03 -3.97525626E-19
 -3.19593873E-03  3.30985666E-04 -1.91926004E-03 -9.63257102E-20 -3.33576872E-04
  1.12688308E-03  5.29887426E-04 -1.17842591E-03 -9.78738083E-04  2.16687355E-03
 -1.03552159E-20 -2.14607600E-03 -1.35752314E-04  1.05479878E-03 -5.09358800E-21
 -1.85874242E-03  2.25391494E-05  4.92511592E-04  4.20205732E-21  1.39010624E-04
 -1.70042187E-04  5.38087388E-05  1.41820967E-04 -9.16532780E-22  3.08409511E-21
  3.78398851E-04  3.33396626E-04  2.99815642E-05  5.77657911E-04  2.99815642E-05
  5.77657911E-04  2.40500048E-03 -5.43108540E-03 -8.19094223E-03  1.33299713E-03
 -1.93819888E-19 -5.99828855E-03 -4.81854727E-03  7.25535767E-04 -1.06455435E-19
  6.55833005E-04 -1.10547233E-03  3.13380954E-04 -3.25099542E-20  2.08573824E-04
 -2.26892333E-04  3.41384344E-04  4.01989544E-04 -9.74449911E-21 -3.43630742E-21
  9.90690693E-04  2.33344563E-03  9.90690693E-04  2.33344563E-03 -1.58839906E-02
  7.37111156E-04  1.66210256E-02  1.10230107E-02  3.90397168E-19  3.66108087E-03
  7.94854834E-03  5.51102930E-03  1.99061441E-19  1.25394320E-03  9.30110206E-04
  2.03364507E-03  4.24910497E-20 -3.68520523E-06 -4.92686705E-04  1.19742060E-03
  8.60700021E-04 -1.68698644E-03 -5.74890448E-04  5.81661571E-03 -1.94769807E-20
 -1.42281010E-03 -2.26262600E-05  2.30550659E-03  2.32659883E-20  1.98499989E-03
  3.77618114E-04 -3.21460005E-04  1.08623493E-21  1.96061354E-04 -3.14725857E-04
  2.07737109E-04  2.27977034E-04 -2.58404424E-20 -1.21311360E-20  6.46353778E-04
  2.16671113E-04  8.73300980E-04  1.31989145E-03  8.73300980E-04  1.31989145E-03
  3.53606292E-03 -6.94744551E-03 -9.01120042E-03 -2.83095963E-03  1.42973979E-19
 -8.13061197E-03 -5.24510111E-03 -1.14467574E-03  6.90064046E-20 -5.29569438E-03
 -1.89798814E-03 -4.46885429E-04  7.47703686E-20  1.22356818E-04 -1.09463842E-04
  4.01989544E-04  2.48834486E-04 -9.52587371E-20 -1.85500184E-20  1.32647641E-03
  2.68341443E-03  1.32647641E-03  2.68341443E-03 -1.11410816E-03  2.04676670E-03
  1.22861890E-02  1.38309851E-03 -1.62692598E-18  3.33064374E-03  5.90625720E-03
  1.31956105E-03 -8.55391716E-19  5.87201530E-03  7.33528008E-05  4.24768228E-04
 -2.25064312E-19 -2.78656681E-04 -2.60320271E-04  6.91375354E-04  8.35073714E-04
 -3.68432862E-20  8.08074108E-20  9.25425451E-20 -1.38132478E-19 -2.96530449E-04
  1.49816748E-19  3.17533683E-20 -5.44723609E-20 -3.45435062E-04  1.50383895E-19
 -3.01770834E-20 -4.43201770E-20  3.36618954E-04 -3.32123804E-20 -7.41199297E-22
 -2.35217264E-21 -3.99821480E-20  1.89791118E-04  3.18221554E-04 -2.22846461E-20
 -1.49621356E-20 -6.37319012E-04 -1.80790987E-03  6.37319012E-04  1.80790987E-03
 -2.30538298E-19  4.96764531E-19  1.47005110E-18  1.48390471E-19 -1.13977299E-02
  5.50848814E-19  8.20480211E-19  7.99825704E-20 -6.07562880E-03 -2.47805024E-20
  2.42690850E-19  1.77388607E-20 -2.06674412E-03 -1.74871776E-19 -4.79957008E-21
 -9.74449911E-21 -9.52587371E-20  1.32605592E-03  3.92351718E-04  7.20866571E-03
  7.66494772E-03 -7.20866571E-03 -7.66494772E-03  1.16245538E-18 -8.78507114E-20
 -2.98486639E-18 -1.45006619E-18  2.28868203E-02 -3.15984403E-19 -1.49472714E-18
 -7.46963002E-19  1.19737993E-02 -1.31449304E-19 -2.81972170E-19 -2.35080348E-19
  2.99846597E-03 -1.93752326E-19 -7.94593937E-21 -7.59862625E-20 -1.68370386E-19
  1.66282818E-03 -1.10102564E-20  2.60619976E-20  3.66059289E-21 -3.85733704E-20
  3.41816008E-04  5.89076730E-20  1.80290165E-20 -1.22738831E-20 -1.99386829E-04
  7.33452421E-20  9.70692205E-21 -1.48916528E-20 -1.12540066E-04 -1.26192660E-20
  4.49719332E-21  6.69380233E-22 -3.38573376E-21  7.92486380E-05 -2.56124848E-05
 -7.64246757E-21 -9.18169667E-21 -2.50121515E-04 -4.37605466E-04  2.50121515E-04
  4.37605466E-04 -5.25424043E-20  1.25855322E-19  8.91380290E-20 -1.06704982E-19
  1.59749974E-03  1.35823964E-19  5.48052733E-20 -5.64881416E-20  9.11254312E-04
 -5.77653014E-20  5.28363966E-20 -9.13901588E-22 -4.40655739E-04 -5.29904974E-20
  8.93485995E-21 -3.43630742E-21 -1.85500184E-20  3.92351718E-04 -5.03943168E-05
  4.81611355E-05  1.53054039E-03 -4.81611355E-05 -1.53054039E-03  5.01341343E-19
 -9.42165716E-21 -1.52438264E-18 -7.74460129E-19  1.55203651E-02 -9.42243815E-20
 -7.77798056E-19 -3.93082734E-19  8.12859981E-03  5.57191436E-22 -1.71649617E-19
 -1.19169298E-19  2.05146746E-03 -1.13687868E-19 -3.02707792E-20 -2.23919646E-20
 -1.06075713E-19  9.30833720E-04  9.20553421E-04  4.37443675E-03 -8.55225850E-03
 -7.06787181E-03  1.21096703E-02  7.30838198E-03 -1.95147555E-02 -2.30250689E-03
  7.88100580E-03  7.83704000E-03 -1.90404719E-02 -8.84486094E-04  5.18034478E-03
  9.13658241E-04  1.03052617E-03 -7.57822706E-04 -1.35403291E-05  3.46392495E-04
 -7.06358501E-04 -3.12276542E-04  3.31080998E-03  4.55942055E-03 -2.27470346E-03
  8.01024393E-03 -2.17661817E-04 -2.47780867E-03  7.56601062E-03 -1.89958337E-02
 -2.86394378E-02  2.50143905E-03  1.70648406E-02 -3.04910721E-02 -2.60091976E-02
  5.16823134E-03  1.07079676E-02 -5.80675764E-03 -1.07708576E-02  4.40124975E-03
  9.33686859E-03  3.52414377E-03 -2.41134439E-03  9.90690693E-04  1.32647641E-03
 -7.20866571E-03 -4.81611355E-05 -1.34775154E-02 -2.04519229E-02  2.55558468E-02
  4.40822204E-02 -5.19335588E-02  9.64108479E-02  1.24959767E-01  8.42340357E-02
 -2.13555296E-01  1.09120743E-01  6.13197335E-02  4.36399545E-02 -1.10754198E-01
  3.77849780E-02  1.74731963E-03  1.52846734E-02 -2.45415940E-02 -1.65571030E-03
 -5.54405824E-03  8.43883563E-03  5.49745056E-03 -1.28478766E-02 -8.70450451E-03
  2.08123299E-01  2.84559983E-03 -6.10281188E-03  4.34342694E-04  1.28375797E-02
 -3.02113185E-03 -1.23893059E-02  2.53988592E-03  6.94342918E-03  1.03511642E-03
 -1.21960813E-02  6.19511359E-04  3.42410597E-03 -1.20603311E-03  4.64340486E-04
 -7.90904858E-04  5.58293124E-04  1.20281132E-03 -1.33622495E-03 -1.42451437E-03
 -1.41874399E-03 -1.29140049E-03  8.00370380E-03  1.63122945E-02 -2.88935163E-03
 -6.14975982E-03  1.00560674E-02 -2.16467428E-02 -5.18952376E-02  2.58598001E-03
  4.35168368E-02 -2.48119550E-02 -3.02630230E-02  1.37412187E-03  2.34570466E-02
  8.42781665E-03 -6.06540661E-03  1.64513029E-03  1.12324807E-02  1.04568600E-03
 -1.62554371E-03  2.33344563E-03  2.68341443E-03 -7.66494772E-03 -1.53054039E-03
 -2.04519229E-02 -2.46529145E-02  4.40822204E-02  5.68812220E-02  5.55913979E-04
  1.06727214E-02  9.39614139E-02  6.24559170E-02 -1.72589444E-01  1.86874802E-02
  4.62851741E-02  3.18100624E-02 -8.99921647E-02  1.17926133E-03  5.99432845E-03
  1.31144870E-02 -2.19408604E-02 -5.85549201E-04 -3.43801182E-03  6.03153676E-03
  4.10014386E-03 -1.14881314E-02 -7.76267902E-03  1.44883371E-01  1.19598613E-01
  4.37443675E-03 -8.55225850E-03 -7.06787181E-03  1.21096703E-02 -7.30838198E-03
 -1.95147555E-02 -2.30250689E-03  7.88100580E-03 -7.83704000E-03 -1.90404719E-02
 -8.84486094E-04  5.18034478E-03 -9.13658241E-04  1.03052617E-03 -7.57822706E-04
 -1.35403291E-05  3.46392495E-04  7.06358501E-04  3.12276542E-04  3.31080998E-03
  4.55942055E-03 -2.17661817E-04 -2.47780867E-03 -2.27470346E-03  8.01024393E-03
  7.56601062E-03 -1.89958337E-02 -2.86394378E-02  2.50143905E-03 -1.70648406E-02
 -3.04910721E-02 -2.60091976E-02  5.16823134E-03 -1.07079676E-02 -5.80675764E-03
 -1.07708576E-02  4.40124975E-03 -9.33686859E-03  3.52414377E-03 -2.41134439E-03
  9.90690693E-04  1.32647641E-03  7.20866571E-03  4.81611355E-05  2.55558468E-02
  4.40822204E-02 -1.34775154E-02 -2.04519229E-02 -5.19335588E-02  9.64108479E-02
  1.24959767E-01  8.42340357E-02  2.13555296E-01  1.09120743E-01  6.13197335E-02
  4.36399545E-02  1.10754198E-01  3.77849780E-02  1.74731963E-03  1.52846734E-02
  2.45415940E-02 -1.65571030E-03 -5.54405824E-03  8.43883563E-03  5.49745056E-03
  1.28478766E-02  8.70450451E-03 -2.21296798E-02 -4.69075393E-02  2.08123299E-01
  2.84559983E-03 -6.10281188E-03  4.34342694E-04  1.28375797E-02  3.02113185E-03
 -1.23893059E-02  2.53988592E-03  6.94342918E-03 -1.03511642E-03 -1.21960813E-02
  6.19511359E-04  3.42410597E-03  1.20603311E-03  4.64340486E-04 -7.90904858E-04
  5.58293124E-04  1.20281132E-03  1.33622495E-03  1.42451437E-03 -1.41874399E-03
 -1.29140049E-03 -2.88935163E-03 -6.14975982E-03  8.00370380E-03  1.63122945E-02
  1.00560674E-02 -2.16467428E-02 -5.18952376E-02  2.58598001E-03 -4.35168368E-02
 -2.48119550E-02 -3.02630230E-02  1.37412187E-03 -2.34570466E-02  8.42781665E-03
 -6.06540661E-03  1.64513029E-03 -1.12324807E-02  1.04568600E-03 -1.62554371E-03
  2.33344563E-03  2.68341443E-03  7.66494772E-03  1.53054039E-03  4.40822204E-02
  5.68812220E-02 -2.04519229E-02 -2.46529145E-02  5.55913979E-04  1.06727214E-02
  9.39614139E-02  6.24559170E-02  1.72589444E-01  1.86874802E-02  4.62851741E-02
  3.18100624E-02  8.99921647E-02  1.17926133E-03  5.99432845E-03  1.31144870E-02
  2.19408604E-02 -5.85549201E-04 -3.43801182E-03  6.03153676E-03  4.10014386E-03
  1.14881314E-02  7.76267902E-03 -4.69075393E-02 -4.89982419E-02  1.44883371E-01
  1.19598613E-01  2.32073898E-03 -5.92050650E-03 -2.55677741E-03  1.05460395E-02
 -1.77412072E-20 -5.81132241E-03 -1.29812089E-05  5.46100644E-03 -9.00752314E-23
  3.38969800E-02  1.97682023E-03 -6.85916115E-03  1.37169458E-20  2.59203889E-04
 -5.64596541E-05 -2.17512900E-04 -5.04106832E-04  1.95047138E-20  3.47320935E-21
  2.85434012E-03  4.65493306E-03 -5.61889724E-04 -3.04986094E-04 -5.61889724E-04
 -3.04986094E-04 -3.15598116E-03  5.79752953E-03  3.97812978E-03 -1.13885153E-02
  2.76038205E-20  8.16049545E-03  8.26584077E-04 -8.65037202E-03  5.73557921E-21
 -4.20533311E-02 -5.65030184E-03 -1.30116865E-02 -3.92068450E-20  7.00558989E-04
 -1.79906675E-03  5.29887426E-04  8.60700021E-04 -3.68432862E-20 -1.10102564E-20
  4.37443675E-03  2.84559983E-03  4.37443675E-03  2.84559983E-03  1.05074139E-02
 -1.94838298E-02  2.29359302E-03  6.43343628E-02  1.59149986E-20  7.31948982E-03
  1.99201200E-03  1.44682180E-02  1.38223600E-20  9.65487916E-02 -4.59617541E-03
 -2.28337385E-02 -3.18923735E-20  2.19648749E-03 -6.12149858E-03  2.41209268E-03
  2.76108478E-04 -1.75666161E-19 -7.53901830E-20  7.95974359E-03  9.40196933E-03
  7.95974359E-03  9.40196933E-03  2.05297603E+00 -5.92050650E-03  1.12634327E-02
  5.18959127E-03 -2.28362966E-02  3.60100232E-20  2.04160238E-02  1.63427072E-03
 -1.54293016E-02  1.13400311E-20 -3.28998164E-02 -9.58431537E-05  4.98400344E-03
 -6.65045475E-22 -1.03895284E-03  1.97995541E-04  7.25104836E-05  9.80564596E-04
 -1.41342379E-20  4.48011779E-21 -6.30808717E-03 -1.00477842E-02  7.94100436E-04
 -6.43214269E-04  7.94100436E-04 -6.43214269E-04  5.69370627E-03 -1.15320919E-02
 -1.05470703E-02  2.51014856E-02 -7.31850020E-20 -1.77141450E-02 -3.45414717E-03
  1.27953426E-02 -2.39679607E-20  2.13668840E-02 -8.48892581E-06  1.98064908E-02
 -5.89037556E-23 -1.69889512E-03  3.35707331E-03 -1.17842591E-03 -1.68698644E-03
  8.08074108E-20  2.60619976E-20 -8.55225850E-03 -6.10281188E-03 -8.55225850E-03
 -6.10281188E-03 -1.95235435E-02  3.23140145E-02 -5.29058813E-03 -1.29818646E-01
 -3.67108297E-20  2.52341686E-03 -3.75098344E-03 -4.13575126E-02 -2.60276761E-20
 -9.86526719E-02 -7.72074566E-04  2.38610372E-02 -5.35734350E-21 -5.01126945E-03
  1.06173518E-02 -5.35690618E-03 -7.17842272E-04  3.89061762E-19  1.66704480E-19
 -1.91275948E-02 -2.09035497E-02 -1.91275948E-02 -2.09035497E-02 -5.75049077E-02
  2.82543888E-01  2.55677741E-03 -5.18959127E-03  2.06885111E-03  1.32524239E-02
 -3.57019645E-19 -1.56556370E-02  9.29406855E-04  1.38594516E-02 -2.13020124E-19
 -1.39690780E-03 -9.55563742E-04  3.48147915E-03 -8.94196381E-20 -5.19536734E-05
  3.55629175E-04  4.44879781E-05 -4.46624103E-04 -1.47276133E-20 -7.28598335E-20
  1.12699283E-03  4.25836494E-03  8.05712573E-04  4.96075663E-04  8.05712573E-04
  4.96075663E-04 -1.01965840E-02  1.93071326E-02  1.37355382E-02 -1.91531753E-02
  1.51570595E-18  6.40575717E-02  2.13138152E-02 -1.34112112E-02  1.54964857E-18
  6.55618759E-02  1.51681358E-02 -1.24690722E-02  1.66852526E-19  8.05414111E-04
 -3.05306590E-03  9.78738083E-04  5.74890448E-04 -9.25425451E-20 -3.66059289E-21
  7.06787181E-03 -4.34342694E-04  7.06787181E-03 -4.34342694E-04  8.58859615E-04
  3.43021619E-04  5.14943096E-03 -2.96695821E-03 -9.66606589E-20 -1.00205258E-02
 -7.15279523E-04 -9.75487638E-03  2.88731142E-19 -5.02247410E-02  5.68186809E-03
 -7.40873669E-03  9.95796848E-19  2.66219519E-03 -3.36326460E-06 -1.98041487E-03
 -1.03713300E-02  3.47856981E-19  7.67657389E-19 -1.00442916E-02 -1.78049687E-02
 -1.00442916E-02 -1.78049687E-02 -1.89995646E-06  6.94890286E-04  4.00290148E-01
 -1.05460395E-02  2.28362966E-02  1.32524239E-02 -3.68263786E-02 -5.65929102E-20
  4.59734258E-02  2.59003463E-03 -2.90473325E-02 -6.98156964E-20  8.26265116E-02
  1.78741247E-02 -2.68127051E-02  9.09110215E-20 -2.22001143E-03  3.44958852E-05
  1.06557868E-03  3.15842731E-03 -1.07464057E-19 -3.95691198E-20 -1.52500183E-02
 -2.84134633E-02  5.67774075E-03  2.73578359E-03  5.67774075E-03  2.73578359E-03
  8.62648461E-03 -1.92384863E-02 -3.06988148E-02  2.96461352E-02  3.55142783E-19
 -3.03040199E-02 -1.81087918E-02  1.94379200E-02  4.35046722E-19 -1.40099328E-01
 -2.83830932E-02  2.00681849E-03 -1.72306296E-19 -3.40156649E-03  7.50413949E-03
 -2.16687355E-03 -5.81661571E-03  1.38132478E-19  3.85733704E-20 -1.21096703E-02
 -1.28375797E-02 -1.21096703E-02 -1.28375797E-02 -6.28916660E-02  1.27649020E-01
 -3.18328962E-03 -3.11778667E-01 -7.50453146E-20  1.21009955E-01 -3.62142786E-03
 -1.52533370E-01  9.23490527E-20  2.34587266E-01 -1.73149513E-02 -9.71689659E-02
  2.62401777E-19 -7.95259859E-03  8.58374216E-03 -7.78847778E-03 -4.93550570E-04
  6.27460271E-19  5.56651927E-19 -2.66041089E-02 -4.82493986E-02 -2.66041089E-02
 -4.82493986E-02  2.39299695E-03  2.73369875E-03 -1.48023261E-03  3.80136986E-01
  1.77412072E-20 -3.60100232E-20 -3.57019645E-19 -5.65929102E-20  5.35208044E-03
 -1.08632804E-19 -2.13020124E-19  8.38159211E-21  3.16288421E-03 -9.69299504E-21
 -8.94196381E-20 -8.95801862E-21  1.19311642E-03 -1.89745263E-20 -4.48761650E-20
  2.17009989E-21 -7.57327465E-20  1.54877891E-04  9.84810334E-04  7.82008370E-21
  2.95483425E-20 -3.67035643E-03 -4.68838254E-03  3.67035643E-03  4.68838254E-03
 -7.07530149E-20  1.33970145E-19  1.51570595E-18  4.35256751E-19 -2.04700710E-02
  4.44488694E-19  1.54964857E-18  4.67642736E-19 -2.02014080E-02  4.54926901E-19
  1.66852526E-19 -6.18805927E-20 -8.87784727E-04 -3.00498787E-20 -4.75241459E-21
  1.03552159E-20  1.94769807E-20  2.96530449E-04 -3.41816008E-04  7.30838198E-03
 -3.02113185E-03 -7.30838198E-03  3.02113185E-03  5.95953575E-21  2.38019062E-21
 -9.66606589E-20 -7.35442138E-20  1.90797000E-03 -6.95313652E-20  2.88731142E-19
  4.97897042E-20 -4.23258224E-03 -3.48504149E-19  9.95796848E-19  3.31139949E-19
 -1.37827582E-02  3.09195501E-19  5.37710461E-19 -4.28141697E-20  7.71325881E-19
 -2.41895748E-03 -1.11855275E-02  1.68443798E-02  4.08894776E-02 -1.68443798E-02
 -4.08894776E-02 -1.31835963E-23  4.82176997E-21 -2.50507327E-17 -1.11415926E-17
  4.01048121E-01 -5.81132241E-03  2.04160238E-02  1.56556370E-02 -4.59734258E-02
  1.08632804E-19  3.03748928E-02  7.07069544E-03 -2.75024466E-02  4.90628055E-20
 -4.65412606E-02  1.12461240E-04  6.35818461E-03  7.80356615E-22 -2.03682969E-03
  5.59777636E-04 -4.73802936E-05  1.18023897E-03 -1.25235089E-20  9.70806190E-21
 -1.46336437E-02 -1.72538846E-02  1.52558856E-03 -2.08601476E-03  1.52558856E-03
 -2.08601476E-03  1.03778899E-02 -1.85775555E-02 -4.63653953E-03  5.65210090E-02
 -3.21724559E-20 -2.44672532E-02  1.66789347E-03  2.65817876E-02  1.15733359E-20
  4.15047226E-02  3.72278241E-03  2.66506548E-02  2.58319922E-20 -2.76251912E-03
  4.79828188E-03 -2.14607600E-03 -1.42281010E-03  1.49816748E-19  5.89076730E-20
 -1.95147555E-02 -1.23893059E-02 -1.95147555E-02 -1.23893059E-02  7.12170526E-03
  3.88071894E-03 -9.28008820E-03 -1.28642081E-01 -6.43935475E-20 -2.93626408E-02
 -6.71308649E-03 -3.97254933E-02 -4.65813949E-20 -1.33204182E-01  2.50005915E-03
  2.87341905E-02  1.73476452E-20 -5.38602080E-03  1.20023546E-02 -5.94438153E-03
 -1.42138012E-03  4.33129674E-19  1.80650925E-19 -3.09386770E-02 -2.39998745E-02
 -3.09386770E-02 -2.39998745E-02 -1.90267201E-01  2.88191679E-01 -3.91600568E-03
 -1.63949702E-02 -2.71727479E-20  3.08840020E-01  1.29812089E-05 -1.63427072E-03
  9.29406855E-04  2.59003463E-03 -2.13020124E-19 -7.07069544E-03  1.45372584E-04
  5.40456050E-03 -1.57324530E-19 -1.75518233E-03 -8.50261596E-04  1.92645732E-03
 -7.89184763E-20 -1.29623797E-04  4.24722674E-04 -1.57347393E-04 -4.60746830E-04
  2.07796752E-21 -5.03662560E-20  4.75421758E-04  2.41753441E-03 -4.84502499E-04
 -9.13238384E-04 -4.84502499E-04 -9.13238384E-04 -8.83870923E-03  1.53353695E-02
  1.53267991E-02 -8.20130980E-03  1.43152756E-18  3.85020140E-02  1.53050145E-02
 -6.09805607E-03  1.12189262E-18  3.57970482E-02  8.98055392E-03 -6.09547522E-03
  1.34541274E-19  3.86022753E-04 -1.47126924E-03  1.35752314E-04  2.26262600E-05
 -3.17533683E-20 -1.80290165E-20  2.30250689E-03 -2.53988592E-03  2.30250689E-03
 -2.53988592E-03  3.83245926E-04  2.72406085E-04 -7.88824491E-03 -1.95422095E-03
  6.06277609E-19 -5.63746473E-03 -5.39137477E-03 -5.74490581E-03  4.81416684E-19
 -2.77005696E-02  2.51650320E-03 -4.32567959E-03  5.61085250E-19  1.57252075E-03
  1.05429808E-04 -1.52224377E-03 -5.82786234E-03  2.43825582E-19  4.32134019E-19
 -8.85980284E-03 -1.21217248E-02 -8.85980284E-03 -1.21217248E-02  1.24353875E-03
 -8.58790152E-04  2.07665150E-01  8.16939267E-04 -1.26960701E-17 -2.93724187E-03
  1.08115489E-01 -5.46100644E-03  1.54293016E-02  1.38594516E-02 -2.90473325E-02
  8.38159211E-21  2.75024466E-02  5.40456050E-03 -2.00662386E-02 -2.58316300E-20
  3.62432356E-02  9.66116860E-03 -1.30690400E-02  3.78303834E-20 -1.73798241E-03
  2.12949736E-04  6.30478331E-04  1.99314278E-03 -6.82376728E-20 -2.72610596E-20
 -1.34275666E-02 -1.95111154E-02  4.10782577E-03  1.62630444E-03  4.10782577E-03
  1.62630444E-03  6.07876934E-03 -1.23678750E-02 -2.16407576E-02  2.91172998E-02
  3.79907689E-19 -1.63046804E-02 -1.03619733E-02  1.52758187E-02  3.34376465E-19
 -5.83639861E-02 -1.24175760E-02  3.50609639E-03 -5.72737771E-20 -2.55281113E-03
  4.35685507E-03 -1.05479878E-03 -2.30550659E-03  5.44723609E-20  1.22738831E-20
 -7.88100580E-03 -6.94342918E-03 -7.88100580E-03 -6.94342918E-03 -1.28634246E-02
  3.87890733E-02 -9.79765602E-04 -1.55134434E-01  2.57606832E-19  3.41039006E-02
 -1.69105791E-03 -7.61340522E-02  1.95796673E-19  9.95174492E-02 -6.01930810E-03
 -4.73429836E-02  1.75682060E-19 -3.95705115E-03  4.90811220E-03 -4.10109858E-03
 -5.63348988E-04  3.40592326E-19  2.97043029E-19 -2.19174193E-02 -2.52604522E-02
 -2.19174193E-02 -2.52604522E-02 -1.39359453E-03  6.06039612E-04 -2.71491682E-03
  1.77805508E-01 -5.67365313E-18 -4.95747278E-03 -5.10405822E-04  8.54828304E-02
  9.00752314E-23 -1.13400311E-20 -2.13020124E-19 -6.98156964E-20  3.16288421E-03
 -4.90628055E-20 -1.57324530E-19 -2.58316300E-20  2.28182268E-03 -1.21790239E-20
 -7.89184763E-20 -1.58399576E-20  1.05230895E-03 -1.73377462E-20 -3.32264768E-20
  5.52013180E-22 -5.92054050E-20  1.36774785E-04  7.52455211E-04  3.29890114E-21
  1.67750148E-20 -2.44762026E-03 -3.19669820E-03  2.44762026E-03  3.19669820E-03
 -6.13308656E-20  1.06410502E-19  1.43152756E-18  4.73162591E-19 -1.90978064E-02
  2.67161390E-19  1.12189262E-18  3.63963334E-19 -1.46376751E-02  2.48391919E-19
  1.34541274E-19 -1.34053905E-20 -1.04088871E-03 -3.88376000E-20 -1.97943169E-20
  5.09358800E-21 -2.32659883E-20  3.45435062E-04  1.99386829E-04  7.83704000E-03
  1.03511642E-03 -7.83704000E-03 -1.03511642E-03  2.65930282E-21  1.89019693E-21
  6.06277609E-19  2.50845190E-19 -9.52620566E-03 -3.91177697E-20  4.81416684E-19
  1.67667453E-19 -7.47708308E-03 -1.92211313E-19  5.61085250E-19  1.87433969E-19
 -7.83444031E-03  2.00152981E-19  2.94339100E-19 -2.94868306E-20  4.27050488E-19
 -1.57458220E-03 -6.10739949E-03  1.37008234E-02  2.42669381E-02 -1.37008234E-02
 -2.42669381E-02  8.62878343E-21 -5.95905375E-21 -1.26960701E-17 -5.64914595E-18
  2.03736168E-01 -2.03812097E-20 -6.46331678E-18 -2.88894913E-18  1.03957760E-01
  3.38969800E-02 -3.28998164E-02  1.39690780E-03 -8.26265116E-02  9.69299504E-21
 -4.65412606E-02  1.75518233E-03 -3.62432356E-02  1.21790239E-20 -1.26694487E-01
 -1.04038032E-02  2.69800900E-02 -7.21908868E-20 -2.21741093E-03  3.08178845E-03
 -3.15129133E-03 -1.55747689E-03  2.34725658E-19  9.01897604E-20 -2.85566810E-02
 -6.35078129E-03 -3.20140667E-02 -1.73423645E-02 -3.20140667E-02 -1.73423645E-02
 -1.27094153E-02  7.60182737E-03  3.08396904E-02  7.25431135E-02  2.13993340E-19
  9.79032844E-03  1.72506576E-02  3.57081981E-02  1.19700483E-19  1.48343387E-01
  1.97328362E-02  3.65519129E-02  1.36924057E-19  1.81600904E-04 -7.09584357E-04
 -1.85874242E-03  1.98499989E-03  1.50383895E-19  7.33452421E-20 -1.90404719E-02
 -1.21960813E-02 -1.90404719E-02 -1.21960813E-02  2.99924987E-02 -6.23740786E-02
  1.01372017E-02  1.23487970E-01  7.03409668E-20 -7.09843402E-02  4.43911879E-03
  7.01030688E-02  3.08025743E-20 -2.12415511E-01  1.52627691E-02  6.96334108E-02
  1.05906735E-19  8.84468921E-04  1.38358913E-03  2.22655232E-03 -6.96479287E-04
 -1.71312373E-19 -7.61924129E-20  7.42203423E-03  1.78746168E-02  7.42203423E-03
  1.78746168E-02 -9.49881711E-02  1.19138263E-01 -1.97208336E-02 -2.12316677E-01
 -1.36840772E-19  1.44114037E-01 -1.08202020E-02 -9.63935036E-02 -7.50802337E-20
  2.02904179E-01 -1.97682023E-03  9.58431537E-05 -9.55563742E-04  1.78741247E-02
 -8.94196381E-20 -1.12461240E-04 -8.50261596E-04  9.66116860E-03 -7.89184763E-20
  1.04038032E-02 -9.64506230E-04 -8.68269209E-04 -2.92198062E-20  5.60927638E-04
 -3.86821548E-04  3.05472384E-04 -4.86654514E-04 -2.00037845E-20 -2.40555095E-20
  5.78494658E-03  5.20400252E-03  3.36568482E-03  1.62030301E-03  3.36568482E-03
  1.62030301E-03 -3.72880242E-03  4.63753998E-03  1.53162289E-02 -1.97277106E-02
  3.66086219E-19  8.74484872E-03  8.77150069E-03 -9.81987053E-03  2.35861700E-19
 -4.99157551E-03  2.17150784E-03 -6.55331239E-03 -3.57108503E-21  6.25726589E-04
 -7.78547474E-04 -2.25391494E-05 -3.77618114E-04  3.01770834E-20 -9.70692205E-21
  8.84486094E-04 -6.19511359E-04  8.84486094E-04 -6.19511359E-04 -2.04519899E-03
  3.88955471E-03 -1.89823068E-02  3.77424750E-03  1.01373513E-18  2.90205869E-03
 -9.34975256E-03  5.59973130E-04  5.54457184E-19  1.63797042E-03 -2.02590547E-03
 -7.22170468E-04  1.82944398E-19  8.46271597E-04 -4.68757370E-04 -7.64415947E-04
 -1.25141295E-03  1.43199375E-19  1.22659220E-19 -4.64020264E-03 -4.91050105E-03
 -4.64020264E-03 -4.91050105E-03  2.74414944E-03 -3.92163009E-03  3.56312445E-02
 -1.21997551E-03 -1.96867691E-18 -5.60910778E-03  1.88457233E-02 -1.52680577E-03
 -1.02799043E-18 -7.36894999E-03  4.87022102E-03  6.85916115E-03 -4.98400344E-03
  3.48147915E-03 -2.68127051E-02 -8.95801862E-21 -6.35818461E-03  1.92645732E-03
 -1.30690400E-02 -1.58399576E-20 -2.69800900E-02 -8.68269209E-04  4.77521634E-03
 -1.50357079E-20 -9.27581959E-04  8.38072811E-04 -6.52292001E-04  7.33224951E-05
  4.48227241E-20  1.70589438E-20 -1.01324641E-02 -5.74086664E-03 -7.01782586E-03
 -3.87034575E-03 -7.01782586E-03 -3.87034575E-03 -2.09353619E-03 -3.54280470E-04
  7.98306712E-05  2.48842820E-02  1.04477349E-19 -2.68080452E-04  8.70208574E-04
  1.20942675E-02  7.60371600E-20  3.01182124E-02  3.04120928E-03  1.02119616E-02
  1.36470495E-20 -5.59711499E-04  6.07764347E-04 -4.92511592E-04  3.21460005E-04
  4.43201770E-20  1.48916528E-20 -5.18034478E-03 -3.42410597E-03 -5.18034478E-03
 -3.42410597E-03  6.74821712E-03 -1.42159457E-02  4.54366473E-03  5.24498191E-03
  4.89708546E-19 -1.74677033E-02  1.96371552E-03  5.18458151E-03  2.61359664E-19
 -4.12444757E-02  3.52866028E-03  1.04396093E-02  1.03285776E-19 -4.37284408E-04
  1.31723997E-03 -6.67423284E-05 -2.04876219E-04  3.19123986E-20  4.34548700E-20
 -2.71359281E-03  7.21842280E-04 -2.71359281E-03  7.21842280E-04 -2.42531371E-02
  3.26696329E-02 -7.23528911E-03 -2.76260235E-02 -9.36572239E-19  3.86194878E-02
 -3.82499439E-03 -1.14448628E-02 -4.90044790E-19  3.84504594E-02 -2.49631577E-03
  8.55474048E-03 -1.37169458E-20  6.65045475E-22 -8.94196381E-20  9.09110215E-20
  1.19311642E-03 -7.80356615E-22 -7.89184763E-20  3.78303834E-20  1.05230895E-03
  7.21908868E-20 -2.92198062E-20 -1.50357079E-20  3.24651164E-04  3.85302090E-21
 -1.02278639E-20  2.12356011E-21 -1.42743616E-20  3.26133994E-07  1.56919326E-04
  4.01411305E-20  3.61100214E-20 -6.53768602E-04 -4.21562041E-04  6.53768602E-04
  4.21562041E-04 -2.58737644E-20  3.21793979E-20  3.66086219E-19 -3.29650784E-20
 -3.74423554E-03  6.06795775E-20  2.35861700E-19  1.85983523E-21 -2.52197526E-03
 -3.46360129E-20 -3.57108503E-21 -5.29283184E-20  2.68615543E-04  4.47984560E-20
 -1.08125170E-20 -4.20205732E-21 -1.08623493E-21 -3.36618954E-04  1.12540066E-04
  9.13658241E-04 -1.20603311E-03 -9.13658241E-04  1.20603311E-03 -1.41914188E-20
  2.69892075E-20  1.01373513E-18  4.84369641E-19 -1.65076936E-02  2.01370774E-20
  5.54457184E-19  2.51619244E-19 -8.92554540E-03  1.13657030E-20  1.82944398E-19
  7.37897121E-20 -2.83909718E-03  1.36072382E-19  7.07707499E-20 -1.83242205E-20
  1.28228611E-19 -1.08332996E-03 -1.53977834E-03  1.00870610E-02  1.01793937E-02
 -1.00870610E-02 -1.01793937E-02  1.90413618E-20 -2.72117751E-20 -1.96867691E-18
 -8.94832616E-19  3.19347488E-02 -3.89210038E-20 -1.02799043E-18 -4.74097903E-19
  1.66994757E-02 -5.11323622E-20 -1.91164528E-19 -1.07305060E-19  3.24199330E-03
  2.59203889E-04 -1.03895284E-03  5.19536734E-05  2.22001143E-03  1.89745263E-20
 -2.03682969E-03  1.29623797E-04  1.73798241E-03  1.73377462E-20 -2.21741093E-03
 -5.60927638E-04  9.27581959E-04 -3.85302090E-21  5.40296593E-05  1.60989221E-05
  3.67709259E-06 -9.51570258E-05 -3.45293554E-21 -1.13066353E-21  3.61648199E-04
  8.98311295E-04  5.54539011E-05  8.86308940E-05  5.54539011E-05  8.86308940E-05
 -9.71999706E-04  1.97302729E-03  1.53500480E-03 -2.78626912E-03  8.53934519E-20
  4.48694063E-03  1.65590239E-03 -1.71335306E-03 -5.49547771E-21  7.34373057E-03
  1.70087142E-03 -7.92766064E-04  4.48556530E-20  9.18217118E-05 -3.57341060E-04
  1.39010624E-04  1.96061354E-04 -3.32123804E-20 -1.26192660E-20  1.03052617E-03
  4.64340486E-04  1.03052617E-03  4.64340486E-04  2.22297670E-03 -5.00491361E-03
 -1.73227524E-03  7.41902839E-03 -4.40760280E-19 -5.73504456E-03 -8.72277047E-04
  3.37520151E-03 -2.61998451E-19 -1.04935075E-02  7.60492554E-04  2.57906683E-03
 -1.37039677E-19  3.87865963E-04 -1.40548777E-04 -8.34213049E-07 -5.11500020E-04
 -4.32983110E-20 -9.06656802E-20 -1.08093216E-03 -1.19469346E-04 -1.08093216E-03
 -1.19469346E-04 -1.63553978E-02  9.59513922E-04  1.76973757E-02 -1.12294949E-02
  2.64768823E-18  2.45180533E-03  9.16856876E-03 -5.22428349E-03  1.35333167E-18
  6.07916275E-03  1.68195000E-03  7.11920315E-04  2.29959807E-19  1.26431453E-03
 -5.64596541E-05  1.97995541E-04 -3.55629175E-04 -3.44958852E-05  4.48761650E-20
  5.59777636E-04 -4.24722674E-04 -2.12949736E-04  3.32264768E-20  3.08178845E-03
  3.86821548E-04 -8.38072811E-04  1.02278639E-20  1.60989221E-05 -1.56749905E-05
  1.08680243E-06 -1.13628250E-05 -9.91004394E-23  2.71173342E-21  2.37902754E-04
 -4.11540753E-05 -5.98685480E-05 -4.78842832E-05 -5.98685480E-05 -4.78842832E-05
 -2.10331705E-04  1.45109152E-05  2.05420072E-03 -6.43415233E-04 -1.75005650E-20
 -8.04132815E-04  4.18941733E-04  1.70166855E-04 -2.66100075E-20 -6.24428991E-03
 -1.11704422E-03 -2.74064202E-04  9.32736723E-21  1.16400288E-04  1.20068102E-04
 -1.70042187E-04 -3.14725857E-04 -7.41199297E-22  4.49719332E-21 -7.57822706E-04
 -7.90904858E-04 -7.57822706E-04 -7.90904858E-04 -5.83427482E-03  9.91683168E-03
  1.13740364E-04 -7.25309252E-03 -5.32486395E-19  1.02726223E-02  2.34633870E-06
 -3.72883185E-03 -2.86160303E-19  1.14035304E-02 -1.02707864E-03 -3.29059362E-03
 -9.26598542E-20 -2.24540575E-04  5.27417792E-06 -1.00387582E-04  4.43965251E-05
 -2.93491796E-20 -3.88718756E-20  1.82714052E-03 -8.34170077E-04  1.82714052E-03
 -8.34170077E-04 -1.39940552E-02 -3.90264934E-03  4.03382394E-04  1.40848799E-02
  7.80117852E-19 -4.31776368E-03  2.62667899E-04  6.11068640E-03  4.10430109E-19
 -9.24540337E-03  1.46938922E-04 -1.58490927E-03  8.50762591E-20 -3.28565236E-04
  8.19640882E-04 -2.17512900E-04  7.25104836E-05 -4.44879781E-05 -1.06557868E-03
 -2.17009989E-21 -4.73802936E-05  1.57347393E-04 -6.30478331E-04 -5.52013180E-22
 -3.15129133E-03 -3.05472384E-04  6.52292001E-04 -2.12356011E-21  3.67709259E-06
  1.08680243E-06 -2.55706796E-05  1.56422827E-05  2.43739493E-21  9.63317568E-22
 -2.01142516E-04 -7.68360394E-05 -1.72832557E-04 -8.30689969E-05 -1.72832557E-04
 -8.30689969E-05  5.23372739E-04 -1.24935013E-03 -2.06796942E-03  2.21232594E-03
 -2.18236421E-20 -2.89919296E-03 -1.48988383E-03  1.03691830E-03 -8.63958497E-21
  2.18747934E-03  3.61480944E-05  1.06737548E-03 -3.05452087E-21 -4.01678744E-05
  2.83079288E-05  5.38087388E-05  2.07737109E-04 -2.35217264E-21  6.69380233E-22
 -1.35403291E-05  5.58293124E-04 -1.35403291E-05  5.58293124E-04  2.13916997E-03
 -4.88964092E-03  2.33279039E-03  7.43458727E-03  5.90610056E-20 -4.46349288E-03
  1.28729400E-03  4.22425141E-03  3.45269778E-20 -5.90719673E-03  6.01926485E-04
  3.15431962E-03  1.84083695E-20  1.10745546E-05 -1.05045990E-04  3.51969395E-04
  5.19205852E-04 -2.34649807E-20  1.03663129E-21  1.20984394E-03  2.41676801E-03
  1.20984394E-03  2.41676801E-03 -1.64028133E-02  9.16549453E-04 -1.78134777E-02
 -1.06004345E-02 -3.76094633E-19  2.92838613E-03 -9.35016926E-03 -4.68065739E-03
 -1.93851027E-19  8.17562245E-03 -1.77786805E-03  1.51207074E-03 -3.41653312E-20
 -3.50175219E-04 -3.44633075E-04  1.25206878E-03 -5.04106832E-04  9.80564596E-04
  4.46624103E-04 -3.15842731E-03  7.57327465E-20  1.18023897E-03  4.60746830E-04
 -1.99314278E-03  5.92054050E-20 -1.55747689E-03  4.86654514E-04 -7.33224951E-05
  1.42743616E-20 -9.51570258E-05 -1.13628250E-05  1.56422827E-05  2.46789887E-04
 -3.04863441E-21  5.20783833E-21 -1.12580803E-03 -1.55425547E-03  3.38650176E-05
  1.88470706E-04  3.38650176E-05  1.88470706E-04  1.79343471E-03 -3.48052425E-03
 -8.06908051E-03  5.46190683E-03 -8.45631127E-20 -5.52145365E-03 -4.75983976E-03
  2.68958026E-03 -7.95548007E-20 -1.32042339E-03 -1.42816578E-03  1.59664124E-03
  2.23740589E-20 -1.58523609E-04  2.38785372E-04  1.41820967E-04  2.27977034E-04
 -3.99821480E-20 -3.38573376E-21  3.46392495E-04  1.20281132E-03  3.46392495E-04
  1.20281132E-03 -8.11837335E-05 -2.97514428E-04  1.05620941E-02  1.83131603E-04
 -7.95441127E-19  5.83322025E-04  5.21081884E-03  6.39827600E-04 -4.36011154E-19
  2.45188275E-03  6.42938190E-04  2.45848884E-04 -1.51861688E-19 -3.48255692E-04
 -2.85770173E-06  5.34240571E-04  7.39998724E-04 -1.07702755E-19 -9.33073874E-20
  3.79694981E-03  3.28346730E-03  3.79694981E-03  3.28346730E-03  1.24491929E-04
 -2.62471860E-04 -1.65505590E-02  1.19378239E-04  1.59021842E-18 -5.58460462E-05
 -8.85525188E-03  2.23471958E-04  8.26174664E-19  1.37443986E-03 -2.08478642E-03
  5.24628465E-04  1.57270904E-19 -7.93971114E-04 -1.41581085E-05  8.10071054E-04
  9.95746985E-04  1.95047138E-20 -1.41342379E-20  1.47276133E-20  1.07464057E-19
 -1.54877891E-04 -1.25235089E-20 -2.07796752E-21  6.82376728E-20 -1.36774785E-04
  2.34725658E-19  2.00037845E-20 -4.48227241E-20 -3.26133994E-07 -3.45293554E-21
 -9.91004394E-23  2.43739493E-21 -3.04863441E-21  2.98807126E-05  2.93322790E-06
  1.90138814E-20  1.33539478E-20  5.19110483E-06 -1.02926403E-04 -5.19110483E-06
  1.02926403E-04 -4.97224235E-20  1.15910811E-19  2.21144261E-19 -1.82322749E-19
 -6.21892183E-04  2.68244243E-19  1.22835640E-19 -1.00732100E-19  1.41328660E-04
 -1.16427882E-19  2.98150974E-20 -8.42403397E-20 -2.75021346E-04 -1.88559818E-20
 -8.94107282E-21 -9.16532780E-22 -2.58404424E-20  1.89791118E-04  7.92486380E-05
  7.06358501E-04  1.33622495E-03 -7.06358501E-04 -1.33622495E-03 -1.53586413E-19
  3.51673784E-19 -4.48324063E-19 -6.35254244E-19  3.56733042E-03  3.11679275E-19
 -2.57901799E-19 -3.70526453E-19  2.12959567E-03  3.89227356E-19 -1.24301654E-19
 -2.64937207E-19  1.18414491E-03 -4.42524824E-20 -2.75667473E-20 -2.35603979E-20
 -1.06743459E-19  3.86677221E-04  7.25074261E-04 -2.91787650E-03 -3.92982551E-03
  2.91787650E-03  3.92982551E-03  1.18320483E-18 -6.57491438E-20  3.02681945E-18
  1.34246666E-18 -2.10083162E-02 -2.14987677E-19  1.56724504E-18  6.31017853E-19
 -1.07310408E-02 -6.06350692E-19  2.81954451E-19 -6.50364960E-20 -1.81627182E-03
 -9.90170406E-20 -2.06788023E-20 -8.94053478E-20 -1.68856942E-19  1.14160850E-03
  3.47320935E-21  4.48011779E-21  7.28598335E-20  3.95691198E-20 -9.84810334E-04
  9.70806190E-21  5.03662560E-20  2.72610596E-20 -7.52455211E-04  9.01897604E-20
  2.40555095E-20 -1.70589438E-20 -1.56919326E-04 -1.13066353E-21  2.71173342E-21
  9.63317568E-22  5.20783833E-21  2.93322790E-06 -5.87720235E-05 -1.36536996E-21
 -8.32226654E-21  4.44978599E-04  1.56908056E-04 -4.44978599E-04 -1.56908056E-04
 -4.32931765E-21  1.58899061E-20 -3.55469543E-20 -5.13375165E-20  6.60531711E-04
  5.46045503E-20 -2.78822922E-20 -3.16115224E-20  6.13990067E-04 -7.92696304E-20
  1.35821592E-20 -1.32695665E-20 -3.55252210E-04 -3.80581340E-20  1.98095116E-21
  3.08409511E-21 -1.21311360E-20  3.18221554E-04 -2.56124848E-05  3.12276542E-04
  1.42451437E-03 -3.12276542E-04 -1.42451437E-03 -6.91223925E-20  1.54645529E-19
 -7.71192299E-19 -5.44889995E-19  1.10927920E-02  1.47099781E-19 -4.18159973E-19
 -2.96169063E-19  5.95282656E-03  2.06335336E-19 -1.38286434E-19 -1.48770601E-19
  1.77919343E-03 -9.17551470E-20 -3.90504686E-20  1.32500895E-21 -9.32505869E-20
  7.40388408E-04  8.81916186E-04 -6.61908253E-03 -6.46892025E-03  6.61908253E-03
  6.46892025E-03  5.26563803E-19 -3.11961044E-20  1.57803139E-18  7.89350918E-19
 -1.61691920E-02 -9.42404642E-20  8.27995559E-19  3.87472448E-19 -8.49954057E-03
 -2.52486523E-19  1.63838800E-19  3.70955303E-21 -1.74848251E-03 -1.08434918E-19
 -3.53071298E-20 -2.30921752E-20 -1.12176501E-19  9.49772224E-04  9.62143764E-04
 -5.61889724E-04  7.94100436E-04 -8.05712573E-04 -5.67774075E-03 -3.67035643E-03
  1.52558856E-03  4.84502499E-04 -4.10782577E-03 -2.44762026E-03 -3.20140667E-02
 -3.36568482E-03  7.01782586E-03 -6.53768602E-04  5.54539011E-05 -5.98685480E-05
 -1.72832557E-04  3.38650176E-05 -5.19110483E-06 -4.44978599E-04 -4.70008732E-04
  5.61377502E-05  1.03990903E-03  1.30879751E-03 -2.99991113E-03 -2.35940340E-03
  4.56351164E-03 -8.27497643E-03 -9.39451127E-03  1.19124566E-02  7.34768286E-03
 -2.19185982E-02 -8.08768004E-03  6.02969168E-03  8.68720773E-03  2.14055397E-02
  1.01204353E-03  1.13964171E-02 -6.19163124E-04 -1.71072297E-04  4.63539170E-04
  2.99815642E-05  8.73300980E-04  6.37319012E-04  2.50121515E-04 -2.27470346E-03
  8.00370380E-03 -2.17661817E-04 -2.88935163E-03  6.84922823E-03 -1.79059990E-02
  9.23988925E-03  2.74468988E-02  1.94907073E-02 -2.34116738E-02  5.55821610E-03
  2.41291074E-02  1.28821927E-02 -7.34088590E-02  2.98463431E-03  3.32791662E-02
  9.67767708E-03 -9.91800758E-04  1.73459685E-03  1.04360196E-03  3.44057569E-03
  2.55909244E-03  6.72169813E-03 -1.34426993E-02 -1.86953366E-02  2.65725988E-02
  4.31925315E-02 -5.22380145E-02  9.72191610E-02 -1.23377097E-01 -8.63983746E-02
 -2.12822215E-01  1.06954120E-01 -6.51242455E-02 -3.99629073E-02 -1.08570856E-01
  9.80992712E-02 -1.27836794E-02  2.04347495E-02 -1.77772389E-02 -2.36882786E-03
 -4.49080267E-03  8.61232984E-03  5.34632861E-03  1.13513495E-02  9.15177840E-03
  2.06794961E-01 -3.04986094E-04 -6.43214269E-04 -4.96075663E-04 -2.73578359E-03
 -4.68838254E-03 -2.08601476E-03  9.13238384E-04 -1.62630444E-03 -3.19669820E-03
 -1.73423645E-02 -1.62030301E-03  3.87034575E-03 -4.21562041E-04  8.86308940E-05
 -4.78842832E-05 -8.30689969E-05  1.88470706E-04  1.02926403E-04 -1.56908056E-04
 -7.67798314E-04 -1.46762350E-04  1.30879751E-03  6.25159282E-04 -2.35940340E-03
 -1.65605316E-04  2.51480982E-03 -5.69810257E-03 -1.57312624E-02  8.51540303E-03
 -3.16761628E-03 -1.46656535E-02 -1.09068927E-02  3.97568553E-03  1.95894559E-03
  1.15604383E-02 -5.88732177E-04  5.32049835E-03 -2.39229158E-03  3.84071495E-06
 -2.00179745E-04  5.77657911E-04  1.31989145E-03  1.80790987E-03  4.37605466E-04
  8.01024393E-03  1.63122945E-02 -2.47780867E-03 -6.14975982E-03  9.15585054E-03
 -1.96877084E-02  2.08670927E-02  4.41020042E-02  4.28611191E-02 -1.70959007E-02
  1.12762890E-02  2.49258973E-02  2.44932469E-02 -3.00944049E-02  3.33038316E-03
  1.81945193E-02  1.09769999E-02 -5.22723779E-06 -8.92745437E-04  2.34371002E-03
  3.07443464E-03  3.85640687E-03  6.36296311E-03 -1.84304626E-02 -2.13311645E-02
  4.32844220E-02  5.33810568E-02 -3.21214761E-04  1.30032814E-02 -9.18278833E-02
 -6.03353037E-02 -1.68540643E-01  1.70749431E-02 -4.85106593E-02 -2.76653756E-02
 -8.64977323E-02  4.50720671E-02 -9.39083880E-03  8.03992132E-03 -1.51683803E-02
 -2.36087037E-03 -2.56538175E-03  5.96712599E-03  4.40195519E-03  9.27892523E-03
  8.01505272E-03  1.39312374E-01  1.08631330E-01  2.85434012E-03 -6.30808717E-03
 -1.12699283E-03  1.52500183E-02 -7.82008370E-21 -1.46336437E-02 -4.75421758E-04
  1.34275666E-02 -3.29890114E-21 -2.85566810E-02 -5.78494658E-03  1.01324641E-02
 -4.01411305E-20  3.61648199E-04  2.37902754E-04 -2.01142516E-04 -1.12580803E-03
  1.90138814E-20 -1.36536996E-21  4.47765651E-03  8.74463765E-03 -4.70008732E-04
 -7.67798314E-04 -4.70008732E-04 -7.67798314E-04 -9.12749670E-03  1.76969645E-02
  2.66906537E-02 -2.05258628E-02  1.85203614E-19  4.58223732E-02  2.36188079E-02
 -1.31161870E-02  1.63888402E-19  7.78351410E-02  1.75637098E-02 -3.53732487E-03
  1.21872719E-19  1.00269947E-03 -2.74696738E-03  3.78398851E-04  6.46353778E-04
 -2.22846461E-20 -7.64246757E-21  3.31080998E-03 -1.41874399E-03  3.31080998E-03
 -1.41874399E-03  7.81315582E-03 -1.70843794E-02 -1.90120973E-02  2.68389738E-02
 -1.31922926E-19 -3.33493037E-02 -1.09759012E-02  1.55536435E-02 -7.61606137E-20
 -1.21753866E-01  5.54719222E-03  2.72767632E-02  3.84913783E-20  2.24337173E-03
  1.65569332E-03 -2.09747284E-03 -7.04141541E-03  1.86031418E-19  1.83630657E-20
 -1.26334117E-02 -1.15527682E-02 -1.26334117E-02 -1.15527682E-02 -5.24939089E-02
  9.82975669E-02  2.44987567E-01 -9.03450442E-02  1.69994273E-18  1.03779482E-01
  1.26788563E-01 -4.39826693E-02  8.79772387E-19  7.93395294E-02  2.19163368E-02
  1.31788961E-02  1.52075136E-19  1.41739539E-02 -4.20148527E-03 -7.94387924E-03
 -1.08408414E-02  7.50057575E-19  1.79372941E-19 -2.10526462E-02 -3.84554552E-02
  2.07057269E-01  4.65493306E-03 -1.00477842E-02 -4.25836494E-03  2.84134633E-02
 -2.95483425E-20 -1.72538846E-02 -2.41753441E-03  1.95111154E-02 -1.67750148E-20
 -6.35078129E-03 -5.20400252E-03  5.74086664E-03 -3.61100214E-20  8.98311295E-04
 -4.11540753E-05 -7.68360394E-05 -1.55425547E-03  1.33539478E-20 -8.32226654E-21
  8.74463765E-03  1.29554136E-02  5.61377502E-05 -1.46762350E-04  5.61377502E-05
 -1.46762350E-04 -9.93384835E-03  2.15115657E-02  3.78117457E-02 -3.82810501E-02
  2.62371692E-19  4.50512703E-02  2.67048980E-02 -2.07371791E-02  1.85302454E-19
  4.61346191E-02  1.45068874E-02 -1.11723976E-02  1.00661752E-19  1.46658081E-03
 -3.21998668E-03  3.33396626E-04  2.16671113E-04 -1.49621356E-20 -9.18169667E-21
  4.55942055E-03 -1.29140049E-03  4.55942055E-03 -1.29140049E-03  9.01265463E-03
 -1.74583796E-02 -3.94584032E-02  4.27853887E-02 -2.73797674E-19 -2.44476700E-02
 -2.00757320E-02  1.75036047E-02 -1.39303375E-19 -6.62726450E-02  1.65303487E-03
  1.40685816E-02  1.14702336E-20  3.33477356E-03 -1.00259116E-03 -1.64756932E-03
 -5.90070158E-03  1.58728285E-19  1.18592298E-20 -1.41265000E-02 -1.10776486E-02
 -1.41265000E-02 -1.10776486E-02 -2.02828830E-03  1.61390297E-02  1.88508445E-01
 -6.39019833E-02  1.30804010E-18  1.65265933E-02  9.84112812E-02 -3.15266126E-02
  6.82865439E-19  2.82315152E-02  1.94244498E-02  1.49718826E-03  1.34784196E-19
  1.04837744E-02 -2.36431114E-03 -6.89714834E-03 -9.07015467E-03  6.36622900E-19
  1.58112474E-19 -3.93895910E-02 -3.48479310E-02  1.38396383E-01  1.05438548E-01
 -5.61889724E-04  7.94100436E-04 -8.05712573E-04 -5.67774075E-03  3.67035643E-03
  1.52558856E-03  4.84502499E-04 -4.10782577E-03  2.44762026E-03 -3.20140667E-02
 -3.36568482E-03  7.01782586E-03  6.53768602E-04  5.54539011E-05 -5.98685480E-05
 -1.72832557E-04  3.38650176E-05  5.19110483E-06  4.44978599E-04 -4.70008732E-04
  5.61377502E-05 -2.99991113E-03 -2.35940340E-03  1.03990903E-03  1.30879751E-03
  4.56351164E-03 -8.27497643E-03 -9.39451127E-03  1.19124566E-02 -7.34768286E-03
 -2.19185982E-02 -8.08768004E-03  6.02969168E-03 -8.68720773E-03  2.14055397E-02
  1.01204353E-03  1.13964171E-02  6.19163124E-04 -1.71072297E-04  4.63539170E-04
  2.99815642E-05  8.73300980E-04 -6.37319012E-04 -2.50121515E-04 -2.17661817E-04
 -2.88935163E-03 -2.27470346E-03  8.00370380E-03  6.84922823E-03 -1.79059990E-02
  9.23988925E-03  2.74468988E-02 -1.94907073E-02 -2.34116738E-02  5.55821610E-03
  2.41291074E-02 -1.28821927E-02 -7.34088590E-02  2.98463431E-03  3.32791662E-02
 -9.67767708E-03 -9.91800758E-04  1.73459685E-03  1.04360196E-03  3.44057569E-03
 -2.55909244E-03 -6.72169813E-03  2.65725988E-02  4.31925315E-02 -1.34426993E-02
 -1.86953366E-02 -5.22380145E-02  9.72191610E-02 -1.23377097E-01 -8.63983746E-02
  2.12822215E-01  1.06954120E-01 -6.51242455E-02 -3.99629073E-02  1.08570856E-01
  9.80992712E-02 -1.27836794E-02  2.04347495E-02  1.77772389E-02 -2.36882786E-03
 -4.49080267E-03  8.61232984E-03  5.34632861E-03 -1.13513495E-02 -9.15177840E-03
 -2.12372892E-02 -4.42381165E-02 -2.10526462E-02 -3.93895910E-02  2.06794961E-01
 -3.04986094E-04 -6.43214269E-04 -4.96075663E-04 -2.73578359E-03  4.68838254E-03
 -2.08601476E-03  9.13238384E-04 -1.62630444E-03  3.19669820E-03 -1.73423645E-02
 -1.62030301E-03  3.87034575E-03  4.21562041E-04  8.86308940E-05 -4.78842832E-05
 -8.30689969E-05  1.88470706E-04 -1.02926403E-04  1.56908056E-04 -7.67798314E-04
 -1.46762350E-04 -2.35940340E-03 -1.65605316E-04  1.30879751E-03  6.25159282E-04
  2.51480982E-03 -5.69810257E-03 -1.57312624E-02  8.51540303E-03  3.16761628E-03
 -1.46656535E-02 -1.09068927E-02  3.97568553E-03 -1.95894559E-03  1.15604383E-02
 -5.88732177E-04  5.32049835E-03  2.39229158E-03  3.84071495E-06 -2.00179745E-04
  5.77657911E-04  1.31989145E-03 -1.80790987E-03 -4.37605466E-04 -2.47780867E-03
 -6.14975982E-03  8.01024393E-03  1.63122945E-02  9.15585054E-03 -1.96877084E-02
  2.08670927E-02  4.41020042E-02 -4.28611191E-02 -1.70959007E-02  1.12762890E-02
  2.49258973E-02 -2.44932469E-02 -3.00944049E-02  3.33038316E-03  1.81945193E-02
 -1.09769999E-02 -5.22723779E-06 -8.92745437E-04  2.34371002E-03  3.07443464E-03
 -3.85640687E-03 -6.36296311E-03  4.32844220E-02  5.33810568E-02 -1.84304626E-02
 -2.13311645E-02 -3.21214761E-04  1.30032814E-02 -9.18278833E-02 -6.03353037E-02
  1.68540643E-01  1.70749431E-02 -4.85106593E-02 -2.76653756E-02  8.64977323E-02
  4.50720671E-02 -9.39083880E-03  8.03992132E-03  1.51683803E-02 -2.36087037E-03
 -2.56538175E-03  5.96712599E-03  4.40195519E-03 -9.27892523E-03 -8.01505272E-03
 -4.42381165E-02 -4.32397310E-02 -3.84554552E-02 -3.48479310E-02  1.39312374E-01
  1.08631330E-01
Grdnt Energy                               R     -1.584187250447509E+02
Grdnt NVar                                 I               64
Grdnt IGetFC                               I                4
Internal Forces                            R   N=          64
  4.67457360E-07  6.02643434E-07  6.02643436E-07  9.54419041E-07  1.63442169E-07
  1.63442175E-07  4.61799455E-07  1.63442179E-07  1.63442186E-07  9.54419041E-07
  6.02643443E-07  4.67457345E-07  6.02643441E-07 -1.69074473E-07 -1.69074459E-07
  3.03674471E-07  1.05858886E-09  7.65329100E-09  7.65326921E-09 -4.25399792E-07
 -4.25399794E-07  5.15816463E-07  5.44126185E-07 -1.02001497E-07 -1.02001497E-07
 -1.02001472E-07 -1.02001468E-07  5.15816373E-07  5.44126180E-07 -4.25399770E-07
 -4.25399772E-07  7.65329496E-09  3.03674488E-07  7.65328533E-09 -1.69074481E-07
  1.05857435E-09 -1.69074477E-07  8.21473241E-08 -8.21473236E-08  4.85020608E-16
  8.77785739E-08 -7.65160739E-08  5.63125027E-09  7.65160763E-08 -8.77785714E-08
 -5.63124731E-09 -2.68514094E-07  2.68514092E-07 -7.05687011E-16 -5.37028174E-07
  1.22382456E-14 -2.68514080E-07 -1.26128028E-14  5.37028173E-07  2.68514081E-07
  5.63124289E-09 -2.40010586E-15 -5.63124958E-09  8.77785791E-08  8.21473338E-08
  7.65160866E-08 -7.65160892E-08 -8.21473345E-08 -8.77785817E-08
Internal Force Constants                   R   N=        2080
  3.52723901E-01  3.27934585E-03  3.49335355E-01  3.27934572E-03  3.32801337E-03
  3.49335355E-01  5.03817483E-03  5.89660788E-03  5.89660751E-03  2.98907191E-01
  6.47917279E-04  6.50801761E-04 -9.17649955E-04  5.69219832E-03  3.41508804E-01
  6.47917116E-04 -9.17650133E-04  6.50802188E-04  5.69219775E-03  4.05498477E-03
  3.41508805E-01 -5.35809298E-04  7.03507892E-04  7.03507564E-04  8.24403507E-03
  6.23372099E-03  6.23372023E-03  2.96811881E-01 -9.91490320E-05  4.94404673E-04
 -1.09665448E-05  8.84172382E-04  6.58358324E-04 -8.21520685E-04  6.23372099E-03
  3.41508804E-01 -9.91492234E-05 -1.09664019E-05  4.94404499E-04  8.84174056E-04
 -8.21520685E-04  6.58358206E-04  6.23372023E-03  4.05498477E-03  3.41508805E-01
  2.49786466E-04 -2.68244722E-04 -2.68243849E-04  5.40625702E-04  8.84172382E-04
  8.84174056E-04  8.24403507E-03  5.69219832E-03  5.69219775E-03  2.98907191E-01
  9.97125286E-05  1.20837009E-05 -9.27149356E-05 -2.68244722E-04  4.94404673E-04
 -1.09664019E-05  7.03507892E-04  6.50801761E-04 -9.17650133E-04  5.89660788E-03
  3.49335355E-01  1.74762753E-04  9.97125286E-05  9.97119811E-05  2.49786466E-04
 -9.91490320E-05 -9.91492234E-05 -5.35809298E-04  6.47917279E-04  6.47917116E-04
  5.03817483E-03  3.27934585E-03  3.52723901E-01  9.97119811E-05 -9.27149356E-05
  1.20838342E-05 -2.68243849E-04 -1.09665448E-05  4.94404499E-04  7.03507564E-04
 -9.17649955E-04  6.50802188E-04  5.89660751E-03  3.32801337E-03  3.27934572E-03
  3.49335355E-01  5.53301774E-03  5.28894584E-03  3.02043491E-04 -1.57781551E-02
  1.45609196E-04 -1.18777494E-03 -6.16936182E-04 -7.67236232E-04 -2.21043779E-05
 -3.60077496E-04 -3.61408585E-05 -1.94993390E-04  1.46800677E-04  5.33964863E-02
  5.53301782E-03  3.02043272E-04  5.28894618E-03 -1.57781554E-02 -1.18777506E-03
  1.45609846E-04 -6.16936282E-04 -2.21042207E-05 -7.67236678E-04 -3.60077439E-04
  1.46800725E-04 -1.94993543E-04 -3.61408395E-05  9.28628545E-03  5.33964866E-02
  6.54101196E-04 -5.83752280E-03 -5.83752286E-03  1.41449110E-02 -6.11201357E-04
 -6.11201398E-04  4.50641724E-03  9.86897726E-05  9.86902079E-05  1.47640868E-03
  1.90137864E-04  4.77311182E-04  1.90137817E-04 -4.04421677E-02 -4.04421676E-02
  1.03518605E-01  2.70397094E-04  5.56926838E-03  5.56926860E-03 -1.61744606E-02
 -1.09673562E-03 -1.09673540E-03  1.23988652E-03 -4.10448180E-04 -4.10448121E-04
  2.71050278E-04  1.13850430E-04 -2.73746812E-05  1.13850482E-04  9.58550071E-03
  9.58550073E-03  1.37848504E-02  5.28119279E-02 -5.73372775E-03  1.03061687E-03
 -5.72221070E-03  1.55331185E-02 -9.37054634E-04  3.58010770E-03 -2.26730938E-03
  1.24679498E-03 -2.06959748E-04 -5.28537146E-04  3.66510931E-05 -4.17732504E-05
 -4.41115974E-04 -4.18375150E-02  1.38067195E-02 -2.01090917E-02 -4.09604861E-02
  1.05281773E-01 -5.73372713E-03 -5.72221043E-03  1.03061646E-03  1.55331190E-02
  3.58010803E-03 -9.37055199E-04 -2.26730898E-03 -2.06959650E-04  1.24679516E-03
 -5.28536192E-04 -4.41116153E-04 -4.17726404E-05  3.66509408E-05  1.38067192E-02
 -4.18375155E-02 -2.01090910E-02 -4.09604861E-02 -1.96971834E-02  1.05281773E-01
 -1.54523249E-03 -4.10471300E-05  2.89661325E-03  6.19291736E-03  1.59426613E-03
 -1.02459581E-03 -1.08558490E-02  6.69126186E-04 -3.48075440E-04 -1.47362275E-03
 -6.05091274E-04 -2.71854132E-04  1.62726680E-04  3.37511290E-03 -1.44395192E-03
 -7.71454242E-03 -3.23163214E-03 -2.63547680E-03  1.16155649E-02  4.82451041E-02
 -1.54523167E-03  2.89661283E-03 -4.10470216E-05  6.19291805E-03 -1.02459630E-03
  1.59426637E-03 -1.08558482E-02 -3.48075155E-04  6.69125962E-04 -1.47362216E-03
  1.62726241E-04 -2.71853210E-04 -6.05091266E-04 -1.44395273E-03  3.37511251E-03
 -7.71454169E-03 -3.23163240E-03  1.16155658E-02 -2.63547708E-03 -4.70538212E-04
  4.82451030E-02  4.89603872E-03 -2.41106455E-03 -2.41106520E-03  1.17407390E-02
 -4.06543699E-03 -4.06543772E-03  1.09180573E-02 -2.23281203E-03 -2.23281147E-03
  7.46513161E-03 -2.04121460E-04  1.58912831E-03 -2.04122274E-04 -4.14475593E-03
 -4.14475662E-03  1.93737995E-02  5.48796723E-03 -8.39839213E-03 -8.39838997E-03
 -4.18523407E-02 -4.18523389E-02  1.31991554E-01  7.46304237E-04 -7.09723613E-04
 -7.09723756E-04 -2.45970289E-03  2.52086955E-03  2.52086944E-03 -2.44202901E-03
 -6.64705274E-04 -6.64705268E-04  1.32410202E-03 -8.28762421E-05  2.67328618E-04
 -8.28763998E-05 -5.57203845E-04 -5.57203947E-04  3.97885742E-03  1.48655521E-03
 -2.17447984E-03 -2.17447949E-03 -1.29694587E-02 -1.29694583E-02  3.19582683E-02
  1.89293234E-02 -1.38850507E-03  7.33973961E-04 -3.88288855E-04 -1.13078339E-02
  2.46270459E-03 -1.12117061E-03  6.33385748E-03 -8.34082766E-05  2.75653948E-03
 -3.09643140E-03  8.44576165E-04 -6.94497762E-04 -1.02930422E-04  1.97113174E-04
  2.77472401E-03 -4.36551440E-03 -3.50668555E-04  5.02821418E-03 -3.13058771E-03
 -1.62218283E-02  2.46499871E-02 -4.28531295E-02 -1.28222872E-02  4.88231766E-02
 -1.38850568E-03 -3.88289009E-04  7.33974094E-04 -1.13078341E-02 -1.12117094E-03
  2.46270440E-03  6.33385685E-03  2.75653987E-03 -8.34079702E-05 -3.09643241E-03
 -1.02930522E-04 -6.94497541E-04  8.44576626E-04  2.77472400E-03  1.97113574E-04
 -4.36551500E-03 -3.50668525E-04 -3.13058692E-03  5.02821358E-03  2.46499880E-02
 -1.62218286E-02 -4.28531302E-02 -1.28222873E-02  2.54029481E-04  4.88231769E-02
 -6.94497762E-04  8.44576165E-04 -1.02930422E-04 -3.09643140E-03 -8.34082766E-05
  2.75653948E-03  6.33385748E-03  2.46270459E-03 -1.12117061E-03 -1.13078339E-02
  7.33973961E-04 -1.38850507E-03 -3.88288855E-04  3.53489770E-04  6.75991532E-04
 -1.66559711E-03 -2.88133174E-04  6.03202084E-04  3.65714292E-04  3.87701942E-03
 -7.12423268E-04 -9.31541265E-03 -2.18735752E-03  2.86601761E-04  8.46707350E-03
  4.88231766E-02 -6.94497541E-04 -1.02930522E-04  8.44576626E-04 -3.09643241E-03
  2.75653987E-03 -8.34079703E-05  6.33385686E-03 -1.12117094E-03  2.46270440E-03
 -1.13078341E-02 -3.88289009E-04 -1.38850568E-03  7.33974094E-04  6.75991772E-04
  3.53489679E-04 -1.66559694E-03 -2.88133188E-04  3.65714572E-04  6.03201503E-04
 -7.12422556E-04  3.87701910E-03 -9.31541364E-03 -2.18735767E-03  8.46707350E-03
  2.86602557E-04  2.54029481E-04  4.88231769E-02  1.58912831E-03 -2.04121460E-04
 -2.04122274E-04  7.46513161E-03 -2.23281203E-03 -2.23281147E-03  1.09180573E-02
 -4.06543699E-03 -4.06543772E-03  1.17407390E-02 -2.41106455E-03  4.89603872E-03
 -2.41106520E-03 -1.83287269E-03 -1.83287204E-03  4.86495621E-03  4.24378385E-04
 -9.04426208E-04 -9.04424901E-04 -5.08970642E-03 -5.08970488E-03  2.28961387E-02
  4.89138024E-03 -9.31541265E-03 -9.31541364E-03 -4.28531295E-02 -4.28531302E-02
  1.31991554E-01  2.67328618E-04 -8.28762421E-05 -8.28763998E-05  1.32410202E-03
 -6.64705274E-04 -6.64705268E-04 -2.44202901E-03  2.52086955E-03  2.52086944E-03
 -2.45970289E-03 -7.09723613E-04  7.46304237E-04 -7.09723756E-04 -3.23831872E-04
 -3.23831814E-04  9.33241188E-04  2.20885651E-04 -2.65657573E-04 -2.65657399E-04
 -9.08394168E-04 -9.08393912E-04  4.89138024E-03  1.07995188E-03 -2.18735752E-03
 -2.18735767E-03 -1.28222872E-02 -1.28222873E-02  3.19582683E-02  1.89293234E-02
 -2.71854132E-04 -6.05091274E-04  1.62726680E-04 -1.47362275E-03  6.69126186E-04
 -3.48075440E-04 -1.08558490E-02  1.59426613E-03 -1.02459581E-03  6.19291736E-03
 -4.10471300E-05 -1.54523249E-03  2.89661325E-03  8.63940230E-04  3.44791849E-04
 -1.34233341E-03 -4.11682754E-05 -2.13693343E-04  4.53137801E-04  3.46361211E-04
  2.71587104E-03 -5.08970642E-03 -9.08394168E-04  3.87701942E-03 -7.12422556E-04
 -1.62218283E-02  2.46499880E-02 -4.18523407E-02 -1.29694587E-02  4.82451041E-02
 -2.71853210E-04  1.62726241E-04 -6.05091266E-04 -1.47362216E-03 -3.48075155E-04
  6.69125963E-04 -1.08558482E-02 -1.02459630E-03  1.59426637E-03  6.19291805E-03
  2.89661283E-03 -1.54523167E-03 -4.10470216E-05  3.44791409E-04  8.63939379E-04
 -1.34233217E-03 -4.11683248E-05  4.53138157E-04 -2.13693671E-04  2.71587104E-03
  3.46360379E-04 -5.08970488E-03 -9.08393912E-04 -7.12423268E-04  3.87701910E-03
  2.46499871E-02 -1.62218286E-02 -4.18523389E-02 -1.29694583E-02 -4.70538212E-04
  4.82451030E-02 -4.17732504E-05  3.66510931E-05 -4.41115975E-04 -5.28537146E-04
  1.24679498E-03 -2.06959748E-04 -2.26730938E-03 -9.37054634E-04  3.58010770E-03
  1.55331185E-02  1.03061687E-03 -5.73372775E-03 -5.72221070E-03  1.10491330E-04
  3.12453933E-04 -4.25907230E-04  4.02711405E-05  1.55639878E-04 -1.67499084E-04
 -2.13693343E-04  4.53138157E-04 -9.04426208E-04 -2.65657573E-04  6.03202084E-04
  3.65714572E-04  5.02821418E-03 -3.13058692E-03 -8.39839213E-03 -2.17447984E-03
 -2.63547680E-03  1.16155658E-02  1.05281773E-01  4.77311182E-04  1.90137864E-04
  1.90137817E-04  1.47640868E-03  9.86897725E-05  9.86902079E-05  4.50641724E-03
 -6.11201357E-04 -6.11201398E-04  1.41449110E-02 -5.83752280E-03  6.54101195E-04
 -5.83752286E-03 -5.28681372E-04 -5.28681479E-04  1.68853061E-03  1.67478483E-04
 -4.25907230E-04 -4.25905952E-04 -1.34233341E-03 -1.34233217E-03  4.86495621E-03
  9.33241188E-04 -1.66559711E-03 -1.66559694E-03 -4.36551440E-03 -4.36551500E-03
  1.93737995E-02  3.97885742E-03 -7.71454242E-03 -7.71454169E-03 -2.01090917E-02
  1.03518605E-01 -4.17726404E-05 -4.41116153E-04  3.66509408E-05 -5.28536192E-04
 -2.06959650E-04  1.24679516E-03 -2.26730898E-03  3.58010803E-03 -9.37055199E-04
  1.55331190E-02 -5.72221043E-03 -5.73372713E-03  1.03061646E-03  3.12453279E-04
  1.10490817E-04 -4.25905952E-04  4.02712149E-05 -1.67499084E-04  1.55639632E-04
  4.53137801E-04 -2.13693671E-04 -9.04424901E-04 -2.65657399E-04  3.65714292E-04
  6.03201503E-04 -3.13058771E-03  5.02821358E-03 -8.39838997E-03 -2.17447949E-03
  1.16155649E-02 -2.63547708E-03 -1.96971834E-02 -2.01090910E-02  1.05281773E-01
 -1.94993390E-04 -3.61408585E-05  1.46800677E-04 -3.60077496E-04 -7.67236232E-04
 -2.21043779E-05 -6.16936182E-04  1.45609196E-04 -1.18777494E-03 -1.57781551E-02
  5.28894584E-03  5.53301774E-03  3.02043491E-04  1.64001037E-04  6.76375045E-05
 -5.28681372E-04 -1.17655689E-04  1.10491330E-04  3.12453279E-04  8.63940230E-04
  3.44791409E-04 -1.83287269E-03 -3.23831872E-04  3.53489770E-04  6.75991772E-04
  1.97113175E-04  2.77472400E-03 -4.14475593E-03 -5.57203845E-04  3.37511290E-03
 -1.44395273E-03 -4.18375150E-02 -4.04421677E-02  1.38067192E-02  5.33964863E-02
 -2.73746812E-05  1.13850430E-04  1.13850482E-04  2.71050278E-04 -4.10448180E-04
 -4.10448121E-04  1.23988652E-03 -1.09673562E-03 -1.09673540E-03 -1.61744606E-02
  5.56926838E-03  2.70397094E-04  5.56926860E-03 -1.17655689E-04 -1.17655632E-04
  1.67478483E-04 -2.65366090E-05  4.02711405E-05  4.02712149E-05 -4.11682754E-05
 -4.11683248E-05  4.24378384E-04  2.20885651E-04 -2.88133174E-04 -2.88133188E-04
 -3.50668555E-04 -3.50668525E-04  5.48796723E-03  1.48655521E-03 -3.23163214E-03
 -3.23163240E-03 -4.09604861E-02  1.37848504E-02 -4.09604861E-02  9.58550071E-03
  5.28119279E-02 -1.94993543E-04  1.46800725E-04 -3.61408395E-05 -3.60077439E-04
 -2.21042207E-05 -7.67236678E-04 -6.16936282E-04 -1.18777506E-03  1.45609846E-04
 -1.57781554E-02  3.02043272E-04  5.53301782E-03  5.28894618E-03  6.76375045E-05
  1.64000946E-04 -5.28681479E-04 -1.17655632E-04  3.12453933E-04  1.10490817E-04
  3.44791849E-04  8.63939379E-04 -1.83287204E-03 -3.23831814E-04  6.75991532E-04
  3.53489679E-04  2.77472401E-03  1.97113574E-04 -4.14475662E-03 -5.57203947E-04
 -1.44395192E-03  3.37511251E-03  1.38067195E-02 -4.04421676E-02 -4.18375155E-02
  9.28628545E-03  9.58550073E-03  5.33964866E-02 -4.46487956E-04  4.21116594E-03
 -3.41045760E-03  2.11112113E-03  1.77763747E-04  3.20620787E-03 -7.79008017E-03
  1.13551754E-04 -7.31855778E-04 -5.49985928E-05 -2.54748919E-04  3.81589658E-06
 -1.02798757E-04  6.29979923E-03 -5.85182529E-03 -2.07592256E-03 -9.78714112E-04
  5.83726627E-03 -3.24967019E-03  7.88235961E-03  4.18705190E-03 -4.98159773E-03
  3.92145658E-03 -1.00493750E-02 -5.78412664E-04  6.40147075E-04 -1.44918786E-03
  2.65103118E-06  1.25784088E-04 -2.41611115E-04  9.21882518E-04 -1.26365152E-04
 -2.15334987E-04 -5.61366074E-05  1.78423858E-04  1.09811563E-04  1.32154538E-04
  1.48522038E-02  4.46487823E-04  3.41045753E-03 -4.21116615E-03 -2.11112064E-03
 -3.20620807E-03 -1.77764242E-04  7.79008034E-03  7.31855774E-04 -1.13551471E-04
  5.49982374E-05  1.02798789E-04 -3.81570290E-06  2.54748883E-04  5.85182513E-03
 -6.29979951E-03  2.07592258E-03  9.78714092E-04  3.24967026E-03 -5.83726592E-03
 -4.18705220E-03 -7.88235969E-03  4.98159840E-03 -3.92145649E-03  5.78412531E-04
  1.00493747E-02  1.44918821E-03 -6.40146775E-04 -2.65216205E-06 -1.25784164E-04
 -9.21882296E-04  2.41611511E-04  5.61365831E-05  2.15334713E-04  1.26365314E-04
 -1.32154450E-04 -1.09811766E-04 -1.78423602E-04  3.08633928E-03  1.48522039E-02
  3.21650302E-11  3.48822867E-03 -3.48822869E-03  1.50186406E-10  1.69851702E-03
 -1.69851696E-03  2.13182522E-10 -1.02974569E-03  1.02974536E-03  2.60605299E-10
  2.57127969E-04 -3.69871608E-10 -2.57128050E-04  6.13498372E-03 -6.13498376E-03
  1.28977708E-10  6.43812289E-11  4.71064420E-03 -4.71064435E-03 -7.00721910E-03
  7.00721896E-03  1.81900129E-10  7.10501981E-12  1.18042248E-02 -1.18042249E-02
 -2.55239966E-03  2.55239984E-03 -4.80423154E-10 -3.29924170E-11  1.50887530E-03
 -1.50887494E-03 -1.19351654E-04 -6.83834481E-10  1.19351906E-04  9.10025931E-07
 -7.53210830E-11 -9.09492631E-07  4.23263284E-03  4.23263291E-03  1.43415145E-02
 -4.00009339E-03  7.20352512E-04  4.00181190E-03  2.07860364E-03  1.03892668E-03
  2.68900649E-03 -8.48658469E-03  1.72730617E-04 -6.29400376E-04 -2.28610128E-04
 -3.61179995E-04 -4.04299027E-05 -1.16540073E-04 -5.84997742E-03  9.05253381E-05
 -6.50924800E-03  5.46264751E-03  8.08733789E-04  6.10187545E-03  1.05624846E-02
  3.29443078E-03 -7.00150698E-03  3.43952426E-03 -1.07902571E-02  9.55832302E-04
  8.98090444E-04 -1.43851790E-03 -3.19101635E-04  9.14725358E-05 -2.92045137E-04
  1.07627600E-03 -8.68188030E-05 -3.87099752E-04 -5.30005844E-05  2.49665920E-04
  1.19358922E-04  1.88322056E-04  4.29781673E-03 -7.92365603E-03 -6.73804194E-03
  1.55182758E-02 -3.10711761E-03 -8.03559008E-05  3.20110335E-03 -2.14363813E-03
 -2.34504514E-03 -6.94965618E-04  7.09357582E-03  7.91034637E-04 -1.10960688E-05
 -1.18613298E-04 -3.63228691E-06 -4.80615022E-05  2.41007566E-04 -6.29795152E-03
 -3.57448879E-04 -2.35740286E-03  7.42007572E-03 -1.77886222E-03  3.51427973E-03
 -1.50692726E-03 -8.77498081E-03  2.96168914E-03 -4.40338880E-03 -1.62469571E-04
  1.15836196E-02  1.70713157E-03 -6.29476816E-04 -3.24404828E-04 -1.60095716E-04
 -9.72316318E-04  3.96004995E-04  9.56829316E-05  4.35699479E-05  1.29501337E-04
 -6.09123878E-05 -1.00264407E-04 -1.22256084E-04 -7.46804776E-03  3.84220858E-03
 -6.73804187E-03  3.29680306E-03  1.46070594E-02 -3.55360540E-03 -2.58475827E-06
  3.92404081E-03 -3.25173412E-05  2.55967996E-03 -2.21571834E-03 -6.96504307E-04
 -9.70566830E-04  1.13220077E-03 -1.73611274E-04  1.50696894E-04 -4.42461691E-05
 -2.70869367E-04 -6.01479293E-03 -1.92633130E-04 -4.43332531E-03  6.44136169E-03
 -3.17888276E-04  4.64090129E-03 -4.32709415E-03  6.11459785E-03 -2.01990907E-03
 -4.81932309E-04  1.10633427E-02 -1.02699799E-02 -2.29445629E-03  2.56306980E-03
 -3.21753146E-04 -3.43115854E-05  1.45844128E-03 -1.35448146E-03 -7.98053052E-05
 -1.71765449E-04  1.22487928E-04  7.21520876E-05  9.54728347E-06  5.52580251E-05
 -6.32175420E-03 -6.77736240E-03  3.37083971E-03  4.48241714E-03  4.02680895E-03
  1.41750111E-02  3.10711799E-03 -3.20110362E-03  8.03559416E-05  2.14363854E-03
  6.94965232E-04  2.34504535E-03 -7.09357550E-03  1.10963259E-05 -7.91034793E-04
  1.18613662E-04 -2.41007631E-04  4.80619160E-05  3.63220824E-06  3.57448375E-04
  6.29795131E-03  2.35740346E-03 -7.42007574E-03 -3.51427952E-03  1.77886211E-03
  8.77498062E-03  1.50692675E-03 -2.96168788E-03  4.40338900E-03 -1.15836201E-02
  1.62469143E-04  6.29476508E-04 -1.70713163E-03  3.24405410E-04  1.60095833E-04
 -3.96005113E-04  9.72316070E-04 -1.29501202E-04 -4.35694893E-05 -9.56829164E-05
  1.22255968E-04  1.00264327E-04  6.09119410E-05  3.84220832E-03 -7.46804786E-03
 -6.73804193E-03  4.19722377E-03 -7.11303242E-03 -6.38302648E-03  1.46070592E-02
  4.00009377E-03 -4.00181203E-03 -7.20352606E-04 -2.07860323E-03 -2.68900659E-03
 -1.03892676E-03  8.48658501E-03  6.29400346E-04 -1.72730486E-04  2.28610493E-04
  1.16540077E-04  4.04303165E-05  3.61179848E-04 -9.05257252E-05  5.84997710E-03
  6.50924860E-03 -5.46264754E-03 -6.10187554E-03 -8.08733612E-04 -3.29443119E-03
 -1.05624848E-02  7.00150825E-03 -3.43952407E-03 -9.55832565E-04  1.07902565E-02
  1.43851764E-03 -8.98090539E-04  3.19102217E-04 -9.14724192E-05 -1.07627629E-03
  2.92045063E-04  5.30005329E-05  3.87100211E-04  8.68190048E-05 -1.88322340E-04
 -1.19359003E-04 -2.49666199E-04 -7.92365618E-03  4.29781674E-03 -6.73804186E-03
 -8.02424899E-03  4.19722393E-03 -6.83863467E-03  3.29680302E-03  1.55182759E-02
  3.55360598E-03 -3.92404089E-03  2.58485576E-06  3.25175627E-05  2.21571851E-03
 -2.55967948E-03  6.96504881E-04 -1.13220112E-03  9.70566349E-04  1.73612516E-04
  2.70869258E-04  4.42456495E-05 -1.50697085E-04  1.92632858E-04  6.01479285E-03
  4.43332615E-03 -6.44136156E-03 -4.64090159E-03  3.17887951E-04 -6.11459808E-03
  4.32709382E-03  2.01991003E-03  4.81932429E-04  1.02699797E-02 -1.10633431E-02
 -2.56307022E-03  2.29445607E-03  3.21753899E-04  3.43117114E-05  1.35448130E-03
 -1.45844139E-03 -1.22487704E-04  1.71764814E-04  7.98055965E-05 -5.52578641E-05
 -9.54731189E-06 -7.21520894E-05 -6.77736262E-03 -6.32175424E-03  3.37083973E-03
 -6.83863491E-03 -6.38302652E-03  3.30956744E-03  4.02680896E-03  4.48241734E-03
  1.41750113E-02  2.25510434E-04  8.45661164E-04 -1.15801144E-03  9.26450840E-04
 -2.47916221E-03  1.79068169E-03 -2.05428845E-03 -7.32065748E-04 -3.02429376E-03
  7.74186468E-03  1.21678269E-05  3.24298875E-04  6.44146444E-04 -1.52225123E-03
  1.33816427E-03  3.66310147E-04  2.78531909E-05  4.02441294E-03 -4.24441779E-03
 -1.14388877E-02  1.07689863E-02  2.24473060E-03  5.68069720E-04  4.80839557E-03
 -7.05022401E-03 -8.93062529E-03 -2.97022983E-03  4.67627863E-03 -4.19714677E-03
  1.07683701E-02  5.40782585E-05 -9.37947729E-04  4.42869965E-05  2.48368430E-03
  1.75875513E-05 -6.93644347E-04 -1.00021153E-03  7.87968956E-04  4.89507122E-04
  3.53372422E-04 -2.61823513E-04 -5.60285347E-04 -6.96420047E-04 -1.53826954E-04
 -4.52288788E-04 -5.88423488E-04  1.43480316E-02 -2.25509879E-04  1.15801117E-03
 -8.45661306E-04 -9.26450084E-04 -1.79068202E-03  2.47916185E-03  2.05428949E-03
  3.02429406E-03  7.32066002E-04 -7.74186460E-03 -6.44146582E-04 -3.24297609E-04
 -1.21679765E-05 -1.33816478E-03  1.52225061E-03 -3.66309730E-04 -2.78534797E-05
  4.24441838E-03 -4.02441261E-03 -1.07689868E-02  1.14388870E-02 -2.24472861E-03
 -5.68069324E-04  7.05022324E-03 -4.80839608E-03  2.97022934E-03  8.93062486E-03
 -4.67627712E-03  4.19714702E-03 -5.40786246E-05 -1.07683706E-02 -2.48368423E-03
 -4.42853921E-05  9.37947439E-04  1.00021077E-03  6.93644301E-04 -1.75882056E-05
  4.89507147E-04  7.87969199E-04  3.53372483E-04 -4.52288807E-04 -1.53826755E-04
 -5.88423471E-04 -5.60285605E-04 -2.61823554E-04 -6.96420270E-04  2.73155452E-03
  1.43480314E-02  9.41277496E-10  1.15617591E-03 -1.15617626E-03  3.97456405E-10
 -1.78116785E-03  1.78116779E-03  7.93657797E-10 -1.78116785E-03  1.78116779E-03
  3.97556149E-10  1.15617591E-03  9.41277273E-10 -1.15617626E-03 -1.64663061E-03
  1.64662928E-03  1.05671562E-09 -1.80502704E-10  4.47466834E-03 -4.47466796E-03
 -1.12142936E-02  1.12142926E-02  1.63122276E-09  3.08015349E-10  5.89340969E-03
 -5.89341071E-03  5.89340969E-03 -5.89341071E-03  1.63116799E-09  3.07998720E-10
 -1.12142936E-02  1.12142926E-02  4.47466834E-03  1.05670454E-09 -4.47466796E-03
 -1.64663061E-03 -1.80529563E-10  1.64662928E-03  6.42392994E-04  6.42393197E-04
  2.33176715E-04 -3.10295083E-04 -3.10294880E-04 -7.19511362E-04 -3.10295100E-04
 -3.10294896E-04 -7.19511379E-04  3.82823979E-03  3.82823959E-03  1.39342475E-02
  5.49808368E-04 -2.98346915E-04  6.42311264E-04  8.66831512E-03 -1.43006011E-03
 -3.01477986E-03 -4.10857768E-03 -1.43006011E-03 -3.01477986E-03  8.66831512E-03
 -2.98346915E-04  5.49808368E-04  6.42311264E-04  1.41966922E-04 -1.30867653E-03
  4.10596087E-04 -6.65790976E-04 -1.38820313E-03  2.71393448E-03  1.05437759E-02
 -3.91227978E-04  6.92100760E-03 -3.62907735E-03 -1.00156394E-02 -4.12704313E-03
 -1.00156394E-02 -4.12704313E-03  6.92100760E-03 -3.62907735E-03  1.05437759E-02
 -3.91227978E-04 -1.38820313E-03  4.10596087E-04  2.71393448E-03  1.41966922E-04
 -6.65790976E-04 -1.30867653E-03  4.05506927E-04 -1.10222128E-03 -2.39425955E-04
  8.93403243E-04 -6.14324965E-04  2.48470361E-04  8.65597841E-04 -6.42130367E-04
  2.20664959E-04  4.68998096E-03 -7.49120989E-03 -6.27776792E-03  1.56577298E-02
  9.87880547E-05  1.40030917E-05  9.54661393E-04  6.81541420E-03 -7.41579912E-04
 -2.32629970E-03  2.55330809E-10  2.32629970E-03  7.41579901E-04 -6.81541415E-03
 -9.54661324E-04 -9.87881163E-05 -1.40031564E-05  3.26053378E-04 -1.12459019E-03
 -3.22023790E-04 -7.21497646E-04 -1.16819768E-03  2.93393965E-03  1.12136769E-02
  2.78672684E-04  2.43154839E-03 -4.76521640E-03 -7.77381175E-03 -1.88521519E-03
  1.88521522E-03  7.77381156E-03 -2.43154815E-03  4.76521643E-03 -2.78672793E-04
 -1.12136769E-02 -2.93393964E-03  3.22023698E-04  1.16819762E-03  1.12459014E-03
  7.21497672E-04 -3.26053208E-04  1.07045118E-04 -8.03759204E-04 -2.39425894E-04
  7.02937950E-04 -2.07866373E-04  3.56466937E-04  4.59139190E-04 -4.51665133E-04
  1.12668178E-04 -6.92649611E-03  4.12526697E-03 -6.27776812E-03  3.47653900E-03
  1.45283021E-02  3.24298875E-04  1.21678268E-05  6.44146444E-04  7.74186468E-03
 -7.32065748E-04 -3.02429376E-03 -2.05428845E-03 -2.47916221E-03  1.79068169E-03
  9.26450840E-04  8.45661164E-04  2.25510434E-04 -1.15801144E-03  1.75875513E-05
 -1.00021153E-03  4.42869965E-05 -6.93644347E-04 -9.37947729E-04  2.48368430E-03
  1.07683701E-02  5.40782585E-05  4.67627863E-03 -4.19714677E-03 -8.93062529E-03
 -2.97022983E-03  4.80839557E-03 -7.05022401E-03  2.24473060E-03  5.68069720E-04
 -1.14388877E-02  1.07689863E-02  4.02441294E-03  3.66310147E-04 -4.24441779E-03
 -1.52225123E-03  2.78531909E-05  1.33816427E-03  2.59930965E-04 -9.49335206E-04
 -3.59621662E-04  8.44931673E-04 -3.64334497E-04  2.25379047E-04  7.09129695E-04
 -5.00136475E-04  8.95770686E-05 -5.82981084E-03 -6.39452482E-03  3.82823979E-03
  4.68998096E-03  4.12526698E-03  1.43480316E-02 -9.87881163E-05 -9.54661324E-04
 -1.40031564E-05 -6.81541415E-03  2.32629970E-03  7.41579901E-04  2.55263055E-10
 -7.41579912E-04 -2.32629970E-03  6.81541420E-03  1.40030917E-05  9.87880547E-05
  9.54661393E-04  1.12459014E-03 -3.26053208E-04  3.22023698E-04  7.21497672E-04
 -2.93393964E-03  1.16819762E-03 -2.78672793E-04 -1.12136769E-02 -2.43154815E-03
  4.76521643E-03  1.88521522E-03  7.77381156E-03 -7.77381175E-03 -1.88521519E-03
  2.43154839E-03 -4.76521640E-03  1.12136769E-02  2.78672684E-04 -1.16819768E-03
 -3.22023790E-04  2.93393965E-03  3.26053378E-04 -7.21497646E-04 -1.12459019E-03
 -8.03759412E-04  1.07044943E-04 -2.39425983E-04 -4.51665231E-04  4.59139124E-04
  1.12668198E-04 -2.07866472E-04  7.02937883E-04  3.56466957E-04  4.12526698E-03
 -6.92649615E-03 -6.27776812E-03  3.47653900E-03 -7.57522413E-03 -6.92649611E-03
  1.45283021E-02 -5.49808430E-04 -6.42311317E-04  2.98346973E-04 -8.66831508E-03
  3.01477990E-03  1.43006006E-03  4.10857819E-03  3.01477990E-03  1.43006006E-03
 -8.66831508E-03 -6.42311317E-04 -5.49808430E-04  2.98346973E-04  1.30867660E-03
 -1.41966866E-04 -4.10596178E-04  6.65791002E-04 -2.71393419E-03  1.38820279E-03
  3.91228139E-04 -1.05437762E-02 -6.92100736E-03  3.62907739E-03  4.12704289E-03
  1.00156395E-02  4.12704289E-03  1.00156395E-02 -6.92100736E-03  3.62907739E-03
  3.91228139E-04 -1.05437762E-02 -2.71393419E-03 -4.10596178E-04  1.38820279E-03
  1.30867660E-03  6.65791002E-04 -1.41966866E-04 -1.10222122E-03  4.05507020E-04
 -2.39425922E-04 -6.42130525E-04  8.65597716E-04  2.20664774E-04 -6.14325123E-04
  8.93403118E-04  2.48470176E-04 -7.49121009E-03  4.68998071E-03 -6.27776832E-03
 -8.70465186E-03  3.47653894E-03 -7.49121009E-03  3.47653894E-03  1.56577297E-02
 -3.24297609E-04 -6.44146582E-04 -1.21679765E-05 -7.74186460E-03  3.02429406E-03
  7.32066002E-04  2.05428949E-03 -1.79068202E-03  2.47916185E-03 -9.26450084E-04
  1.15801117E-03 -2.25509879E-04 -8.45661307E-04  1.00021077E-03 -1.75882056E-05
 -4.42853921E-05  6.93644301E-04 -2.48368423E-03  9.37947439E-04 -5.40786246E-05
 -1.07683706E-02 -4.67627712E-03  4.19714702E-03  2.97022934E-03  8.93062486E-03
  7.05022324E-03 -4.80839608E-03 -2.24472861E-03 -5.68069324E-04 -1.07689868E-02
  1.14388870E-02  4.24441838E-03 -3.66309730E-04 -4.02441261E-03 -1.33816478E-03
 -2.78534797E-05  1.52225061E-03 -9.49335374E-04  2.59931018E-04 -3.59621690E-04
 -5.00136801E-04  7.09129592E-04  8.95768834E-05 -3.64334617E-04  8.44931775E-04
  2.25379067E-04 -6.39452482E-03 -5.82981108E-03  3.82823959E-03 -7.49120989E-03
 -6.92649615E-03  2.73155452E-03  4.12526697E-03  4.68998071E-03  1.43480314E-02
 -4.42461691E-05  1.50696894E-04 -2.70869367E-04 -1.73611274E-04 -9.70566830E-04
  1.13220077E-03 -6.96504307E-04  2.55967996E-03 -2.21571834E-03 -3.25173411E-05
 -2.58475832E-06 -3.55360540E-03  3.92404081E-03  7.21520876E-05  5.52580251E-05
 -1.71765449E-04  9.54728347E-06 -7.98053052E-05  1.22487929E-04  1.45844128E-03
 -1.35448146E-03 -3.21753146E-04 -3.43115854E-05 -2.29445629E-03  2.56306980E-03
  1.10633427E-02 -1.02699799E-02 -2.01990907E-03 -4.81932309E-04 -4.32709415E-03
  6.11459785E-03 -3.17888276E-04 -4.43332531E-03  4.64090129E-03 -6.01479293E-03
  6.44136169E-03 -1.92633130E-04  6.31445188E-04  6.12555820E-04 -1.48290147E-03
  7.09259189E-04  6.90369821E-04 -1.40508747E-03  6.69602177E-04  6.50712809E-04
 -1.44474448E-03  2.25379047E-04  8.95768833E-05 -7.19511362E-04  2.48470361E-04
  1.12668198E-04 -6.96420047E-04  3.56466937E-04  2.20664774E-04 -5.88423471E-04
  1.41750111E-02 -3.69870178E-10  2.57127969E-04 -2.57128050E-04  2.60598893E-10
 -1.02974569E-03  1.02974536E-03  2.13114503E-10  1.69851702E-03 -1.69851696E-03
  1.50196837E-10  3.48822867E-03  3.21656636E-11 -3.48822869E-03  9.10025926E-07
 -9.09492633E-07 -6.83840663E-10 -7.53214543E-11 -1.19351654E-04  1.19351906E-04
  1.50887530E-03 -1.50887494E-03 -4.80423901E-10 -3.29831104E-11 -2.55239966E-03
  2.55239984E-03  1.18042248E-02 -1.18042249E-02  1.81940482E-10  7.10994935E-12
 -7.00721910E-03  7.00721896E-03  4.71064420E-03  1.28976710E-10 -4.71064435E-03
  6.13498372E-03  6.43803104E-11 -6.13498376E-03  6.27462269E-04  6.27462102E-04
 -1.56279789E-03  7.07358687E-04  7.07358520E-04 -1.48290147E-03  7.07358618E-04
  7.07358451E-04 -1.48290154E-03 -3.59621662E-04 -3.59621690E-04  2.33176715E-04
 -2.39425955E-04 -2.39425983E-04  3.53372422E-04 -2.39425894E-04 -2.39425922E-04
  3.53372483E-04  3.37083971E-03  1.43415145E-02  4.42456495E-05  2.70869258E-04
 -1.50697085E-04  1.73612516E-04 -1.13220112E-03  9.70566349E-04  6.96504881E-04
  2.21571851E-03 -2.55967948E-03  3.25175626E-05 -3.92404089E-03  3.55360598E-03
  2.58485570E-06 -5.52578641E-05 -7.21520894E-05  1.71764814E-04 -9.54731188E-06
 -1.22487704E-04  7.98055965E-05  1.35448130E-03 -1.45844139E-03  3.21753899E-04
  3.43117114E-05 -2.56307022E-03  2.29445607E-03  1.02699797E-02 -1.10633431E-02
  2.01991003E-03  4.81932429E-04 -6.11459808E-03  4.32709382E-03 -4.64090159E-03
  4.43332615E-03  3.17887951E-04  1.92632858E-04 -6.44136156E-03  6.01479285E-03
  6.12555899E-04  6.31445273E-04 -1.48290154E-03  6.50712957E-04  6.69602331E-04
 -1.44474448E-03  6.90369670E-04  7.09259044E-04 -1.40508777E-03  8.95770686E-05
  2.25379067E-04 -7.19511379E-04  2.20664959E-04  3.56466957E-04 -5.88423488E-04
  1.12668178E-04  2.48470176E-04 -6.96420270E-04  3.30956744E-03  3.37083973E-03
  1.41750113E-02 -4.04299027E-05 -3.61179995E-04 -1.16540073E-04 -2.28610128E-04
  1.72730617E-04 -6.29400376E-04 -8.48658469E-03  1.03892668E-03  2.68900649E-03
  2.07860364E-03  7.20352512E-04 -4.00009339E-03  4.00181190E-03  2.49665920E-04
  1.88322056E-04 -3.87099752E-04  1.19358922E-04 -8.68188030E-05 -5.30005844E-05
 -2.92045137E-04  1.07627600E-03 -3.19101635E-04  9.14725358E-05  8.98090444E-04
 -1.43851790E-03 -1.07902571E-02  9.55832302E-04 -7.00150698E-03  3.43952426E-03
  1.05624846E-02  3.29443078E-03  8.08733789E-04 -6.50924800E-03  6.10187545E-03
 -5.84997742E-03  5.46264751E-03  9.05253380E-05 -1.64190889E-05 -5.83132694E-04
  7.07358687E-04 -1.45185871E-05 -5.81232192E-04  7.09259189E-04 -7.30648192E-05
 -6.39778424E-04  6.50712957E-04  8.44931673E-04 -5.00136801E-04 -3.10295083E-04
  8.93403243E-04 -4.51665231E-04 -2.61823513E-04  7.02937950E-04 -6.42130525E-04
 -4.52288807E-04  4.48241714E-03 -6.73804194E-03 -6.83863491E-03  1.55182758E-02
  3.81589658E-06 -2.54748919E-04 -1.02798757E-04 -5.49985927E-05  1.13551754E-04
 -7.31855778E-04 -7.79008017E-03  1.77763747E-04  3.20620787E-03  2.11112113E-03
  4.21116594E-03 -4.46487956E-04 -3.41045760E-03  1.78423858E-04  1.32154538E-04
 -2.15334987E-04  1.09811563E-04 -1.26365152E-04 -5.61366074E-05 -2.41611115E-04
  9.21882518E-04  2.65103117E-06  1.25784088E-04  6.40147075E-04 -1.44918786E-03
 -1.00493750E-02 -5.78412664E-04 -4.98159773E-03  3.92145658E-03  7.88235961E-03
  4.18705190E-03  5.83726627E-03 -2.07592256E-03 -3.24967019E-03  6.29979923E-03
 -9.78714112E-04 -5.85182529E-03 -2.04020078E-05 -5.68226411E-04  6.27462269E-04
 -1.64190889E-05 -5.64243492E-04  6.31445188E-04 -3.53083779E-05 -5.83132781E-04
  6.12555899E-04  2.59930965E-04 -9.49335374E-04  6.42392994E-04  4.05506927E-04
 -8.03759412E-04  7.87968956E-04  1.07045118E-04 -1.10222122E-03  4.89507147E-04
 -6.32175420E-03  4.23263284E-03 -6.77736262E-03  4.29781673E-03  1.48522038E-02
  4.80619160E-05 -2.41007631E-04  3.63220825E-06  1.18613662E-04  1.10963259E-05
 -7.91034793E-04 -7.09357550E-03  6.94965232E-04  2.34504535E-03  2.14363854E-03
 -3.20110362E-03  3.10711799E-03  8.03559416E-05  1.22255968E-04  6.09119410E-05
 -4.35694893E-05  1.00264327E-04 -1.29501202E-04 -9.56829164E-05 -3.96005113E-04
  9.72316070E-04  3.24405410E-04  1.60095833E-04  6.29476508E-04 -1.70713163E-03
 -1.15836201E-02  1.62469143E-04 -2.96168788E-03  4.40338900E-03  8.77498062E-03
  1.50692675E-03 -3.51427952E-03  2.35740346E-03  1.77886211E-03  3.57448375E-04
 -7.42007574E-03  6.29795131E-03 -3.53083778E-05 -5.64243241E-04  7.07358618E-04
 -7.30648192E-05 -6.01999682E-04  6.69602177E-04 -5.22973259E-05 -5.81232189E-04
  6.90369670E-04  7.09129695E-04 -3.64334617E-04 -3.10295100E-04  8.65597841E-04
 -2.07866472E-04 -1.53826954E-04  4.59139190E-04 -6.14325123E-04 -5.60285605E-04
 -6.38302648E-03 -6.73804193E-03  4.02680896E-03  4.19722377E-03  3.84220832E-03
  1.46070592E-02 -4.80615022E-05 -3.63228692E-06  2.41007566E-04 -1.18613298E-04
  7.91034637E-04 -1.10960688E-05  7.09357582E-03 -2.34504514E-03 -6.94965618E-04
 -2.14363813E-03 -8.03559008E-05 -3.10711761E-03  3.20110335E-03 -6.09123878E-05
 -1.22256084E-04  4.35699479E-05 -1.00264407E-04  9.56829315E-05  1.29501337E-04
 -9.72316318E-04  3.96004995E-04 -3.24404828E-04 -1.60095716E-04  1.70713157E-03
 -6.29476816E-04 -1.62469571E-04  1.15836196E-02  2.96168914E-03 -4.40338880E-03
 -1.50692726E-03 -8.77498081E-03 -1.77886222E-03 -2.35740286E-03  3.51427973E-03
 -6.29795152E-03  7.42007572E-03 -3.57448879E-04 -5.64243492E-04 -3.53085582E-05
  7.07358520E-04 -5.81232192E-04 -5.22972576E-05  6.90369821E-04 -6.01999682E-04
 -7.30647478E-05  6.69602331E-04 -3.64334497E-04  7.09129592E-04 -3.10294880E-04
 -6.14324965E-04  4.59139124E-04 -5.60285347E-04 -2.07866373E-04  8.65597716E-04
 -1.53826756E-04  4.02680895E-03 -6.73804187E-03 -6.38302652E-03  3.29680306E-03
 -7.46804776E-03 -7.11303242E-03  1.46070594E-02 -3.81570290E-06  1.02798789E-04
  2.54748883E-04  5.49982374E-05  7.31855774E-04 -1.13551471E-04  7.79008034E-03
 -3.20620807E-03 -1.77764241E-04 -2.11112064E-03  3.41045753E-03  4.46487823E-04
 -4.21116615E-03 -1.32154450E-04 -1.78423602E-04  2.15334713E-04 -1.09811766E-04
  5.61365831E-05  1.26365314E-04 -9.21882296E-04  2.41611511E-04 -2.65216202E-06
 -1.25784164E-04  1.44918821E-03 -6.40146775E-04  5.78412531E-04  1.00493747E-02
  4.98159840E-03 -3.92145649E-03 -4.18705220E-03 -7.88235969E-03  3.24967026E-03
  2.07592258E-03 -5.83726592E-03  5.85182513E-03  9.78714092E-04 -6.29979951E-03
 -5.68226411E-04 -2.04022760E-05  6.27462102E-04 -5.83132694E-04 -3.53085582E-05
  6.12555820E-04 -5.64243241E-04 -1.64191053E-05  6.31445273E-04 -9.49335206E-04
  2.59931018E-04  6.42393197E-04 -1.10222128E-03  1.07044943E-04  4.89507122E-04
 -8.03759204E-04  4.05507020E-04  7.87969199E-04 -6.77736240E-03  4.23263291E-03
 -6.32175424E-03 -7.92365603E-03  3.08633928E-03 -7.46804786E-03  3.84220858E-03
  1.48522039E-02  4.04303165E-05  1.16540077E-04  3.61179848E-04  2.28610493E-04
  6.29400346E-04 -1.72730486E-04  8.48658501E-03 -2.68900659E-03 -1.03892676E-03
 -2.07860323E-03 -4.00181203E-03  4.00009377E-03 -7.20352606E-04 -1.88322340E-04
 -2.49666199E-04  3.87100211E-04 -1.19359003E-04  5.30005329E-05  8.68190048E-05
 -1.07627629E-03  2.92045063E-04  3.19102217E-04 -9.14724192E-05  1.43851764E-03
 -8.98090539E-04 -9.55832565E-04  1.07902565E-02  7.00150825E-03 -3.43952407E-03
 -3.29443119E-03 -1.05624848E-02 -6.10187554E-03  6.50924860E-03 -8.08733612E-04
 -9.05257251E-05 -5.46264754E-03  5.84997710E-03 -5.83132781E-04 -1.64191053E-05
  7.07358451E-04 -6.39778424E-04 -7.30647478E-05  6.50712809E-04 -5.81232189E-04
 -1.45185126E-05  7.09259044E-04 -5.00136475E-04  8.44931775E-04 -3.10294896E-04
 -6.42130367E-04  7.02937883E-04 -4.52288788E-04 -4.51665133E-04  8.93403118E-04
 -2.61823554E-04 -6.83863467E-03 -6.73804186E-03  4.48241734E-03 -8.02424899E-03
 -7.92365618E-03  3.29680302E-03  4.19722393E-03  4.29781674E-03  1.55182759E-02
Mulliken Charges                           R   N=          14
 -7.70272634E-01  2.10377481E-01  2.10829746E-01  2.10829746E-01 -2.76411126E-01
  2.07323394E-01  2.07323394E-01 -2.76411126E-01  2.07323394E-01  2.07323394E-01
 -7.70272634E-01  2.10829746E-01  2.10377481E-01  2.10829746E-01
Optimization MaxStp                        I                2
Optimization Job offset                    I                0
Optimization Num results per geometry      I                2
Optimization Num geometry variables        I               42
Opt point       1 Results for each geome   R   N=           2
 -1.58418725E+02  0.00000000E+00
Opt point       1 Geometries               R   N=          42
 -1.33421300E+00  3.43941114E+00  2.22044605E-16 -3.25303215E+00  4.19813755E+00
  6.66133815E-16 -3.60435188E-01  4.17148917E+00 -1.66822387E+00 -3.60435188E-01
  4.17148917E+00  1.66822387E+00 -1.33421300E+00  5.52045934E-01  2.15105711E-16
 -2.35676256E+00 -1.46380169E-01 -1.65834404E+00 -2.35676256E+00 -1.46380169E-01
  1.65834404E+00  1.33421300E+00 -5.52045934E-01  6.93889390E-18  2.35676256E+00
  1.46380169E-01 -1.65834404E+00  2.35676256E+00  1.46380169E-01  1.65834404E+00
  1.33421300E+00 -3.43941114E+00  8.88178420E-16  3.60435188E-01 -4.17148917E+00
 -1.66822387E+00  3.25303215E+00 -4.19813755E+00  1.33226763E-15  3.60435188E-01
 -4.17148917E+00  1.66822387E+00
Opt point       1 Gradient at each geome   R   N=          42
  1.12764462E-06  2.14482655E-07 -2.82041839E-15  1.17927596E-06  2.54253000E-07
  2.89071444E-15  6.17238694E-07 -1.86510601E-07  5.11663011E-07  6.17238685E-07
 -1.86510586E-07 -5.11663021E-07  7.91805485E-07  2.05405806E-06  3.86469063E-15
 -3.66743270E-07 -8.79766265E-08  6.45679426E-07 -3.66743262E-07 -8.79766232E-08
 -6.45679428E-07 -7.91805541E-07 -2.05405808E-06 -6.63164096E-15  3.66743264E-07
  8.79766271E-08  6.45679439E-07  3.66743264E-07  8.79766278E-08 -6.45679453E-07
 -1.12764462E-06 -2.14482695E-07  2.90857556E-15 -6.17238690E-07  1.86510604E-07
  5.11663015E-07 -1.17927595E-06 -2.54252996E-07  1.63324215E-15 -6.17238691E-07
  1.86510600E-07 -5.11663016E-07
Optimization Number of geometries          I   N=           1
           1
ONIOM Charges                              I   N=          16
           0           0           0           0           0           0
           0           0           0           0           0           0
           0           0           0           0
ONIOM Multiplicities                       I   N=          16
           1           0           0           0           0           0
           0           0           0           0           0           0
           0           0           0           0
Atom Layers                                I   N=          14
           1           1           1           1           1           1
           1           1           1           1           1           1
           1           1
Atom Modifiers                             I   N=          14
           0           0           0           0           0           0
           0           0           0           0           0           0
           0           0
Force Field                                I                0
Atom Modified Types                        C   N=          14
                                                            
                                                            
                                                
Int Atom Modified Types                    I   N=          14
           0           0           0           0           0           0
           0           0           0           0           0           0
           0           0
Link Atoms                                 I   N=          14
           0           0           0           0           0           0
           0           0           0           0           0           0
           0           0
Atom Modified MM Charges                   R   N=          14
  0.00000000E+00  0.00000000E+00  0.00000000E+00  0.00000000E+00  0.00000000E+00
  0.00000000E+00  0.00000000E+00  0.00000000E+00  0.00000000E+00  0.00000000E+00
  0.00000000E+00  0.00000000E+00  0.00000000E+00  0.00000000E+00
Link Distances                             R   N=          56
  0.00000000E+00  0.00000000E+00  0.00000000E+00  0.00000000E+00  0.00000000E+00
  0.00000000E+00  0.00000000E+00  0.00000000E+00  0.00000000E+00  0.00000000E+00
  0.00000000E+00  0.00000000E+00  0.00000000E+00  0.00000000E+00  0.00000000E+00
  0.00000000E+00  0.00000000E+00  0.00000000E+00  0.00000000E+00  0.00000000E+00
  0.00000000E+00  0.00000000E+00  0.00000000E+00  0.00000000E+00  0.00000000E+00
  0.00000000E+00  0.00000000E+00  0.00000000E+00  0.00000000E+00  0.00000000E+00
  0.00000000E+00  0.00000000E+00  0.00000000E+00  0.00000000E+00  0.00000000E+00
  0.00000000E+00  0.00000000E+00  0.00000000E+00  0.00000000E+00  0.00000000E+00
  0.00000000E+00  0.00000000E+00  0.00000000E+00  0.00000000E+00  0.00000000E+00
  0.00000000E+00  0.00000000E+00  0.00000000E+00  0.00000000E+00  0.00000000E+00
  0.00000000E+00  0.00000000E+00  0.00000000E+00  0.00000000E+00  0.00000000E+00
  0.00000000E+00
Cartesian Gradient                         R   N=          42
  1.12764462E-06  2.14482655E-07 -2.82041839E-15  1.17927596E-06  2.54253000E-07
  2.89071444E-15  6.17238694E-07 -1.86510601E-07  5.11663011E-07  6.17238685E-07
 -1.86510586E-07 -5.11663021E-07  7.91805485E-07  2.05405806E-06  3.86469063E-15
 -3.66743270E-07 -8.79766265E-08  6.45679426E-07 -3.66743262E-07 -8.79766232E-08
 -6.45679428E-07 -7.91805541E-07 -2.05405808E-06 -6.63164096E-15  3.66743264E-07
  8.79766271E-08  6.45679439E-07  3.66743264E-07  8.79766278E-08 -6.45679453E-07
 -1.12764462E-06 -2.14482695E-07  2.90857556E-15 -6.17238690E-07  1.86510604E-07
  5.11663015E-07 -1.17927595E-06 -2.54252996E-07  1.63324215E-15 -6.17238691E-07
  1.86510600E-07 -5.11663016E-07
Cartesian Force Constants                  R   N=         903
  5.97230533E-01 -5.23780880E-03  4.94018359E-01 -5.48906545E-10 -3.21235122E-10
  5.88367145E-01 -2.90720003E-01  9.22119822E-02 -1.03223615E-10  3.13877519E-01
  9.11922462E-02 -8.40021922E-02  3.11960912E-10 -1.00774953E-01  9.14858057E-02
  4.05794836E-10  2.88952605E-10 -5.03757185E-02  9.96852783E-11  1.20593119E-11
  4.88619060E-02 -1.10977632E-01 -4.38829971E-02  1.03577129E-01 -1.41266451E-02
 -1.14351965E-02  2.64658554E-02  1.15716156E-01 -4.35998109E-02 -8.01780260E-02
  7.49963308E-02  4.69228819E-03  4.13584987E-03 -1.10539058E-02  4.86186302E-02
  8.89974092E-02  1.03539262E-01  7.56974628E-02 -2.29569809E-01 -4.74495836E-04
 -1.44900984E-03  8.93550277E-04 -1.15025146E-01 -8.32413570E-02  2.46825616E-01
 -1.10977632E-01 -4.38829968E-02 -1.03577129E-01 -1.41266450E-02 -1.14351957E-02
 -2.64658566E-02  8.55937787E-03  6.93828161E-03  1.36470275E-02  1.15716156E-01
 -4.35998112E-02 -8.01780259E-02 -7.49963310E-02  4.69228813E-03  4.13585023E-03
  1.10539061E-02  6.93828161E-03  3.80110152E-03  9.17671472E-03  4.86186302E-02
  8.89974092E-02 -1.03539261E-01 -7.56974628E-02 -2.29569809E-01  4.74495779E-04
  1.44900938E-03  8.93550233E-04 -1.36470275E-02 -9.17671472E-03 -2.18843849E-02
  1.15025146E-01  8.32413570E-02  2.46825616E-01 -8.19371005E-02 -2.50685491E-03
  1.03155564E-09  2.90044487E-03  3.39599464E-02 -3.80563549E-10 -7.22206581E-04
 -1.65012002E-02 -6.28561146E-04 -7.22205292E-04 -1.65011994E-02  6.28559728E-04
  5.28416504E-01 -4.92067600E-03 -2.09058341E-01  1.22717557E-09 -1.99081365E-03
 -1.03617157E-02 -1.17480000E-09 -2.79557682E-04 -1.27815771E-02 -4.01889537E-04
 -2.79556985E-04 -1.27815767E-02  4.01889027E-04  3.84332501E-02  5.07631714E-01
  2.05064085E-09  4.11015652E-10 -8.18978984E-02 -6.12093129E-12 -5.44308446E-10
 -1.45211176E-03 -4.10253797E-05  2.98081481E-02  9.13663704E-04  4.10220528E-05
 -2.98081469E-02  9.13663002E-04 -2.60732667E-09 -2.46014700E-09  6.12431755E-01
  5.14504562E-04  3.93693836E-04  1.01515069E-03  3.44203169E-04 -2.69124208E-04
  3.92975035E-04 -2.71838118E-04 -2.64400569E-04 -2.29982989E-04  7.91592570E-04
  3.94751260E-04  4.18527898E-05 -1.12099263E-01 -4.34646098E-02 -1.02243983E-01
  1.23109206E-01 -1.67988242E-02 -1.29268761E-02 -2.89349544E-02  5.88121704E-04
  1.23523167E-03 -6.72696367E-05 -3.48689108E-04  1.42218592E-03  4.95335012E-04
  4.98992327E-05 -7.16029609E-03  4.37218405E-04 -4.33100702E-02 -7.74602174E-02
 -6.91445889E-02  4.49933621E-02  8.72207023E-02  1.09651403E-03  6.93254647E-04
  1.18370215E-03  3.04013842E-04 -6.18911761E-04 -4.09156259E-05  3.46931021E-05
 -4.74748530E-04  7.56626730E-04  4.46881662E-04  4.78742557E-04  1.65252687E-03
 -1.02985819E-01 -6.99486594E-02 -2.24206677E-01  1.14101342E-01  7.73414018E-02
  2.40414916E-01  5.14504856E-04  3.93693788E-04 -1.01515103E-03  3.44203205E-04
 -2.69124272E-04 -3.92974312E-04  7.91592570E-04  3.94751260E-04 -4.18527898E-05
 -2.71838118E-04 -2.64400569E-04  2.29982989E-04 -1.12099263E-01 -4.34646101E-02
  1.02243984E-01  8.75765291E-03  6.30542132E-03 -1.32260461E-02  1.23109206E-01
 -1.67988241E-02 -1.29268761E-02  2.89349544E-02  5.88121815E-04  1.23523176E-03
  6.72697787E-05  4.98992327E-05 -7.16029609E-03 -4.37218405E-04 -3.48689108E-04
  1.42218592E-03 -4.95335012E-04 -4.33100703E-02 -7.74602172E-02  6.91445895E-02
  6.30542132E-03  3.72553130E-03 -8.85050486E-03  4.49933621E-02  8.72207023E-02
 -1.09651432E-03 -6.93254332E-04  1.18370243E-03 -3.04013974E-04  6.18911963E-04
 -4.09166224E-05 -4.46881662E-04 -4.78742557E-04  1.65252687E-03 -3.46931021E-05
  4.74748530E-04  7.56626730E-04  1.02985819E-01  6.99486603E-02 -2.24206680E-01
  1.32260461E-02  8.85050486E-03 -2.28226963E-02 -1.14101342E-01 -7.73414018E-02
  2.40414916E-01  9.27904791E-04  4.35671341E-03 -1.30943719E-09  1.04693802E-03
 -2.99016621E-03  1.43091684E-09  7.41405902E-04 -1.62769708E-03 -2.57046432E-05
  7.41406185E-04 -1.62769746E-03  2.57052042E-05 -1.91380706E-01  3.83896020E-02
 -1.57356865E-09 -1.79069287E-02  6.61772055E-03  2.57430895E-04 -1.79069276E-02
  6.61772185E-03 -2.57431468E-04  5.28416504E-01  3.54313330E-02 -1.69401349E-02
 -8.25047198E-10  4.95081257E-04 -7.19365590E-03 -5.39896512E-10  3.84064434E-04
  1.57353638E-03 -2.70223697E-04  3.84064495E-04  1.57353639E-03  2.70225354E-04
  3.83896020E-02 -9.32643457E-02 -4.74391849E-09 -9.55878069E-03  3.26149828E-03
  6.68497710E-05 -9.55878233E-03  3.26149748E-03 -6.68488743E-05  3.84332501E-02
  5.07631714E-01 -3.96052982E-10 -5.04815751E-09 -5.22359115E-04 -2.19946968E-09
  2.48087100E-09  1.98419710E-04 -1.00813037E-03  9.22583674E-04  1.69244222E-04
  1.00813088E-03 -9.22583288E-04  1.69243811E-04  1.57356612E-09  4.74391838E-09
 -8.23801008E-02 -2.78386775E-02  1.07503988E-02 -6.50832294E-05  2.78386767E-02
 -1.07503990E-02 -6.50810776E-05  2.60803946E-09  2.46030435E-09  6.12431755E-01
  1.08721641E-03 -1.57495355E-03  2.86555472E-04  2.34713316E-04 -1.53573279E-04
 -4.86905866E-04  3.54841381E-04  1.06181977E-03 -5.14839357E-04 -9.98036296E-06
  1.32485459E-04 -8.61431369E-05 -1.79069287E-02 -9.55878069E-03  2.78386775E-02
  1.08051970E-03 -7.46282464E-04 -4.16490421E-04 -5.98644228E-03  2.75019171E-03
 -3.17453890E-04 -1.12099263E-01 -4.34646098E-02  1.02243983E-01  1.23109206E-01
  2.10241991E-04  1.21150184E-03 -1.05597362E-03 -1.95045754E-04  1.34107749E-04
  9.11346657E-05 -4.61930788E-05 -9.97947948E-05  5.03886995E-04 -6.98569492E-05
 -1.43792295E-05 -7.60042925E-05  6.61772055E-03  3.26149828E-03 -1.07503988E-02
 -7.46282464E-04  1.37737734E-04  3.31098340E-04  2.75019171E-03 -6.86933434E-04
 -6.60956065E-05 -4.33100702E-02 -7.74602174E-02  6.91445889E-02  4.49933621E-02
  8.72207023E-02 -2.30970846E-04 -4.01977087E-05  2.18485659E-04 -1.68675477E-04
 -2.84123699E-04  2.47961279E-04  2.50721158E-04 -6.58534410E-04  1.35023275E-04
  7.89015033E-05  6.74739415E-05 -1.29449250E-04 -2.57430895E-04 -6.68497710E-05
 -6.50832294E-05  4.16490421E-04 -3.31098340E-04  8.45004203E-04 -3.17453890E-04
 -6.60956065E-05  1.81057534E-03  1.02985819E-01  6.99486594E-02 -2.24206677E-01
 -1.14101342E-01 -7.73414018E-02  2.40414916E-01  1.08721670E-03 -1.57495331E-03
 -2.86555445E-04  2.34713498E-04 -1.53573069E-04  4.86905956E-04 -9.98036296E-06
  1.32485459E-04  8.61431369E-05  3.54841381E-04  1.06181977E-03  5.14839357E-04
 -1.79069276E-02 -9.55878233E-03 -2.78386767E-02 -5.98644228E-03  2.75019171E-03
  3.17453890E-04  1.08051970E-03 -7.46282464E-04  4.16490421E-04 -1.12099263E-01
 -4.34646101E-02 -1.02243984E-01  8.75765291E-03  6.30542132E-03  1.32260461E-02
  1.23109206E-01  2.10242014E-04  1.21150237E-03  1.05597355E-03 -1.95045574E-04
  1.34108257E-04 -9.11345263E-05 -6.98569492E-05 -1.43792295E-05  7.60042925E-05
 -4.61930788E-05 -9.97947948E-05 -5.03886995E-04  6.61772185E-03  3.26149748E-03
  1.07503990E-02  2.75019171E-03 -6.86933434E-04  6.60956065E-05 -7.46282464E-04
  1.37737734E-04 -3.31098340E-04 -4.33100703E-02 -7.74602172E-02 -6.91445895E-02
  6.30542132E-03  3.72553130E-03  8.85050486E-03  4.49933621E-02  8.72207023E-02
  2.30970783E-04  4.01977959E-05  2.18485318E-04  1.68675494E-04  2.84123931E-04
  2.47962030E-04 -7.89015033E-05 -6.74739415E-05 -1.29449250E-04 -2.50721158E-04
  6.58534410E-04  1.35023275E-04  2.57431467E-04  6.68488743E-05 -6.50810775E-05
  3.17453890E-04  6.60956065E-05  1.81057534E-03 -4.16490421E-04  3.31098340E-04
  8.45004203E-04 -1.02985819E-01 -6.99486603E-02 -2.24206680E-01 -1.32260461E-02
 -8.85050486E-03 -2.28226963E-02  1.14101342E-01  7.73414018E-02  2.40414916E-01
 -6.88610804E-03  1.38648900E-03  2.15677909E-10 -2.53792436E-05  2.37897369E-03
 -2.48198774E-10  8.09864926E-05  7.31151595E-05 -3.69130326E-04  8.09863650E-05
  7.31151781E-05  3.69130098E-04  9.27904791E-04  3.54313330E-02  3.96052919E-10
  1.08721641E-03  2.10241991E-04  2.30970846E-04  1.08721670E-03  2.10242014E-04
 -2.30970783E-04 -8.19371005E-02 -4.92067600E-03 -2.05064116E-09  5.14504562E-04
 -1.67988242E-02 -1.09651403E-03  5.14504856E-04 -1.67988241E-02  1.09651432E-03
  5.97230533E-01  1.38648900E-03  6.27970989E-05 -4.58722964E-10 -3.48587175E-04
 -1.70980911E-04  4.32179903E-10  1.33287477E-04 -6.13539221E-05 -4.03563188E-05
  1.33287028E-04 -6.13541605E-05  4.03563163E-05  4.35671341E-03 -1.69401349E-02
  5.04815808E-09 -1.57495355E-03  1.21150184E-03  4.01977087E-05 -1.57495331E-03
  1.21150237E-03 -4.01977959E-05 -2.50685491E-03 -2.09058341E-01 -4.11019781E-10
  3.93693836E-04 -1.29268761E-02 -6.93254647E-04  3.93693788E-04 -1.29268761E-02
  6.93254332E-04 -5.23780880E-03  4.94018359E-01 -2.15677864E-10  4.58723061E-10
 -4.34024336E-04  2.93395388E-10  1.30876247E-11  6.06553696E-04 -1.15592912E-04
 -3.19226608E-04  2.95771534E-04  1.15592743E-04  3.19226606E-04  2.95771754E-04
  1.30943718E-09  8.25046735E-10 -5.22359115E-04 -2.86555472E-04  1.05597362E-03
  2.18485659E-04  2.86555445E-04 -1.05597355E-03  2.18485318E-04 -1.03155613E-09
 -1.22717821E-09 -8.18978984E-02 -1.01515069E-03  2.89349544E-02  1.18370215E-03
  1.01515103E-03 -2.89349544E-02  1.18370243E-03  5.49279872E-10  3.21326687E-10
  5.88367145E-01  8.09864927E-05  1.33287477E-04  1.15592912E-04  2.09171429E-05
 -5.50372897E-05 -4.10285155E-06 -3.52168315E-05 -5.64962401E-05  1.88366803E-05
 -1.21757774E-04  4.98610262E-05 -4.90397989E-05  7.41405902E-04  3.84064434E-04
  1.00813037E-03  3.54841381E-04 -4.61930788E-05 -2.50721158E-04 -9.98036296E-06
 -6.98569492E-05  7.89015033E-05 -7.22206581E-04 -2.79557682E-04  4.10253797E-05
 -2.71838118E-04 -3.48689108E-04 -3.46931021E-05  7.91592570E-04  4.98992327E-05
  4.46881662E-04 -1.10977632E-01 -4.38829971E-02 -1.03577129E-01  1.15716156E-01
  7.31151595E-05 -6.13539221E-05  3.19226608E-04  8.83726002E-05  4.15073027E-05
  9.58022320E-05 -5.64962401E-05  4.01336040E-06 -2.83602053E-05  4.98610262E-05
  3.19823526E-04  1.88914886E-04 -1.62769708E-03  1.57353638E-03 -9.22583674E-04
  1.06181977E-03 -9.97947948E-05  6.58534410E-04  1.32485459E-04 -1.43792295E-05
  6.74739415E-05 -1.65012002E-02 -1.27815771E-02 -2.98081481E-02 -2.64400569E-04
  1.42218592E-03  4.74748530E-04  3.94751260E-04 -7.16029609E-03  4.78742557E-04
 -4.35998109E-02 -8.01780260E-02 -7.49963308E-02  4.86186302E-02  8.89974092E-02
  3.69130326E-04  4.03563188E-05  2.95771534E-04  3.05965408E-05 -1.07927207E-04
 -1.99664718E-05 -1.88366803E-05  2.83602053E-05 -2.04623327E-05 -4.90397989E-05
  1.88914886E-04 -1.79484786E-05  2.57046432E-05  2.70223697E-04  1.69244222E-04
  5.14839357E-04 -5.03886995E-04  1.35023275E-04 -8.61431369E-05 -7.60042925E-05
 -1.29449250E-04  6.28561146E-04  4.01889537E-04  9.13663704E-04  2.29982989E-04
 -4.95335012E-04  7.56626730E-04  4.18527898E-05  4.37218405E-04  1.65252687E-03
 -1.03539262E-01 -7.56974628E-02 -2.29569809E-01  1.15025146E-01  8.32413570E-02
  2.46825616E-01 -2.53792436E-05 -3.48587175E-04 -2.93395409E-10 -2.59001185E-05
  5.98156422E-05  7.02190885E-10  2.09171429E-05  8.83726002E-05 -3.05965408E-05
  2.09170420E-05  8.83724616E-05  3.05964305E-05  1.04693802E-03  4.95081257E-04
  2.19946965E-09  2.34713316E-04 -1.95045754E-04  1.68675477E-04  2.34713498E-04
 -1.95045574E-04 -1.68675494E-04  2.90044487E-03 -1.99081365E-03  6.12094921E-12
  3.44203169E-04  5.88121704E-04 -3.04013842E-04  3.44203205E-04  5.88121815E-04
  3.04013974E-04 -2.90720003E-01  9.22119822E-02  1.03222772E-10 -1.41266451E-02
  4.69228819E-03  4.74495836E-04  3.13877519E-01  2.37897369E-03 -1.70980911E-04
 -1.30875934E-11  5.98156422E-05 -8.50654514E-04  1.86954287E-10 -5.50372897E-05
  4.15073027E-05  1.07927207E-04 -5.50373172E-05  4.15068363E-05 -1.07927058E-04
 -2.99016621E-03 -7.19365590E-03 -2.48087094E-09 -1.53573279E-04  1.34107749E-04
  2.84123699E-04 -1.53573069E-04  1.34108257E-04 -2.84123931E-04  3.39599464E-02
 -1.03617157E-02  5.44308476E-10 -2.69124208E-04  1.23523167E-03  6.18911761E-04
 -2.69124272E-04  1.23523176E-03 -6.18911963E-04  9.11922462E-02 -8.40021922E-02
 -3.11960787E-10 -1.14351965E-02  4.13584987E-03  1.44900984E-03 -1.00774953E-01
  9.14858057E-02  2.48198751E-10 -4.32179824E-10  6.06553696E-04 -7.02190888E-10
 -1.86954281E-10 -3.07577944E-07  4.10285155E-06 -9.58022320E-05 -1.99664718E-05
 -4.10270875E-06  9.58022860E-05 -1.99669468E-05 -1.43091681E-09  5.39896424E-10
  1.98419710E-04  4.86905866E-04 -9.11346657E-05  2.47961279E-04 -4.86905956E-04
  9.11345263E-05  2.47962030E-04  3.80563352E-10  1.17480028E-09 -1.45211176E-03
 -3.92975035E-04  6.72696367E-05 -4.09156259E-05  3.92974312E-04 -6.72697787E-05
 -4.09166224E-05 -4.05795429E-10 -2.88952664E-10 -5.03757185E-02 -2.64658554E-02
  1.10539058E-02  8.93550277E-04 -9.96844907E-11 -1.20594611E-11  4.88619060E-02
  8.09863650E-05  1.33287028E-04 -1.15592743E-04  2.09170420E-05 -5.50373172E-05
  4.10270875E-06 -1.21757774E-04  4.98610262E-05  4.90397989E-05 -3.52168315E-05
 -5.64962401E-05 -1.88366803E-05  7.41406185E-04  3.84064495E-04 -1.00813088E-03
 -9.98036296E-06 -6.98569492E-05 -7.89015033E-05  3.54841381E-04 -4.61930788E-05
  2.50721158E-04 -7.22205292E-04 -2.79556985E-04 -4.10220528E-05  7.91592570E-04
  4.98992327E-05 -4.46881662E-04 -2.71838118E-04 -3.48689108E-04  3.46931021E-05
 -1.10977632E-01 -4.38829968E-02  1.03577129E-01  8.55937787E-03  6.93828161E-03
 -1.36470275E-02 -1.41266450E-02 -1.14351957E-02  2.64658566E-02  1.15716156E-01
  7.31151781E-05 -6.13541605E-05 -3.19226606E-04  8.83724616E-05  4.15068363E-05
 -9.58022860E-05  4.98610262E-05  3.19823526E-04 -1.88914886E-04 -5.64962401E-05
  4.01336040E-06  2.83602053E-05 -1.62769746E-03  1.57353639E-03  9.22583288E-04
  1.32485459E-04 -1.43792295E-05 -6.74739415E-05  1.06181977E-03 -9.97947948E-05
 -6.58534410E-04 -1.65011994E-02 -1.27815767E-02  2.98081469E-02  3.94751260E-04
 -7.16029609E-03 -4.78742557E-04 -2.64400569E-04  1.42218592E-03 -4.74748530E-04
 -4.35998112E-02 -8.01780259E-02  7.49963310E-02  6.93828161E-03  3.80110152E-03
 -9.17671472E-03  4.69228813E-03  4.13585023E-03 -1.10539061E-02  4.86186302E-02
  8.89974092E-02 -3.69130098E-04 -4.03563163E-05  2.95771754E-04 -3.05964305E-05
  1.07927058E-04 -1.99669468E-05  4.90397989E-05 -1.88914886E-04 -1.79484786E-05
  1.88366803E-05 -2.83602053E-05 -2.04623327E-05 -2.57052042E-05 -2.70225354E-04
  1.69243811E-04  8.61431369E-05  7.60042925E-05 -1.29449250E-04 -5.14839357E-04
  5.03886995E-04  1.35023275E-04 -6.28559728E-04 -4.01889027E-04  9.13663002E-04
 -4.18527898E-05 -4.37218405E-04  1.65252687E-03 -2.29982989E-04  4.95335012E-04
  7.56626730E-04  1.03539261E-01  7.56974628E-02 -2.29569809E-01  1.36470275E-02
  9.17671472E-03 -2.18843849E-02 -4.74495779E-04 -1.44900938E-03  8.93550233E-04
 -1.15025146E-01 -8.32413570E-02  2.46825616E-01
Nonadiabatic coupling                      R   N=          42
  0.00000000E+00 -0.00000000E+00  0.00000000E+00  0.00000000E+00 -0.00000000E+00
  0.00000000E+00  0.00000000E+00 -0.00000000E+00  0.00000000E+00  0.00000000E+00
 -0.00000000E+00  0.00000000E+00  0.00000000E+00 -0.00000000E+00  0.00000000E+00
  0.00000000E+00 -0.00000000E+00  0.00000000E+00  0.00000000E+00 -0.00000000E+00
  0.00000000E+00  0.00000000E+00 -0.00000000E+00  0.00000000E+00  0.00000000E+00
 -0.00000000E+00  0.00000000E+00  0.00000000E+00 -0.00000000E+00  0.00000000E+00
  0.00000000E+00 -0.00000000E+00  0.00000000E+00  0.00000000E+00 -0.00000000E+00
  0.00000000E+00  0.00000000E+00 -0.00000000E+00  0.00000000E+00  0.00000000E+00
 -0.00000000E+00  0.00000000E+00
Dipole Moment                              R   N=           3
 -3.95475051E-21 -1.77635308E-15 -2.37641985E-15
Dipole Derivatives                         R   N=         126
  7.66506177E-02  5.31817002E-02 -4.06347282E-09  1.57884703E-02 -6.97371031E-03
 -8.12914084E-10 -6.69127070E-10 -2.26958582E-09  1.23783381E-01 -1.41755882E-01
  1.21998642E-01  8.98647497E-10  7.67858543E-02 -2.62356024E-02 -4.79279814E-10
 -1.21706197E-09 -3.00044203E-09  7.86279280E-02  1.62536391E-02 -6.82396761E-02
  9.93661588E-02 -1.66182615E-02  6.61864709E-03  2.96126548E-02  9.03003730E-02
  8.58951547E-02 -8.94544700E-02  1.62536365E-02 -6.82396795E-02 -9.93661463E-02
 -1.66182652E-02  6.61864732E-03 -2.96126588E-02 -9.03003721E-02 -8.58951492E-02
 -8.94544676E-02  8.68729852E-02  8.30991792E-03  1.40098874E-09  2.76169889E-02
  6.91278228E-02  2.36392213E-09 -4.07643520E-09  6.65413104E-09  1.65907575E-01
 -2.71374971E-02 -2.35054568E-02 -7.52452895E-02 -4.34773941E-02 -2.45779021E-02
 -7.67884217E-02 -1.10799579E-01 -7.80389027E-02 -9.47049769E-02 -2.71374972E-02
 -2.35054559E-02  7.52452834E-02 -4.34773929E-02 -2.45779036E-02  7.67884196E-02
  1.10799579E-01  7.80389065E-02 -9.47049667E-02  8.68729718E-02  8.30992069E-03
  4.02646929E-09  2.76169822E-02  6.91278162E-02  1.36782909E-08  1.55446030E-09
 -1.82134263E-08  1.65907567E-01 -2.71374921E-02 -2.35054511E-02  7.52452773E-02
 -4.34773891E-02 -2.45778913E-02  7.67884103E-02  1.10799577E-01  7.80389077E-02
 -9.47049706E-02 -2.71374961E-02 -2.35054602E-02 -7.52452790E-02 -4.34773920E-02
 -2.45779048E-02 -7.67884118E-02 -1.10799582E-01 -7.80389017E-02 -9.47049779E-02
  7.66506313E-02  5.31817093E-02 -3.61281366E-10  1.57884732E-02 -6.97369518E-03
 -1.45158189E-08 -1.71253601E-09 -7.36990760E-09  1.23783385E-01  1.62536387E-02
 -6.82396771E-02 -9.93661552E-02 -1.66182637E-02  6.61864250E-03 -2.96126462E-02
 -9.03003723E-02 -8.58951549E-02 -8.94544629E-02 -1.41755884E-01  1.21998638E-01
 -7.09488013E-09  7.67858545E-02 -2.62356098E-02  6.02143678E-09  8.95753565E-09
  8.97023736E-09  7.86279130E-02  1.62536353E-02 -6.82396773E-02  9.93661557E-02
 -1.66182620E-02  6.61865078E-03  2.96126476E-02  9.03003730E-02  8.58951547E-02
 -8.94544606E-02
Polarizability                             R   N=           6
  4.65887140E+01 -2.56717880E+00  5.19057407E+01 -2.72845275E-08  4.96999064E-09
  4.35963924E+01
Quadrupole Moment                          R   N=           6
  9.39846593E-02 -5.79261310E-01  4.85276650E-01 -1.37415132E-02  1.04083409E-17
  4.44089210E-16
QEq coupling tensors                       R   N=          84
  1.90102342E-02 -5.68736460E-03 -4.05809908E-02 -1.27861046E-14  2.52228793E-15
  2.15707567E-02 -2.38611039E-01  1.51341293E-01  8.68184004E-02  2.25514052E-16
 -6.93889390E-17  1.51792638E-01  5.18483969E-02 -7.28440446E-02  8.98607888E-02
  1.70768656E-01  1.25618549E-01 -1.41709186E-01  5.18483969E-02 -7.28440446E-02
  8.98607888E-02 -1.70768656E-01 -1.25618549E-01 -1.41709186E-01 -1.13349566E-02
  6.48768297E-03 -3.25790058E-02 -2.20232903E-14 -1.56593488E-14  4.39139624E-02
  3.99744698E-02 -6.93459917E-02  9.40652070E-02 -1.72857851E-01 -1.18318674E-01
 -1.34039677E-01  3.99744698E-02 -6.93459917E-02  9.40652070E-02  1.72857851E-01
  1.18318674E-01 -1.34039677E-01 -1.13349566E-02  6.48768297E-03 -3.25790058E-02
  1.55597106E-14  2.12330153E-15  4.39139624E-02  3.99744698E-02 -6.93459917E-02
  9.40652070E-02  1.72857851E-01  1.18318674E-01 -1.34039677E-01  3.99744698E-02
 -6.93459917E-02  9.40652070E-02 -1.72857851E-01 -1.18318674E-01 -1.34039677E-01
  1.90102342E-02 -5.68736460E-03 -4.05809908E-02 -2.25037003E-15 -1.78329573E-14
  2.15707567E-02  5.18483969E-02 -7.28440446E-02  8.98607888E-02 -1.70768656E-01
 -1.25618549E-01 -1.41709186E-01 -2.38611039E-01  1.51341293E-01  8.68184004E-02
 -1.42247325E-16  4.85722573E-17  1.51792638E-01  5.18483969E-02 -7.28440446E-02
  8.98607888E-02  1.70768656E-01  1.25618549E-01 -1.41709186E-01
Number of Normal Modes                     I               36
Vib-LE2Fix                                 I               14
Vib-NDFDPol                                I                0
Vib-NumROA                                 I                0
Vib-NDim                                   I               14
Vib-NDim0                                  I               14
Vib-LFlags                                 I                8
Vib-IFlags                                 I   N=         288
           0           0           1           0           0           0
           0           0           0           0           2           0
           0           0           0           0           0           0
           3           0           0           0           0           0
           0           0           4           0           0           0
           0           0           0           0           5           0
           0           0           0           0           0           0
           6           0           0           0           0           0
           0           0           7           0           0           0
           0           0           0           0           8           0
           0           0           0           0           0           0
           9           0           0           0           0           0
           0           0          10           0           0           0
           0           0           0           0          11           0
           0           0           0           0           0           0
          12           0           0           0           0           0
           0           0          13           0           0           0
           0           0           0           0          14           0
           0           0           0           0           0           0
          15           0           0           0           0           0
           0           0          16           0           0           0
           0           0           0           0          17           0
           0           0           0           0           0           0
          18           0           0           0           0           0
           0           0          19           0           0           0
           0           0           0           0          20           0
           0           0           0           0           0           0
          21           0           0           0           0           0
           0           0          22           0           0           0
           0           0           0           0          23           0
           0           0           0           0           0           0
          24           0           0           0           0           0
           0           0          25           0           0           0
           0           0           0           0          26           0
           0           0           0           0           0           0
          27           0           0           0           0           0
           0           0          28           0           0           0
           0           0           0           0          29           0
           0           0           0           0           0           0
          30           0           0           0           0           0
           0           0          31           0           0           0
           0           0           0           0          32           0
           0           0           0           0           0           0
          33           0           0           0           0           0
           0           0          34           0           0           0
           0           0           0           0          35           0
           0           0           0           0           0           0
          36           0           0           0           0           0
Vib-AtMass                                 R   N=          14
  1.20000000E+01  1.00782504E+00  1.00782504E+00  1.00782504E+00  1.20000000E+01
  1.00782504E+00  1.00782504E+00  1.20000000E+01  1.00782504E+00  1.00782504E+00
  1.20000000E+01  1.00782504E+00  1.00782504E+00  1.00782504E+00
Vib-E2                                     R   N=         504
  1.19162523E+02  2.23063047E+02  2.58747908E+02  2.59453465E+02  4.29156695E+02
  7.43232731E+02  8.22637464E+02  8.63532222E+02  9.72808477E+02  9.93002251E+02
  1.04778550E+03  1.09361987E+03  1.19191853E+03  1.22825298E+03  1.30694414E+03
  1.33908428E+03  1.34760110E+03  1.42352224E+03  1.44543173E+03  1.44772895E+03
  1.52659943E+03  1.53005108E+03  1.54026397E+03  1.54158735E+03  1.54504496E+03
  1.54868032E+03  3.08397016E+03  3.09145509E+03  3.10104432E+03  3.10191289E+03
  3.10447004E+03  3.12717042E+03  3.16153170E+03  3.16512290E+03  3.17166469E+03
  3.17218115E+03  1.87915702E+00  1.07405212E+00  2.25213683E+00  1.12124538E+00
  2.71840933E+00  1.07011036E+00  1.12316578E+00  1.92055741E+00  1.11475610E+00
  1.24684963E+00  3.07003673E+00  2.17883943E+00  2.06147921E+00  1.73961247E+00
  1.24852994E+00  1.35560123E+00  1.07082431E+00  1.56321824E+00  1.30896162E+00
  1.26046764E+00  1.07123639E+00  1.05914762E+00  1.04476850E+00  1.03720631E+00
  1.06124493E+00  1.08075910E+00  1.05894339E+00  1.05959081E+00  1.03591184E+00
  1.03623426E+00  1.10180204E+00  1.10525691E+00  1.10326016E+00  1.10292738E+00
  1.10181729E+00  1.10159248E+00  1.57214521E-02  3.14869662E-02  8.88379786E-02
  4.44702754E-02  2.94982899E-01  3.48279911E-01  4.47827783E-01  8.43790423E-01
  6.21562423E-01  7.24377158E-01  1.98581386E+00  1.53535289E+00  1.72552917E+00
  1.54624521E+00  1.25650209E+00  1.43218123E+00  1.14575335E+00  1.86637252E+00
  1.61128470E+00  1.55652616E+00  1.47090867E+00  1.46089350E+00  1.46036221E+00
  1.45228425E+00  1.49261594E+00  1.52722374E+00  5.93394179E+00  5.96642616E+00
  5.86933562E+00  5.87445179E+00  6.25646070E+00  6.36819775E+00  6.49715485E+00
  6.50995937E+00  6.53031783E+00  6.53111187E+00  1.75167332E-02  5.09618997E-04
  5.68126255E-03  2.34313831E-12  9.51251323E-15  3.27847828E+00  2.83572265E-13
  1.83390914E-14  1.18262664E+00  8.06005706E+00  1.61724481E-01  1.38201834E-16
  1.28071948E-14  1.31786129E-14  3.69574528E-01  8.16022193E-01  7.47014833E-16
  1.29172814E-14  8.57536056E-14  1.05514889E+01  4.25779889E-13  2.14830128E+00
  3.01401264E-12  1.95388454E+01  8.13539587E-13  1.27744099E+01  2.05450965E-14
  5.32372189E+01  8.12224986E+01  4.58290708E-15  4.81851575E-12  2.39618806E+01
  3.87488425E-13  1.22556817E+02  1.73169880E-13  8.11102536E+01  0.00000000E+00
  0.00000000E+00  0.00000000E+00  0.00000000E+00  0.00000000E+00  0.00000000E+00
  0.00000000E+00  0.00000000E+00  0.00000000E+00  0.00000000E+00  0.00000000E+00
  0.00000000E+00  0.00000000E+00  0.00000000E+00  0.00000000E+00  0.00000000E+00
  0.00000000E+00  0.00000000E+00  0.00000000E+00  0.00000000E+00  0.00000000E+00
  0.00000000E+00  0.00000000E+00  0.00000000E+00  0.00000000E+00  0.00000000E+00
  0.00000000E+00  0.00000000E+00  0.00000000E+00  0.00000000E+00  0.00000000E+00
  0.00000000E+00  0.00000000E+00  0.00000000E+00  0.00000000E+00  0.00000000E+00
  0.00000000E+00  0.00000000E+00  0.00000000E+00  0.00000000E+00  0.00000000E+00
  0.00000000E+00  0.00000000E+00  0.00000000E+00  0.00000000E+00  0.00000000E+00
  0.00000000E+00  0.00000000E+00  0.00000000E+00  0.00000000E+00  0.00000000E+00
  0.00000000E+00  0.00000000E+00  0.00000000E+00  0.00000000E+00  0.00000000E+00
  0.00000000E+00  0.00000000E+00  0.00000000E+00  0.00000000E+00  0.00000000E+00
  0.00000000E+00  0.00000000E+00  0.00000000E+00  0.00000000E+00  0.00000000E+00
  0.00000000E+00  0.00000000E+00  0.00000000E+00  0.00000000E+00  0.00000000E+00
  0.00000000E+00  0.00000000E+00  0.00000000E+00  0.00000000E+00  0.00000000E+00
  0.00000000E+00  0.00000000E+00  0.00000000E+00  0.00000000E+00  0.00000000E+00
  0.00000000E+00  0.00000000E+00  0.00000000E+00  0.00000000E+00  0.00000000E+00
  0.00000000E+00  0.00000000E+00  0.00000000E+00  0.00000000E+00  0.00000000E+00
  0.00000000E+00  0.00000000E+00  0.00000000E+00  0.00000000E+00  0.00000000E+00
  0.00000000E+00  0.00000000E+00  0.00000000E+00  0.00000000E+00  0.00000000E+00
  0.00000000E+00  0.00000000E+00  0.00000000E+00  0.00000000E+00  0.00000000E+00
  0.00000000E+00  0.00000000E+00  0.00000000E+00  0.00000000E+00  0.00000000E+00
  0.00000000E+00  0.00000000E+00  0.00000000E+00  0.00000000E+00  0.00000000E+00
  0.00000000E+00  0.00000000E+00  0.00000000E+00  0.00000000E+00  0.00000000E+00
  0.00000000E+00  0.00000000E+00  0.00000000E+00  0.00000000E+00  0.00000000E+00
  0.00000000E+00  0.00000000E+00  0.00000000E+00  0.00000000E+00  0.00000000E+00
  0.00000000E+00  0.00000000E+00  0.00000000E+00  0.00000000E+00  0.00000000E+00
  0.00000000E+00  0.00000000E+00  0.00000000E+00  0.00000000E+00  0.00000000E+00
  0.00000000E+00  0.00000000E+00  0.00000000E+00  0.00000000E+00  0.00000000E+00
  0.00000000E+00  0.00000000E+00  0.00000000E+00  0.00000000E+00  0.00000000E+00
  0.00000000E+00  0.00000000E+00  0.00000000E+00  0.00000000E+00  0.00000000E+00
  0.00000000E+00  0.00000000E+00  0.00000000E+00  0.00000000E+00  0.00000000E+00
  0.00000000E+00  0.00000000E+00  0.00000000E+00  0.00000000E+00  0.00000000E+00
  0.00000000E+00  0.00000000E+00  0.00000000E+00  0.00000000E+00  0.00000000E+00
  0.00000000E+00  0.00000000E+00  0.00000000E+00  0.00000000E+00  0.00000000E+00
  0.00000000E+00  0.00000000E+00  0.00000000E+00  0.00000000E+00  1.00000000E+02
  1.00000000E+02  1.00000000E+02  1.00000000E+02  1.00000000E+02  1.00000000E+02
  1.00000000E+02  1.00000000E+02  1.00000000E+02  1.00000000E+02  1.00000000E+02
  1.00000000E+02  1.00000000E+02  1.00000000E+02  1.00000000E+02  1.00000000E+02
  1.00000000E+02  1.00000000E+02  1.00000000E+02  1.00000000E+02  1.00000000E+02
  1.00000000E+02  1.00000000E+02  1.00000000E+02  1.00000000E+02  1.00000000E+02
  1.00000000E+02  1.00000000E+02  1.00000000E+02  1.00000000E+02  1.00000000E+02
  1.00000000E+02  1.00000000E+02  1.00000000E+02  1.00000000E+02  1.00000000E+02
  0.00000000E+00  0.00000000E+00  0.00000000E+00  0.00000000E+00  0.00000000E+00
  0.00000000E+00  0.00000000E+00  0.00000000E+00  0.00000000E+00  0.00000000E+00
  0.00000000E+00  0.00000000E+00  0.00000000E+00  0.00000000E+00  0.00000000E+00
  0.00000000E+00  0.00000000E+00  0.00000000E+00  0.00000000E+00  0.00000000E+00
  0.00000000E+00  0.00000000E+00  0.00000000E+00  0.00000000E+00  0.00000000E+00
  0.00000000E+00  0.00000000E+00  0.00000000E+00  0.00000000E+00  0.00000000E+00
  0.00000000E+00  0.00000000E+00  0.00000000E+00  0.00000000E+00  0.00000000E+00
  0.00000000E+00  0.00000000E+00  0.00000000E+00  0.00000000E+00  0.00000000E+00
  0.00000000E+00  0.00000000E+00  0.00000000E+00  0.00000000E+00  0.00000000E+00
  0.00000000E+00  0.00000000E+00  0.00000000E+00  0.00000000E+00  0.00000000E+00
  0.00000000E+00  0.00000000E+00  0.00000000E+00  0.00000000E+00  0.00000000E+00
  0.00000000E+00  0.00000000E+00  0.00000000E+00  0.00000000E+00  0.00000000E+00
  0.00000000E+00  0.00000000E+00  0.00000000E+00  0.00000000E+00  0.00000000E+00
  0.00000000E+00  0.00000000E+00  0.00000000E+00  0.00000000E+00  0.00000000E+00
  0.00000000E+00  0.00000000E+00  0.00000000E+00  0.00000000E+00  0.00000000E+00
  0.00000000E+00  0.00000000E+00  0.00000000E+00  0.00000000E+00  0.00000000E+00
  0.00000000E+00  0.00000000E+00  0.00000000E+00  0.00000000E+00  0.00000000E+00
  0.00000000E+00  0.00000000E+00  0.00000000E+00  0.00000000E+00  0.00000000E+00
  0.00000000E+00  0.00000000E+00  0.00000000E+00  0.00000000E+00  0.00000000E+00
  0.00000000E+00  0.00000000E+00  0.00000000E+00  0.00000000E+00  0.00000000E+00
  0.00000000E+00  0.00000000E+00  0.00000000E+00  0.00000000E+00  0.00000000E+00
  0.00000000E+00  0.00000000E+00  0.00000000E+00  0.00000000E+00  0.00000000E+00
  0.00000000E+00  0.00000000E+00  0.00000000E+00  0.00000000E+00  0.00000000E+00
  0.00000000E+00  0.00000000E+00  0.00000000E+00  0.00000000E+00  0.00000000E+00
  0.00000000E+00  0.00000000E+00  0.00000000E+00  0.00000000E+00  0.00000000E+00
  0.00000000E+00  0.00000000E+00  0.00000000E+00  0.00000000E+00  0.00000000E+00
  0.00000000E+00  0.00000000E+00  0.00000000E+00  0.00000000E+00  0.00000000E+00
  0.00000000E+00  0.00000000E+00  0.00000000E+00  0.00000000E+00  0.00000000E+00
  0.00000000E+00  0.00000000E+00  0.00000000E+00  0.00000000E+00
Vib-Modes                                  R   N=        1512
  4.69568467E-09 -6.74697362E-09 -1.34577679E-01  5.80001975E-09 -8.65225395E-09
 -3.02679971E-02 -1.58115147E-01 -1.70388654E-01 -3.01269321E-01  1.58115164E-01
  1.70388630E-01 -3.01269320E-01 -1.29447663E-09 -6.42208613E-09  1.46707335E-01
 -5.79529811E-02 -1.48126324E-01  2.44190454E-01  5.79529805E-02  1.48126310E-01
  2.44190455E-01  1.29367737E-09  6.42194401E-09  1.46707335E-01  5.79529811E-02
  1.48126324E-01  2.44190454E-01 -5.79529805E-02 -1.48126310E-01  2.44190455E-01
 -4.69497151E-09  6.74697457E-09 -1.34577679E-01  1.58115147E-01  1.70388654E-01
 -3.01269321E-01 -5.79886833E-09  8.65336372E-09 -3.02679971E-02 -1.58115164E-01
 -1.70388630E-01 -3.01269320E-01  3.23091170E-09 -6.62197807E-09  3.48265497E-02
  5.68061370E-09 -1.84123347E-09  4.57098152E-01 -3.43407195E-01  5.84117996E-02
 -1.39185860E-01  3.43407209E-01 -5.84118204E-02 -1.39185860E-01 -7.30947775E-10
 -4.32230157E-09 -4.24214127E-02 -1.87309923E-02  3.18021182E-02 -4.41478499E-02
  1.87309914E-02 -3.18021282E-02 -4.41478494E-02  7.30740189E-10  4.32227621E-09
 -4.24214127E-02  1.87309923E-02 -3.18021182E-02 -4.41478499E-02 -1.87309914E-02
  3.18021282E-02 -4.41478494E-02 -3.23079897E-09  6.62201657E-09  3.48265497E-02
  3.43407195E-01 -5.84117996E-02 -1.39185860E-01 -5.68028323E-09  1.84177293E-09
  4.57098152E-01 -3.43407209E-01  5.84118204E-02 -1.39185860E-01 -1.52378464E-01
  2.61000352E-03  5.96026667E-08 -2.65778090E-01 -2.81341747E-01 -9.14036430E-06
 -2.67010723E-01  1.47125109E-01 -2.91176040E-03 -2.67025792E-01  1.47127346E-01
  2.91965814E-03  1.82495803E-01  8.31646641E-03  1.67245542E-06  2.20603941E-01
 -7.15061340E-02  8.42737040E-03  2.20608671E-01 -7.15041798E-02 -8.42029912E-03
  1.82495803E-01  8.31646641E-03 -1.67245471E-06  2.20603941E-01 -7.15061339E-02
 -8.42737040E-03  2.20608671E-01 -7.15041798E-02  8.42029912E-03 -1.52378464E-01
  2.61000352E-03 -5.96033145E-08 -2.67010723E-01  1.47125109E-01  2.91176040E-03
 -2.65778090E-01 -2.81341747E-01  9.14036526E-06 -2.67025792E-01  1.47127346E-01
 -2.91965814E-03 -1.76704864E-06  3.03016922E-08 -2.53943871E-03 -3.08744625E-06
 -3.27642086E-06  3.92033409E-01 -3.23312142E-01  4.80328904E-02 -1.69421711E-01
  3.23305945E-01 -4.80294724E-02 -1.69421644E-01  2.11687471E-06  9.69567607E-08
 -7.17822499E-02  1.01420082E-01  4.18631954E-02 -1.51650111E-01 -1.01414963E-01
 -4.18648522E-02 -1.51650304E-01  2.11687477E-06  9.69567940E-08  7.17822499E-02
  1.01420082E-01  4.18631954E-02  1.51650111E-01 -1.01414963E-01 -4.18648522E-02
  1.51650304E-01 -1.76704860E-06  3.03016640E-08  2.53943871E-03 -3.23312142E-01
  4.80328904E-02  1.69421711E-01 -3.08744631E-06 -3.27642111E-06 -3.92033409E-01
  3.23305945E-01 -4.80294724E-02  1.69421644E-01 -1.07804862E-01  2.07834876E-01
 -4.96656904E-09 -2.00856236E-01 -2.15302835E-02  3.47674037E-08 -2.07995640E-01
  3.25268084E-01 -6.06546506E-03 -2.07995570E-01  3.25268088E-01  6.06541362E-03
  3.25167331E-02  1.48103412E-01  4.66359533E-09 -2.30032210E-02  2.02389943E-01
  1.01434715E-02 -2.30032132E-02  2.02389957E-01 -1.01434513E-02 -3.25167331E-02
 -1.48103412E-01  4.66371707E-09  2.30032210E-02 -2.02389943E-01  1.01434715E-02
  2.30032132E-02 -2.02389957E-01 -1.01434513E-02  1.07804862E-01 -2.07834876E-01
 -4.96654451E-09  2.07995640E-01 -3.25268084E-01 -6.06546506E-03  2.00856236E-01
  2.15302835E-02  3.47670054E-08  2.07995570E-01 -3.25268088E-01  6.06541362E-03
  1.20359751E-09 -6.95305369E-10  8.04645345E-03 -2.97989348E-09 -1.22436145E-08
 -6.05430656E-02 -3.82844748E-02 -1.74178765E-01 -9.25480766E-02  3.82844721E-02
  1.74178767E-01 -9.25480753E-02 -8.13992785E-10  1.19248051E-09  5.26157876E-02
  3.45197188E-01  1.74414263E-01 -2.38327845E-01 -3.45197190E-01 -1.74414259E-01
 -2.38327845E-01  8.13938410E-10 -1.19259766E-09  5.26157876E-02 -3.45197188E-01
 -1.74414263E-01 -2.38327845E-01  3.45197190E-01  1.74414259E-01 -2.38327845E-01
 -1.20366321E-09  6.95536627E-10  8.04645346E-03  3.82844748E-02  1.74178765E-01
 -9.25480766E-02  2.97999708E-09  1.22442462E-08 -6.05430656E-02 -3.82844721E-02
 -1.74178767E-01 -9.25480753E-02  2.58956554E-09 -8.62714717E-10 -3.52112732E-02
 -3.54061322E-09 -1.64347673E-08  1.59951656E-01  2.64813928E-02  3.26712895E-01
  1.27143857E-01 -2.64813972E-02 -3.26712888E-01  1.27143858E-01 -1.39448577E-09
  8.44788399E-10 -6.32981794E-02 -1.23252866E-01 -2.78885478E-01  1.34193772E-01
  1.23252859E-01  2.78885487E-01  1.34193773E-01 -1.39623433E-09  8.44349965E-10
  6.32981794E-02 -1.23252866E-01 -2.78885478E-01 -1.34193772E-01  1.23252859E-01
  2.78885487E-01 -1.34193773E-01  2.58877514E-09 -8.61198746E-10  3.52112732E-02
  2.64813928E-02  3.26712895E-01 -1.27143857E-01 -3.53944244E-09 -1.64283376E-08
 -1.59951656E-01 -2.64813972E-02 -3.26712888E-01 -1.27143858E-01 -7.17641104E-02
  9.99564524E-02 -3.13893433E-09  1.17407390E-01  5.76131649E-01  9.35186928E-09
  1.42384683E-01 -1.18373707E-01  2.66066903E-02  1.42384683E-01 -1.18373725E-01
 -2.66066895E-02 -1.58048567E-01 -3.73716488E-02  3.12122011E-09 -9.71669035E-02
 -1.09162828E-01 -5.80057189E-03 -9.71669346E-02 -1.09162818E-01  5.80056191E-03
  1.58048567E-01  3.73716488E-02  3.12214536E-09  9.71669035E-02  1.09162828E-01
 -5.80057189E-03  9.71669346E-02  1.09162818E-01  5.80056191E-03  7.17641104E-02
 -9.99564524E-02 -3.13812724E-09 -1.42384683E-01  1.18373707E-01  2.66066903E-02
 -1.17407390E-01 -5.76131649E-01  9.34892402E-09 -1.42384683E-01  1.18373725E-01
 -2.66066895E-02 -8.30741680E-10 -3.72379355E-09 -5.98167872E-02 -8.46366692E-11
 -3.04403615E-09  1.58531896E-01  2.51798973E-02  3.13569023E-01  9.77982401E-02
 -2.51798953E-02 -3.13569032E-01  9.77982394E-02  8.11413545E-09  2.31138383E-09
  3.58596543E-02  2.69228068E-01 -2.29800110E-01 -3.44374485E-02 -2.69228058E-01
  2.29800115E-01 -3.44374513E-02 -8.11475302E-09 -2.31020918E-09  3.58596543E-02
 -2.69228068E-01  2.29800110E-01 -3.44374485E-02  2.69228058E-01 -2.29800115E-01
 -3.44374513E-02  8.33649564E-10  3.72152726E-09 -5.98167872E-02 -2.51798973E-02
 -3.13569023E-01  9.77982401E-02  8.09117356E-11  3.02542785E-09  1.58531896E-01
  2.51798953E-02  3.13569032E-01  9.77982394E-02 -7.87460356E-02  5.57248716E-02
 -3.39391868E-09  9.73638475E-02  4.91299116E-01  1.61581174E-08  1.44754511E-01
 -1.50467023E-01  3.61351744E-02  1.44754516E-01 -1.50467057E-01 -3.61351683E-02
  2.14405778E-02 -3.32654552E-02 -6.86430045E-11  1.47726698E-01 -2.28892733E-01
  4.63441161E-03  1.47726693E-01 -2.28892726E-01 -4.63441163E-03  2.14405778E-02
 -3.32654552E-02  7.03796622E-11  1.47726698E-01 -2.28892733E-01 -4.63441161E-03
  1.47726694E-01 -2.28892726E-01  4.63441163E-03 -7.87460356E-02  5.57248716E-02
  3.39099952E-09  1.44754511E-01 -1.50467023E-01 -3.61351744E-02  9.73638475E-02
  4.91299116E-01 -1.61512273E-08  1.44754516E-01 -1.50467057E-01  3.61351683E-02
 -6.47573938E-02 -1.92989880E-01 -5.27456787E-09  4.82489633E-02  7.15923012E-02
  1.70416357E-08  1.14413760E-01 -3.92357649E-01  1.75565615E-02  1.14413749E-01
 -3.92357676E-01 -1.75565538E-02  2.55538682E-02  2.27402748E-01  6.53661548E-09
  9.48566053E-02  1.51687461E-01 -4.62010235E-03  9.48565842E-02  1.51687447E-01
  4.62009193E-03  2.55538682E-02  2.27402748E-01 -6.53669326E-09  9.48566053E-02
  1.51687461E-01  4.62010235E-03  9.48565842E-02  1.51687447E-01 -4.62009193E-03
 -6.47573938E-02 -1.92989880E-01  5.27484570E-09  1.14413760E-01 -3.92357649E-01
 -1.75565615E-02  4.82489633E-02  7.15923012E-02 -1.70423476E-08  1.14413749E-01
 -3.92357676E-01  1.75565538E-02 -3.88673695E-02 -1.23881751E-01 -1.25040157E-09
 -3.63732052E-03 -3.77364621E-02  1.20043542E-09  2.10934239E-02 -2.14660232E-01
 -7.43977313E-04  2.10934184E-02 -2.14660234E-01  7.43980137E-04 -9.72376850E-02
  1.64174572E-01  2.78689342E-10 -2.34951409E-01  3.47674356E-01  6.65853252E-03
 -2.34951397E-01  3.47674352E-01 -6.65852497E-03  9.72376850E-02 -1.64174572E-01
  2.78559890E-10  2.34951409E-01 -3.47674356E-01  6.65853252E-03  2.34951397E-01
 -3.47674352E-01 -6.65852497E-03  3.88673695E-02  1.23881751E-01 -1.25100419E-09
 -2.10934239E-02  2.14660232E-01 -7.43977312E-04  3.63732052E-03  3.77364621E-02
  1.20143856E-09 -2.10934184E-02  2.14660234E-01  7.43980138E-04 -1.08427753E-01
 -2.05733035E-02 -2.11666303E-09  5.30548021E-02  3.57428511E-01  8.38842679E-09
  1.76496443E-01 -2.63878076E-01  5.54088415E-02  1.76496432E-01 -2.63878047E-01
 -5.54088508E-02  1.72604697E-01  7.71702364E-02  2.54660326E-09  2.34721608E-01
 -4.07980829E-02  1.18237962E-02  2.34721633E-01 -4.07981375E-02 -1.18238005E-02
 -1.72604697E-01 -7.71702364E-02  2.54973726E-09 -2.34721608E-01  4.07980829E-02
  1.18237962E-02 -2.34721633E-01  4.07981375E-02 -1.18238005E-02  1.08427753E-01
  2.05733035E-02 -2.11844597E-09 -1.76496443E-01  2.63878076E-01  5.54088415E-02
 -5.30548021E-02 -3.57428511E-01  8.39223477E-09 -1.76496432E-01  2.63878047E-01
 -5.54088507E-02  8.10653884E-10  2.49538468E-09 -1.02125089E-01 -5.68945627E-09
 -7.59253717E-09  1.87240291E-01  6.49358832E-02  3.16256088E-01  8.31251881E-02
 -6.49358845E-02 -3.16256051E-01  8.31251785E-02  2.59693078E-09 -7.83569898E-09
  1.51186014E-01  2.47368045E-01  1.89412207E-01 -8.72631801E-02 -2.47368079E-01
 -1.89412173E-01 -8.72631772E-02  2.59424576E-09 -7.83775321E-09 -1.51186014E-01
  2.47368045E-01  1.89412207E-01  8.72631801E-02 -2.47368079E-01 -1.89412173E-01
  8.72631772E-02  8.12309223E-10  2.49610457E-09  1.02125089E-01  6.49358832E-02
  3.16256088E-01 -8.31251881E-02 -5.69010872E-09 -7.59715395E-09 -1.87240291E-01
 -6.49358845E-02 -3.16256051E-01 -8.31251785E-02  2.86371723E-09  1.68619131E-09
 -8.21889471E-02 -2.46760007E-09 -1.35671997E-08  1.48306304E-01  6.34190404E-02
  2.09803817E-01  5.28443301E-02 -6.34190464E-02 -2.09803807E-01  5.28443345E-02
 -2.58433359E-09 -3.04737047E-09  6.47603088E-02 -1.28907038E-01  4.06864859E-01
 -2.32375782E-02  1.28907022E-01 -4.06864861E-01 -2.32375819E-02  2.58078775E-09
  3.05112784E-09  6.47603088E-02  1.28907038E-01 -4.06864859E-01 -2.32375782E-02
 -1.28907022E-01  4.06864861E-01 -2.32375819E-02 -2.86107400E-09 -1.68633079E-09
 -8.21889471E-02 -6.34190404E-02 -2.09803817E-01  5.28443301E-02  2.46588157E-09
  1.35559375E-08  1.48306304E-01  6.34190464E-02  2.09803807E-01  5.28443345E-02
 -5.74915554E-02 -8.74274368E-03  4.33877058E-09  3.92823401E-02  2.37794334E-01
 -1.87374087E-09  6.91228622E-02 -5.90673024E-03  6.53802224E-02  6.91228699E-02
 -5.90670508E-03 -6.53802290E-02  8.31506447E-02 -7.43203717E-02 -4.19867789E-09
 -2.41523220E-01  3.81518668E-01  8.26631506E-03 -2.41523231E-01  3.81518712E-01
 -8.26631040E-03  8.31506447E-02 -7.43203717E-02  4.20157119E-09 -2.41523220E-01
  3.81518668E-01 -8.26631506E-03 -2.41523231E-01  3.81518712E-01  8.26631040E-03
 -5.74915554E-02 -8.74274368E-03 -4.34238680E-09  6.91228622E-02 -5.90673025E-03
 -6.53802224E-02  3.92823401E-02  2.37794334E-01  1.88031374E-09  6.91228699E-02
 -5.90670507E-03  6.53802290E-02 -1.45466819E-09 -8.72605441E-10 -3.35954754E-02
  2.63069476E-09  9.12188528E-09  1.54633009E-02  9.99459967E-03  9.53521842E-02
  1.02394447E-02 -9.99459939E-03 -9.53521819E-02  1.02394415E-02  2.55394849E-09
 -2.13543097E-09 -4.16771605E-02 -3.33517318E-01  3.57386619E-01  1.38514648E-02
  3.33517302E-01 -3.57386594E-01  1.38514633E-02  2.55565869E-09 -2.13738919E-09
  4.16771605E-02 -3.33517318E-01  3.57386619E-01 -1.38514648E-02  3.33517302E-01
 -3.57386594E-01 -1.38514633E-02 -1.45522425E-09 -8.72279370E-10  3.35954754E-02
  9.99459967E-03  9.53521842E-02 -1.02394447E-02  2.63101505E-09  9.12436246E-09
 -1.54633009E-02 -9.99459939E-03 -9.53521819E-02 -1.02394415E-02  3.44440418E-02
  1.45606709E-02  2.84092683E-10 -4.73655750E-02 -2.00615957E-01 -8.31343927E-09
 -5.54478037E-02 -1.09348872E-01 -9.90752713E-02 -5.54477923E-02 -1.09348888E-01
  9.90752722E-02 -7.96780229E-02  1.32348497E-01  5.36790404E-11  2.26485307E-01
 -3.73707921E-01  1.79599886E-02  2.26485310E-01 -3.73707921E-01 -1.79599852E-02
  7.96780229E-02 -1.32348497E-01  5.34836828E-11 -2.26485307E-01  3.73707921E-01
  1.79599886E-02 -2.26485310E-01  3.73707921E-01 -1.79599852E-02 -3.44440418E-02
 -1.45606709E-02  2.83393744E-10  5.54478037E-02  1.09348872E-01 -9.90752713E-02
  4.73655750E-02  2.00615957E-01 -8.31319015E-09  5.54477923E-02  1.09348888E-01
  9.90752722E-02 -4.22934517E-03  1.06002677E-01  1.05122770E-09 -1.73848839E-01
 -3.51640428E-01  3.77453466E-09  1.01866856E-01 -3.53872441E-01 -1.26674846E-01
  1.01866847E-01 -3.53872436E-01  1.26674852E-01  1.89960702E-02 -4.56340347E-02
 -1.78973919E-09 -9.55146595E-02  7.21979747E-02  1.51405395E-02 -9.55146594E-02
  7.21979840E-02 -1.51405400E-02 -1.89960702E-02  4.56340347E-02 -1.78969853E-09
  9.55146595E-02 -7.21979747E-02  1.51405395E-02  9.55146594E-02 -7.21979840E-02
 -1.51405400E-02  4.22934517E-03 -1.06002677E-01  1.05132297E-09 -1.01866856E-01
  3.53872441E-01 -1.26674846E-01  1.73848839E-01  3.51640428E-01  3.77457013E-09
 -1.01866847E-01  3.53872436E-01  1.26674852E-01  9.39102154E-03 -1.03832076E-01
  8.18488326E-10  1.74169354E-01  3.45499497E-01 -3.86715807E-09 -1.06021986E-01
  3.70393184E-01  1.28574354E-01 -1.06021975E-01  3.70393179E-01 -1.28574356E-01
 -1.37200645E-02  2.08422235E-02 -7.42394023E-10  4.47098913E-02 -4.90699555E-02
 -5.62436616E-03  4.47098887E-02 -4.90699488E-02  5.62436598E-03 -1.37200645E-02
  2.08422235E-02  7.42346400E-10  4.47098913E-02 -4.90699555E-02  5.62436615E-03
  4.47098887E-02 -4.90699488E-02 -5.62436598E-03  9.39102154E-03 -1.03832076E-01
 -8.18432780E-10 -1.06021986E-01  3.70393184E-01 -1.28574354E-01  1.74169354E-01
  3.45499497E-01  3.86725227E-09 -1.06021975E-01  3.70393179E-01  1.28574356E-01
  5.73889289E-03  5.57854169E-03  4.13325596E-09  8.75873199E-03  2.66917741E-02
 -6.95315596E-08 -6.94240081E-02 -4.95387802E-02 -6.58201448E-02 -6.94239326E-02
 -4.95388505E-02  6.58201352E-02 -4.50669729E-02 -2.80944640E-02  2.45046573E-09
  3.14013585E-01  2.12610935E-01 -3.04547553E-01  3.14013587E-01  2.12610919E-01
  3.04547554E-01  4.50669729E-02  2.80944640E-02  2.45058430E-09 -3.14013585E-01
 -2.12610935E-01 -3.04547553E-01 -3.14013587E-01 -2.12610919E-01  3.04547554E-01
 -5.73889289E-03 -5.57854169E-03  4.13350162E-09  6.94240081E-02  4.95387802E-02
 -6.58201448E-02 -8.75873200E-03 -2.66917741E-02 -6.95329189E-08  6.94239326E-02
  4.95388506E-02  6.58201353E-02 -2.33438328E-02 -4.50560124E-03 -8.20749547E-09
 -7.40774199E-02 -1.63032707E-01  1.14326280E-07  2.38560054E-01  9.30124824E-02
  1.88572830E-01  2.38559930E-01  9.30125883E-02 -1.88572813E-01  2.62434974E-02
  3.28717095E-02 -4.10851238E-09 -2.18784193E-01 -1.80371379E-01  2.26444076E-01
 -2.18784180E-01 -1.80371374E-01 -2.26444074E-01  2.62434974E-02  3.28717095E-02
  4.10864528E-09 -2.18784193E-01 -1.80371379E-01 -2.26444075E-01 -2.18784180E-01
 -1.80371374E-01  2.26444074E-01 -2.33438328E-02 -4.50560124E-03  8.20818459E-09
  2.38560054E-01  9.30124824E-02 -1.88572830E-01 -7.40774199E-02 -1.63032707E-01
 -1.14335370E-07  2.38559930E-01  9.30125883E-02  1.88572813E-01 -1.11726709E-08
  1.20480835E-09 -3.79307678E-02 -3.31975673E-08 -5.75679369E-08  5.04580002E-01
  2.67608399E-01 -2.19871484E-01  3.70654806E-02 -2.67608228E-01  2.19871560E-01
  3.70653415E-02 -2.93115160E-08 -2.09008852E-08 -1.55467292E-02 -1.98538589E-02
 -1.14176286E-02  1.78911543E-03  1.98542033E-02  1.14178439E-02  1.78945631E-03
 -2.93135128E-08 -2.09006276E-08  1.55467292E-02 -1.98538589E-02 -1.14176286E-02
 -1.78911542E-03  1.98542033E-02  1.14178439E-02 -1.78945631E-03 -1.11744810E-08
  1.20479194E-09  3.79307678E-02  2.67608399E-01 -2.19871484E-01 -3.70654807E-02
 -3.32040155E-08 -5.75816279E-08 -5.04580002E-01 -2.67608228E-01  2.19871560E-01
 -3.70653414E-02  8.75456628E-09  2.70647515E-10 -3.39967411E-02  2.35783232E-08
  4.44327138E-08  4.99021680E-01  2.64188979E-01 -2.27185496E-01  3.54830536E-02
 -2.64189128E-01  2.27185449E-01  3.54831687E-02 -2.64275320E-09 -3.51566258E-09
 -1.34419027E-02  6.27023341E-03 -4.58952120E-02 -2.57208133E-03 -6.27017000E-03
  4.58952595E-02 -2.57201890E-03  2.64417866E-09  3.51674985E-09 -1.34419027E-02
 -6.27023342E-03  4.58952120E-02 -2.57208134E-03  6.27016999E-03 -4.58952595E-02
 -2.57201889E-03 -8.75428759E-09 -2.70683037E-10 -3.39967411E-02 -2.64188979E-01
  2.27185496E-01  3.54830536E-02 -2.35775747E-08 -4.44314912E-08  4.99021680E-01
  2.64189128E-01 -2.27185449E-01  3.54831687E-02 -3.46631843E-02 -5.49132826E-05
 -6.16691051E-09 -1.20402065E-01 -2.53390231E-01  9.16196162E-08  3.39669158E-01
  1.22935091E-01  2.62412953E-01  3.39669059E-01  1.22935170E-01 -2.62412937E-01
 -3.46590463E-02  5.20737910E-03 -2.90790083E-09  7.66607913E-02 -1.01202176E-03
 -6.48599232E-02  7.66607897E-02 -1.01200272E-03  6.48599232E-02  3.46590463E-02
 -5.20737909E-03 -2.90705916E-09 -7.66607914E-02  1.01202174E-03 -6.48599232E-02
 -7.66607897E-02  1.01200270E-03  6.48599232E-02  3.46631843E-02  5.49132822E-05
 -6.16480763E-09 -3.39669158E-01 -1.22935091E-01  2.62412953E-01  1.20402065E-01
  2.53390231E-01  9.15921518E-08 -3.39669059E-01 -1.22935170E-01 -2.62412937E-01
 -3.06962353E-02  9.11700869E-04  2.21711323E-08 -9.02726120E-02 -1.74972700E-01
 -2.90720954E-07  2.58874326E-01  9.73928842E-02  2.03473223E-01  2.58874627E-01
  9.73926404E-02 -2.03473265E-01 -4.26338781E-02 -2.35967635E-02  8.49153705E-09
  2.22826385E-01  1.25147172E-01 -2.13875712E-01  2.22826368E-01  1.25147157E-01
  2.13875711E-01 -4.26338781E-02 -2.35967635E-02 -8.49174821E-09  2.22826385E-01
  1.25147172E-01  2.13875712E-01  2.22826368E-01  1.25147157E-01 -2.13875711E-01
 -3.06962353E-02  9.11700869E-04 -2.21720285E-08  2.58874326E-01  9.73928842E-02
 -2.03473223E-01 -9.02726120E-02 -1.74972700E-01  2.90732908E-07  2.58874627E-01
  9.73926404E-02  2.03473265E-01  4.21831183E-03 -2.50828794E-03  1.95794514E-10
 -6.91966664E-02  2.06036396E-02  1.22773732E-09  1.04717585E-02  3.80338742E-03
 -1.45782656E-02  1.04717557E-02  3.80338563E-03  1.45782618E-02 -4.00265321E-02
 -2.64387363E-02 -4.57668028E-10  2.36585416E-01  1.59718364E-01  4.05477234E-01
  2.36585412E-01  1.59718362E-01 -4.05477229E-01  4.00265321E-02  2.64387363E-02
 -4.64360585E-10 -2.36585416E-01 -1.59718364E-01  4.05477234E-01 -2.36585412E-01
 -1.59718362E-01 -4.05477228E-01 -4.21831183E-03  2.50828794E-03  1.96662268E-10
 -1.04717585E-02 -3.80338742E-03 -1.45782656E-02  6.91966664E-02 -2.06036396E-02
  1.22785232E-09 -1.04717557E-02 -3.80338563E-03  1.45782618E-02  7.39982800E-03
  7.03165110E-03  6.89120926E-10  1.03558182E-02 -3.95316729E-03  2.63624832E-09
 -4.96513458E-02 -3.51599125E-02  8.82910228E-02 -4.96513556E-02 -3.51599184E-02
 -8.82910359E-02 -3.87739219E-02 -2.73321478E-02 -7.45464828E-09  2.31256452E-01
  1.57993787E-01  3.98525940E-01  2.31256391E-01  1.57993746E-01 -3.98525846E-01
 -3.87739219E-02 -2.73321478E-02  7.45849780E-09  2.31256452E-01  1.57993787E-01
 -3.98525940E-01  2.31256391E-01  1.57993746E-01  3.98525846E-01  7.39982800E-03
  7.03165110E-03 -6.90053289E-10 -4.96513458E-02 -3.51599125E-02 -8.82910228E-02
  1.03558182E-02 -3.95316730E-03 -2.63659432E-09 -4.96513557E-02 -3.51599184E-02
  8.82910359E-02  4.88907549E-03  3.42114293E-02  3.05503962E-09  3.34363082E-01
 -1.21177910E-01  1.00470333E-09 -1.97980518E-01 -1.40792070E-01  3.43664924E-01
 -1.97980543E-01 -1.40792088E-01 -3.43664963E-01  8.00764876E-03  4.37425155E-03
 -1.87458620E-08 -4.59804811E-02 -2.83354616E-02 -7.79641358E-02 -4.59806254E-02
 -2.83355600E-02  7.79643653E-02  8.00764875E-03  4.37425154E-03  1.87451732E-08
 -4.59804811E-02 -2.83354615E-02  7.79641357E-02 -4.59806254E-02 -2.83355600E-02
 -7.79643652E-02  4.88907551E-03  3.42114294E-02 -3.05577654E-09 -1.97980519E-01
 -1.40792070E-01 -3.43664925E-01  3.34363083E-01 -1.21177910E-01 -1.00482475E-09
 -1.97980544E-01 -1.40792088E-01  3.43664964E-01  8.00764251E-03  3.47868316E-02
  3.60302666E-10  3.16216344E-01 -1.15982529E-01  8.06728048E-10 -2.05642974E-01
 -1.45676538E-01  3.57245350E-01 -2.05642977E-01 -1.45676540E-01 -3.57245355E-01
 -3.12707255E-03 -2.86757134E-03 -2.90656584E-10  1.92925321E-02  1.30807965E-02
  3.08751892E-02  1.92925302E-02  1.30807953E-02 -3.08751864E-02  3.12707257E-03
  2.86757135E-03 -2.97384959E-10 -1.92925322E-02 -1.30807966E-02  3.08751894E-02
 -1.92925302E-02 -1.30807954E-02 -3.08751865E-02 -8.00764249E-03 -3.47868315E-02
  3.62460719E-10  2.05642973E-01  1.45676537E-01  3.57245349E-01 -3.16216343E-01
  1.15982529E-01  8.07144514E-10  2.05642976E-01  1.45676540E-01 -3.57245354E-01
 -3.50811640E-09 -1.16719913E-08  1.22389082E-02 -9.67520642E-08  3.45187756E-08
  2.53520520E-03  4.62963020E-02  3.33278964E-02 -7.66100299E-02 -4.62961619E-02
 -3.33277975E-02 -7.66097873E-02  2.21002491E-09  2.25654162E-09 -6.42256347E-02
  2.43664929E-01  1.66511523E-01  3.89406658E-01 -2.43664957E-01 -1.66511545E-01
  3.89406708E-01  2.21459451E-09  2.25962333E-09  6.42256347E-02  2.43664929E-01
  1.66511523E-01 -3.89406658E-01 -2.43664957E-01 -1.66511545E-01 -3.89406708E-01
 -3.50955409E-09 -1.16756526E-08 -1.22389082E-02  4.62963020E-02  3.33278964E-02
  7.66100299E-02 -9.67800560E-08  3.45295002E-08 -2.53520520E-03 -4.62961619E-02
 -3.33277975E-02  7.66097873E-02  6.23567866E-10 -1.44649136E-10  2.57931962E-02
 -8.46701424E-09  3.79694327E-09  8.12245310E-03  9.58333458E-02  6.57059270E-02
 -1.57560045E-01 -9.58333457E-02 -6.57059279E-02 -1.57560046E-01  6.55897323E-10
  1.72624401E-10 -6.13725122E-02  2.29345196E-01  1.52868279E-01  3.65317224E-01
 -2.29345201E-01 -1.52868283E-01  3.65317232E-01 -6.58347645E-10 -1.74267319E-10
 -6.13725122E-02 -2.29345196E-01 -1.52868279E-01  3.65317224E-01  2.29345201E-01
  1.52868283E-01  3.65317232E-01 -6.23098091E-10  1.44855400E-10  2.57931962E-02
 -9.58333458E-02 -6.57059271E-02 -1.57560045E-01  8.46539811E-09 -3.79635384E-09
  8.12245310E-03  9.58333457E-02  6.57059279E-02 -1.57560046E-01 -4.17167964E-09
 -1.21201923E-10 -6.45455350E-02  3.31235967E-08 -1.31421422E-08 -1.43554166E-02
 -2.36265493E-01 -1.71327674E-01  3.91850072E-01  2.36265509E-01  1.71327687E-01
  3.91850104E-01 -5.58284031E-11  1.16235441E-10 -1.32258101E-02  4.45816166E-02
  3.47472071E-02  7.62266048E-02 -4.45816159E-02 -3.47472069E-02  7.62266038E-02
 -5.58294769E-11  1.16247435E-10  1.32258102E-02  4.45816167E-02  3.47472072E-02
 -7.62266050E-02 -4.45816159E-02 -3.47472070E-02 -7.62266039E-02 -4.17501922E-09
 -1.20446986E-10  6.45455351E-02 -2.36265493E-01 -1.71327674E-01 -3.91850073E-01
  3.31588763E-08 -1.31557519E-08  1.43554166E-02  2.36265509E-01  1.71327687E-01
 -3.91850104E-01  3.43044652E-09 -2.25348178E-11 -6.01876674E-02 -2.85824357E-08
  1.16902450E-08 -1.25395993E-02 -2.20782049E-01 -1.62543925E-01  3.66832930E-01
  2.20782037E-01  1.62543915E-01  3.66832907E-01  1.01456766E-10 -1.87084315E-10
 -2.65208580E-02  9.75711534E-02  6.54229535E-02  1.55648657E-01 -9.75711543E-02
 -6.54229544E-02  1.55648658E-01 -1.01639411E-10  1.86987084E-10 -2.65208580E-02
 -9.75711534E-02 -6.54229535E-02  1.55648657E-01  9.75711543E-02  6.54229543E-02
  1.55648658E-01 -3.42507946E-09  2.17278938E-11 -6.01876673E-02  2.20782049E-01
  1.62543925E-01  3.66832930E-01  2.85303004E-08 -1.16700865E-08 -1.25395993E-02
 -2.20782037E-01 -1.62543915E-01  3.66832906E-01 -6.50332096E-02  5.02513113E-03
 -2.50553417E-09  5.74921403E-01 -2.24247742E-01 -1.85156706E-09  1.00731448E-01
  8.35050503E-02 -1.97372197E-01  1.00731468E-01  8.35050651E-02  1.97372232E-01
 -3.94178126E-03 -2.30401642E-03 -2.37725173E-09  1.69669235E-02  1.40466403E-02
  2.98422636E-02  1.69669078E-02  1.40466300E-02 -2.98422385E-02  3.94178127E-03
  2.30401643E-03 -2.37646992E-09 -1.69669235E-02 -1.40466403E-02  2.98422636E-02
 -1.69669078E-02 -1.40466300E-02 -2.98422385E-02  6.50332097E-02 -5.02513114E-03
 -2.50213696E-09 -1.00731448E-01 -8.35050504E-02 -1.97372198E-01 -5.74921404E-01
  2.24247742E-01 -1.85080012E-09 -1.00731468E-01 -8.35050652E-02  1.97372233E-01
 -6.49556105E-02  4.34194803E-03  3.64356262E-09  5.68342119E-01 -2.21326830E-01
  1.97423970E-09  1.03719307E-01  8.66342954E-02 -2.02947674E-01  1.03719278E-01
  8.66342749E-02  2.02947628E-01 -4.26879612E-03 -2.98060008E-03  2.01975076E-09
  2.42312151E-02  1.59244569E-02  3.97059038E-02  2.42312275E-02  1.59244662E-02
 -3.97059259E-02 -4.26879611E-03 -2.98060008E-03 -2.02199602E-09  2.42312150E-02
  1.59244568E-02 -3.97059038E-02  2.42312275E-02  1.59244662E-02  3.97059259E-02
 -6.49556104E-02  4.34194802E-03 -3.64852505E-09  1.03719307E-01  8.66342953E-02
  2.02947674E-01  5.68342118E-01 -2.21326830E-01 -1.97527690E-09  1.03719278E-01
  8.66342748E-02 -2.02947628E-01
ClPar MaxAn                                I              200
ClPar NIntPar                              I                4
ClPar NRealPar                             I               16
ClPar NBits                                I               30
ClPar LenBitVec                            I                1
ClPar Read BitMap                          I   N=         200
           0           0           0           0           0           0
           0           0           0           0           0           0
           0           0           0           0           0           0
           0           0           0           0           0           0
           0           0           0           0           0           0
           0           0           0           0           0           0
           0           0           0           0           0           0
           0           0           0           0           0           0
           0           0           0           0           0           0
           0           0           0           0           0           0
           0           0           0           0           0           0
           0           0           0           0           0           0
           0           0           0           0           0           0
           0           0           0           0           0           0
           0           0           0           0           0           0
           0           0           0           0           0           0
           0           0           0           0           0           0
           0           0           0           0           0           0
           0           0           0           0           0           0
           0           0           0           0           0           0
           0           0           0           0           0           0
           0           0           0           0           0           0
           0           0           0           0           0           0
           0           0           0           0           0           0
           0           0           0           0           0           0
           0           0           0           0           0           0
           0           0           0           0           0           0
           0           0           0           0           0           0
           0           0           0           0           0           0
           0           0           0           0           0           0
           0           0           0           0           0           0
           0           0           0           0           0           0
           0           0           0           0           0           0
           0           0
ClPar Default BitMap                       I   N=         200
        2016        2016        2016        2016        2016        2016
        2016        2016        2016        2016        2016        2016
        2016        2016        2016        2016        2016        2016
        2016        2016        2016        2016        2016        2016
        2016        2016        2016        2016        2016        2016
        2016        2016        2016        2016        2016        2016
        2016        2016        2016        2016        2016        2016
        2016        2016        2016        2016        2016        2016
        2016        2016        2016        2016        2016        2016
        2016        2016        2016        2016        2016        2016
        2016        2016        2016        2016        2016        2016
        2016        2016        2016        2016        2016        2016
        2016        2016        2016        2016        2016        2016
        2016        2016        2016        2016        2016        2016
        2016        2016         480         480         480         480
         480         480         480         480         480         480
         480         480         480         480         480         480
         480         480         480         480         480         480
         480         480         480         480         480         480
         480         480         480         480         480         480
         480         480         480         480         480         480
         480         480         480         480         480         480
         480         480         480         480         480         480
         480         480         480         480         480         480
         480         480         480         480         480         480
         480         480         480         480         480         480
         480         480         480         480         480         480
         480         480         480         480         480         480
         480         480         480         480         480         480
         480         480         480         480         480         480
         480         480         480         480         480         480
         480         480         480         480         480         480
         480         480         480         480         480         480
         480         480
ClPar Int Params                           I   N=         800
           0           0           0           0           0           0
           0           0           0           0           0           0
           0           0           0           0           0           0
           0           0           0           0           0           0
           0           0           0           0           0           0
           0           0           0           0           0           0
           0           0           0           0           0           0
           0           0           0           0           0           0
           0           0           0           0           0           0
           0           0           0           0           0           0
           0           0           0           0           0           0
           0           0           0           0           0           0
           0           0           0           0           0           0
           0           0           0           0           0           0
           0           0           0           0           0           0
           0           0           0           0           0           0
           0           0           0           0           0           0
           0           0           0           0           0           0
           0           0           0           0           0           0
           0           0           0           0           0           0
           0           0           0           0           0           0
           0           0           0           0           0           0
           0           0           0           0           0           0
           0           0           0           0           0           0
           0           0           0           0           0           0
           0           0           0           0           0           0
           0           0           0           0           0           0
           0           0           0           0           0           0
           0           0           0           0           0           0
           0           0           0           0           0           0
           0           0           0           0           0           0
           0           0           0           0           0           0
           0           0           0           0           0           0
           0           0           0           0           0           0
           0           0           0           0           0           0
           0           0           0           0           0           0
           0           0           0           0           0           0
           0           0           0           0           0           0
           0           0           0           0           0           0
           0           0           0           0           0           0
           0           0           0           0           0           0
           0           0           0           0           0           0
           0           0           0           0           0           0
           0           0           0           0           0           0
           0           0           0           0           0           0
           0           0           0           0           0           0
           0           0           0           0           0           0
           0           0           0           0           0           0
           0           0           0           0           0           0
           0           0           0           0           0           0
           0           0           0           0           0           0
           0           0           0           0           0           0
           0           0           0           0           0           0
           0           0           0           0           0           0
           0           0           0           0           0           0
           0           0           0           0           0           0
           0           0           0           0           0           0
           0           0           0           0           0           0
           0           0           0           0           0           0
           0           0           0           0           0           0
           0           0           0           0           0           0
           0           0           0           0           0           0
           0           0           0           0           0           0
           0           0           0           0           0           0
           0           0           0           0           0           0
           0           0           0           0           0           0
           0           0           0           0           0           0
           0           0           0           0           0           0
           0           0           0           0           0           0
           0           0           0           0           0           0
           0           0           0           0           0           0
           0           0           0           0           0           0
           0           0           0           0           0           0
           0           0           0           0           0           0
           0           0           0           0           0           0
           0           0           0           0           0           0
           0           0           0           0           0           0
           0           0           0           0           0           0
           0           0           0           0           0           0
           0           0           0           0           0           0
           0           0           0           0           0           0
           0           0           0           0           0           0
           0           0           0           0           0           0
           0           0           0           0           0           0
           0           0           0           0           0           0
           0           0           0           0           0           0
           0           0           0           0           0           0
           0           0           0           0           0           0
           0           0           0           0           0           0
           0           0           0           0           0           0
           0           0           0           0           0           0
           0           0           0           0           0           0
           0           0           0           0           0           0
           0           0           0           0           0           0
           0           0           0           0           0           0
           0           0           0           0           0           0
           0           0           0           0           0           0
           0           0           0           0           0           0
           0           0           0           0           0           0
           0           0           0           0           0           0
           0           0           0           0           0           0
           0           0           0           0           0           0
           0           0           0           0           0           0
           0           0           0           0           0           0
           0           0           0           0           0           0
           0           0           0           0           0           0
           0           0           0           0           0           0
           0           0           0           0           0           0
           0           0           0           0           0           0
           0           0           0           0           0           0
           0           0           0           0           0           0
           0           0           0           0           0           0
           0           0           0           0           0           0
           0           0           0           0           0           0
           0           0           0           0           0           0
           0           0           0           0           0           0
           0           0           0           0           0           0
           0           0           0           0           0           0
           0           0           0           0           0           0
           0           0           0           0           0           0
           0           0           0           0           0           0
           0           0           0           0           0           0
           0           0           0           0           0           0
           0           0           0           0           0           0
           0           0           0           0           0           0
           0           0           0           0           0           0
           0           0           0           0           0           0
           0           0           0           0           0           0
           0           0           0           0           0           0
           0           0           0           0           0           0
           0           0           0           0           0           0
           0           0           0           0           0           0
           0           0           0           0           0           0
           0           0
ClPar Real Params                          R   N=        3200
  0.00000000E+00  0.00000000E+00  0.00000000E+00  0.00000000E+00  0.00000000E+00
  0.00000000E+00  0.00000000E+00  0.00000000E+00  0.00000000E+00  0.00000000E+00
  0.00000000E+00  0.00000000E+00  0.00000000E+00  0.00000000E+00  0.00000000E+00
  0.00000000E+00  0.00000000E+00  0.00000000E+00  0.00000000E+00  0.00000000E+00
  0.00000000E+00  0.00000000E+00  0.00000000E+00  0.00000000E+00  0.00000000E+00
  0.00000000E+00  0.00000000E+00  0.00000000E+00  0.00000000E+00  0.00000000E+00
  0.00000000E+00  0.00000000E+00  0.00000000E+00  0.00000000E+00  0.00000000E+00
  0.00000000E+00  0.00000000E+00  0.00000000E+00  0.00000000E+00  0.00000000E+00
  0.00000000E+00  0.00000000E+00  0.00000000E+00  0.00000000E+00  0.00000000E+00
  0.00000000E+00  0.00000000E+00  0.00000000E+00  0.00000000E+00  0.00000000E+00
  0.00000000E+00  0.00000000E+00  0.00000000E+00  0.00000000E+00  0.00000000E+00
  0.00000000E+00  0.00000000E+00  0.00000000E+00  0.00000000E+00  0.00000000E+00
  0.00000000E+00  0.00000000E+00  0.00000000E+00  0.00000000E+00  0.00000000E+00
  0.00000000E+00  0.00000000E+00  0.00000000E+00  0.00000000E+00  0.00000000E+00
  0.00000000E+00  0.00000000E+00  0.00000000E+00  0.00000000E+00  0.00000000E+00
  0.00000000E+00  0.00000000E+00  0.00000000E+00  0.00000000E+00  0.00000000E+00
  0.00000000E+00  0.00000000E+00  0.00000000E+00  0.00000000E+00  0.00000000E+00
  0.00000000E+00  0.00000000E+00  0.00000000E+00  0.00000000E+00  0.00000000E+00
  0.00000000E+00  0.00000000E+00  0.00000000E+00  0.00000000E+00  0.00000000E+00
  0.00000000E+00  0.00000000E+00  0.00000000E+00  0.00000000E+00  0.00000000E+00
  0.00000000E+00  0.00000000E+00  0.00000000E+00  0.00000000E+00  0.00000000E+00
  0.00000000E+00  0.00000000E+00  0.00000000E+00  0.00000000E+00  0.00000000E+00
  0.00000000E+00  0.00000000E+00  0.00000000E+00  0.00000000E+00  0.00000000E+00
  0.00000000E+00  0.00000000E+00  0.00000000E+00  0.00000000E+00  0.00000000E+00
  0.00000000E+00  0.00000000E+00  0.00000000E+00  0.00000000E+00  0.00000000E+00
  0.00000000E+00  0.00000000E+00  0.00000000E+00  0.00000000E+00  0.00000000E+00
  0.00000000E+00  0.00000000E+00  0.00000000E+00  0.00000000E+00  0.00000000E+00
  0.00000000E+00  0.00000000E+00  0.00000000E+00  0.00000000E+00  0.00000000E+00
  0.00000000E+00  0.00000000E+00  0.00000000E+00  0.00000000E+00  0.00000000E+00
  0.00000000E+00  0.00000000E+00  0.00000000E+00  0.00000000E+00  0.00000000E+00
  0.00000000E+00  0.00000000E+00  0.00000000E+00  0.00000000E+00  0.00000000E+00
  0.00000000E+00  0.00000000E+00  0.00000000E+00  0.00000000E+00  0.00000000E+00
  0.00000000E+00  0.00000000E+00  0.00000000E+00  0.00000000E+00  0.00000000E+00
  0.00000000E+00  0.00000000E+00  0.00000000E+00  0.00000000E+00  0.00000000E+00
  0.00000000E+00  0.00000000E+00  0.00000000E+00  0.00000000E+00  0.00000000E+00
  0.00000000E+00  0.00000000E+00  0.00000000E+00  0.00000000E+00  0.00000000E+00
  0.00000000E+00  0.00000000E+00  0.00000000E+00  0.00000000E+00  0.00000000E+00
  0.00000000E+00  0.00000000E+00  0.00000000E+00  0.00000000E+00  0.00000000E+00
  0.00000000E+00  0.00000000E+00  0.00000000E+00  0.00000000E+00  0.00000000E+00
  0.00000000E+00  0.00000000E+00  0.00000000E+00  0.00000000E+00  0.00000000E+00
  2.26000000E-01  4.43000000E-01  1.01000000E-01  1.47000000E-01  1.92000000E-01
  2.40000000E-01  2.75000000E-01  3.03000000E-01  3.25000000E-01  4.13000000E-01
  9.60000000E-02  1.35000000E-01  1.73000000E-01  2.11000000E-01  2.48000000E-01
  2.86000000E-01  3.23000000E-01  3.60000000E-01  8.20000000E-02  1.04000000E-01
  1.17000000E-01  1.23000000E-01  1.29000000E-01  1.34000000E-01  1.40000000E-01
  1.44000000E-01  1.48000000E-01  1.52000000E-01  1.55000000E-01  1.76000000E-01
  1.98000000E-01  2.19000000E-01  2.39000000E-01  2.60000000E-01  2.80000000E-01
  3.00000000E-01  7.90000000E-02  9.90000000E-02  1.19000000E-01  1.26000000E-01
  1.33000000E-01  1.40000000E-01  1.47000000E-01  1.53000000E-01  1.58000000E-01
  1.63000000E-01  1.57000000E-01  1.70000000E-01  1.87000000E-01  2.03000000E-01
  2.19000000E-01  2.34000000E-01  2.50000000E-01  2.65000000E-01  7.40000000E-02
  9.20000000E-02  1.05000000E-01  1.06000000E-01  1.07000000E-01  1.08000000E-01
  1.09000000E-01  1.10000000E-01  1.11000000E-01  1.12000000E-01  1.13000000E-01
  1.14000000E-01  1.15000000E-01  1.16000000E-01  1.17000000E-01  1.17000000E-01
  1.26000000E-01  1.36000000E-01  1.46000000E-01  1.55000000E-01  1.65000000E-01
  1.73000000E-01  1.82000000E-01  1.90000000E-01  1.62000000E-01  1.78000000E-01
  1.10000000E-01  1.35000000E-01  1.59000000E-01  1.83000000E-01  2.07000000E-01
  2.31000000E-01  6.90000000E-02  9.40000000E-02  1.02000000E-01  1.03000000E-01
  1.05000000E-01  1.07000000E-01  1.09000000E-01  1.11000000E-01  1.13000000E-01
  1.15000000E-01  1.17000000E-01  1.19000000E-01  1.20000000E-01  1.22000000E-01
  1.24000000E-01  1.26000000E-01  1.28000000E-01  1.28000000E-01  1.28000000E-01
  1.28000000E-01  1.28000000E-01  1.28000000E-01  1.28000000E-01  1.28000000E-01
  1.28000000E-01  1.28000000E-01  1.28000000E-01  1.28000000E-01  1.28000000E-01
  1.28000000E-01  1.28000000E-01  1.28000000E-01  1.28000000E-01  1.28000000E-01
  1.28000000E-01  1.28000000E-01  1.28000000E-01  1.28000000E-01  1.28000000E-01
  1.28000000E-01  1.28000000E-01  1.28000000E-01  1.28000000E-01  1.28000000E-01
  1.28000000E-01  1.28000000E-01  1.28000000E-01  1.28000000E-01  1.28000000E-01
  1.28000000E-01  1.28000000E-01  1.28000000E-01  1.28000000E-01  1.28000000E-01
  1.28000000E-01  1.28000000E-01  1.28000000E-01  1.28000000E-01  1.28000000E-01
  1.28000000E-01  1.28000000E-01  1.28000000E-01  1.28000000E-01  1.28000000E-01
  1.28000000E-01  1.28000000E-01  1.28000000E-01  1.28000000E-01  1.28000000E-01
  1.28000000E-01  1.28000000E-01  1.28000000E-01  1.28000000E-01  1.28000000E-01
  1.28000000E-01  1.28000000E-01  1.28000000E-01  1.28000000E-01  1.28000000E-01
  1.28000000E-01  1.28000000E-01  1.28000000E-01  1.28000000E-01  1.28000000E-01
  1.28000000E-01  1.28000000E-01  1.28000000E-01  1.28000000E-01  1.28000000E-01
  1.28000000E-01  1.28000000E-01  1.28000000E-01  1.28000000E-01  1.28000000E-01
  1.28000000E-01  1.28000000E-01  1.28000000E-01  1.28000000E-01  1.28000000E-01
  1.28000000E-01  1.28000000E-01  1.28000000E-01  1.28000000E-01  1.28000000E-01
  1.28000000E-01  1.28000000E-01  1.28000000E-01  1.28000000E-01  1.28000000E-01
  1.28000000E-01  1.28000000E-01  1.28000000E-01  1.28000000E-01  1.28000000E-01
  5.47000000E-01  5.92000000E-01  5.99000000E-01  6.68000000E-01  6.98000000E-01
  7.18000000E-01  7.26000000E-01  7.36000000E-01  7.43000000E-01  7.45000000E-01
  6.07000000E-01  6.66000000E-01  6.93000000E-01  7.09000000E-01  7.20000000E-01
  7.29000000E-01  7.35000000E-01  7.40000000E-01  6.08000000E-01  7.34000000E-01
  7.46000000E-01  7.55000000E-01  7.61000000E-01  7.65000000E-01  7.67000000E-01
  7.60000000E-01  7.49000000E-01  7.33000000E-01  7.08000000E-01  6.48000000E-01
  6.88000000E-01  7.09000000E-01  7.22000000E-01  7.31000000E-01  7.38000000E-01
  7.44000000E-01  6.09000000E-01  7.30000000E-01  7.41000000E-01  7.52000000E-01
  7.58000000E-01  7.63000000E-01  7.66000000E-01  7.58000000E-01  7.48000000E-01
  7.33000000E-01  7.01000000E-01  6.45000000E-01  6.86000000E-01  7.08000000E-01
  7.22000000E-01  7.31000000E-01  7.38000000E-01  7.44000000E-01  6.08000000E-01
  7.28000000E-01  7.32000000E-01  7.32000000E-01  7.32000000E-01  7.32000000E-01
  7.32000000E-01  7.32000000E-01  7.32000000E-01  7.32000000E-01  7.32000000E-01
  7.31000000E-01  7.31000000E-01  7.31000000E-01  7.31000000E-01  7.46000000E-01
  7.37000000E-01  7.46000000E-01  7.51000000E-01  7.55000000E-01  7.58000000E-01
  7.47000000E-01  7.32000000E-01  7.11000000E-01  7.41000000E-01  7.07000000E-01
  7.47000000E-01  7.43000000E-01  7.42000000E-01  7.42000000E-01  7.43000000E-01
  7.44000000E-01  6.05000000E-01  7.24000000E-01  7.26000000E-01  7.26000000E-01
  7.27000000E-01  7.27000000E-01  7.27000000E-01  7.28000000E-01  7.28000000E-01
  7.28000000E-01  7.28000000E-01  7.28000000E-01  7.29000000E-01  7.29000000E-01
  7.29000000E-01  7.29000000E-01  7.29000000E-01  7.29000000E-01  7.29000000E-01
  7.29000000E-01  7.29000000E-01  7.29000000E-01  7.29000000E-01  7.29000000E-01
  7.29000000E-01  7.29000000E-01  7.29000000E-01  7.29000000E-01  7.29000000E-01
  7.29000000E-01  7.29000000E-01  7.29000000E-01  7.29000000E-01  7.29000000E-01
  7.29000000E-01  7.29000000E-01  7.29000000E-01  7.29000000E-01  7.29000000E-01
  7.29000000E-01  7.29000000E-01  7.29000000E-01  7.29000000E-01  7.29000000E-01
  7.29000000E-01  7.29000000E-01  7.29000000E-01  7.29000000E-01  7.29000000E-01
  7.29000000E-01  7.29000000E-01  7.29000000E-01  7.29000000E-01  7.29000000E-01
  7.29000000E-01  7.29000000E-01  7.29000000E-01  7.29000000E-01  7.29000000E-01
  7.29000000E-01  7.29000000E-01  7.29000000E-01  7.29000000E-01  7.29000000E-01
  7.29000000E-01  7.29000000E-01  7.29000000E-01  7.29000000E-01  7.29000000E-01
  7.29000000E-01  7.29000000E-01  7.29000000E-01  7.29000000E-01  7.29000000E-01
  7.29000000E-01  7.29000000E-01  7.29000000E-01  7.29000000E-01  7.29000000E-01
  7.29000000E-01  7.29000000E-01  7.29000000E-01  7.29000000E-01  7.29000000E-01
  7.29000000E-01  7.29000000E-01  7.29000000E-01  7.29000000E-01  7.29000000E-01
  7.29000000E-01  7.29000000E-01  7.29000000E-01  7.29000000E-01  7.29000000E-01
  7.29000000E-01  7.29000000E-01  7.29000000E-01  7.29000000E-01  7.29000000E-01
  7.29000000E-01  7.29000000E-01  7.29000000E-01  7.29000000E-01  7.29000000E-01
  7.29000000E-01  7.29000000E-01  7.29000000E-01  7.29000000E-01  7.29000000E-01
  7.29000000E-01  7.29000000E-01  7.29000000E-01  7.29000000E-01  7.29000000E-01
  1.00000000E+00  1.70400000E+00  3.23000000E-01  3.89000000E-01  4.67000000E-01
  5.67000000E-01  6.36000000E-01  6.64000000E-01  6.96000000E-01  8.79000000E-01
  3.07000000E-01  3.48000000E-01  4.00000000E-01  4.54000000E-01  5.09000000E-01
  5.65000000E-01  6.21000000E-01  6.77000000E-01  2.56000000E-01  3.50000000E-01
  3.64000000E-01  3.62000000E-01  3.62000000E-01  3.62000000E-01  3.62000000E-01
  3.65000000E-01  3.69000000E-01  3.75000000E-01  3.86000000E-01  4.46000000E-01
  4.55000000E-01  4.74000000E-01  4.96000000E-01  5.20000000E-01  5.45000000E-01
  5.70000000E-01  2.45000000E-01  3.22000000E-01  3.55000000E-01  3.59000000E-01
  3.64000000E-01  3.70000000E-01  3.76000000E-01  3.85000000E-01  3.95000000E-01
  4.08000000E-01  3.76000000E-01  4.23000000E-01  4.22000000E-01  4.32000000E-01
  4.45000000E-01  4.59000000E-01  4.75000000E-01  4.91000000E-01  2.28000000E-01
  2.92000000E-01  2.89000000E-01  2.92000000E-01  2.95000000E-01  2.98000000E-01
  3.00000000E-01  3.03000000E-01  3.06000000E-01  3.09000000E-01  3.12000000E-01
  3.15000000E-01  3.18000000E-01  3.21000000E-01  3.24000000E-01  3.61000000E-01
  3.69000000E-01  3.70000000E-01  3.72000000E-01  3.75000000E-01  3.78000000E-01
  3.85000000E-01  3.94000000E-01  4.07000000E-01  5.26000000E-01  6.21000000E-01
  3.36000000E-01  3.54000000E-01  3.71000000E-01  3.86000000E-01  4.02000000E-01
  4.17000000E-01  2.09000000E-01  2.94000000E-01  2.65000000E-01  2.72000000E-01
  2.78000000E-01  2.84000000E-01  2.91000000E-01  2.97000000E-01  3.03000000E-01
  3.10000000E-01  3.16000000E-01  3.22000000E-01  3.29000000E-01  3.35000000E-01
  3.41000000E-01  3.48000000E-01  3.54000000E-01  3.54000000E-01  3.54000000E-01
  3.54000000E-01  3.54000000E-01  3.54000000E-01  3.54000000E-01  3.54000000E-01
  3.54000000E-01  3.54000000E-01  3.54000000E-01  3.54000000E-01  3.54000000E-01
  3.54000000E-01  3.54000000E-01  3.54000000E-01  3.54000000E-01  3.54000000E-01
  3.54000000E-01  3.54000000E-01  3.54000000E-01  3.54000000E-01  3.54000000E-01
  3.54000000E-01  3.54000000E-01  3.54000000E-01  3.54000000E-01  3.54000000E-01
  3.54000000E-01  3.54000000E-01  3.54000000E-01  3.54000000E-01  3.54000000E-01
  3.54000000E-01  3.54000000E-01  3.54000000E-01  3.54000000E-01  3.54000000E-01
  3.54000000E-01  3.54000000E-01  3.54000000E-01  3.54000000E-01  3.54000000E-01
  3.54000000E-01  3.54000000E-01  3.54000000E-01  3.54000000E-01  3.54000000E-01
  3.54000000E-01  3.54000000E-01  3.54000000E-01  3.54000000E-01  3.54000000E-01
  3.54000000E-01  3.54000000E-01  3.54000000E-01  3.54000000E-01  3.54000000E-01
  3.54000000E-01  3.54000000E-01  3.54000000E-01  3.54000000E-01  3.54000000E-01
  3.54000000E-01  3.54000000E-01  3.54000000E-01  3.54000000E-01  3.54000000E-01
  3.54000000E-01  3.54000000E-01  3.54000000E-01  3.54000000E-01  3.54000000E-01
  3.54000000E-01  3.54000000E-01  3.54000000E-01  3.54000000E-01  3.54000000E-01
  3.54000000E-01  3.54000000E-01  3.54000000E-01  3.54000000E-01  3.54000000E-01
  3.54000000E-01  3.54000000E-01  3.54000000E-01  3.54000000E-01  3.54000000E-01
  3.54000000E-01  3.54000000E-01  3.54000000E-01  3.54000000E-01  3.54000000E-01
  3.54000000E-01  3.54000000E-01  3.54000000E-01  3.54000000E-01  3.54000000E-01
  2.74000000E-01  2.96000000E-01  5.80000000E-02  4.40000000E-02  3.90000000E-02
  3.90000000E-02  3.60000000E-02  3.20000000E-02  2.90000000E-02  3.30000000E-02
  5.50000000E-02  3.90000000E-02  3.30000000E-02  3.00000000E-02  2.80000000E-02
  2.60000000E-02  2.50000000E-02  2.50000000E-02  4.50000000E-02  4.40000000E-02
  3.30000000E-02  2.50000000E-02  2.10000000E-02  1.80000000E-02  1.50000000E-02
  1.80000000E-02  2.10000000E-02  2.50000000E-02  3.30000000E-02  5.00000000E-02
  3.80000000E-02  3.10000000E-02  2.70000000E-02  2.40000000E-02  2.20000000E-02
  2.10000000E-02  4.30000000E-02  4.00000000E-02  3.20000000E-02  2.50000000E-02
  2.10000000E-02  1.80000000E-02  1.60000000E-02  1.90000000E-02  2.20000000E-02
  2.80000000E-02  3.10000000E-02  4.70000000E-02  3.40000000E-02  2.80000000E-02
  2.40000000E-02  2.10000000E-02  1.90000000E-02  1.80000000E-02  3.90000000E-02
  3.60000000E-02  2.50000000E-02  2.50000000E-02  2.50000000E-02  2.60000000E-02
  2.60000000E-02  2.60000000E-02  2.70000000E-02  2.70000000E-02  2.70000000E-02
  2.70000000E-02  2.80000000E-02  2.80000000E-02  2.80000000E-02  3.30000000E-02
  3.30000000E-02  2.60000000E-02  2.10000000E-02  1.80000000E-02  1.60000000E-02
  1.80000000E-02  2.20000000E-02  2.60000000E-02  4.90000000E-02  8.20000000E-02
  3.00000000E-02  2.40000000E-02  2.10000000E-02  1.80000000E-02  1.60000000E-02
  1.50000000E-02  3.50000000E-02  3.60000000E-02  2.20000000E-02  2.30000000E-02
  2.40000000E-02  2.40000000E-02  2.50000000E-02  2.50000000E-02  2.60000000E-02
  2.70000000E-02  2.70000000E-02  2.80000000E-02  2.80000000E-02  2.90000000E-02
  3.00000000E-02  3.00000000E-02  3.10000000E-02  3.10000000E-02  3.10000000E-02
  3.10000000E-02  3.10000000E-02  3.10000000E-02  3.10000000E-02  3.10000000E-02
  3.10000000E-02  3.10000000E-02  3.10000000E-02  3.10000000E-02  3.10000000E-02
  3.10000000E-02  3.10000000E-02  3.10000000E-02  3.10000000E-02  3.10000000E-02
  3.10000000E-02  3.10000000E-02  3.10000000E-02  3.10000000E-02  3.10000000E-02
  3.10000000E-02  3.10000000E-02  3.10000000E-02  3.10000000E-02  3.10000000E-02
  3.10000000E-02  3.10000000E-02  3.10000000E-02  3.10000000E-02  3.10000000E-02
  3.10000000E-02  3.10000000E-02  3.10000000E-02  3.10000000E-02  3.10000000E-02
  3.10000000E-02  3.10000000E-02  3.10000000E-02  3.10000000E-02  3.10000000E-02
  3.10000000E-02  3.10000000E-02  3.10000000E-02  3.10000000E-02  3.10000000E-02
  3.10000000E-02  3.10000000E-02  3.10000000E-02  3.10000000E-02  3.10000000E-02
  3.10000000E-02  3.10000000E-02  3.10000000E-02  3.10000000E-02  3.10000000E-02
  3.10000000E-02  3.10000000E-02  3.10000000E-02  3.10000000E-02  3.10000000E-02
  3.10000000E-02  3.10000000E-02  3.10000000E-02  3.10000000E-02  3.10000000E-02
  3.10000000E-02  3.10000000E-02  3.10000000E-02  3.10000000E-02  3.10000000E-02
  3.10000000E-02  3.10000000E-02  3.10000000E-02  3.10000000E-02  3.10000000E-02
  3.10000000E-02  3.10000000E-02  3.10000000E-02  3.10000000E-02  3.10000000E-02
  3.10000000E-02  3.10000000E-02  3.10000000E-02  3.10000000E-02  3.10000000E-02
  3.10000000E-02  3.10000000E-02  3.10000000E-02  3.10000000E-02  3.10000000E-02
  3.10000000E-02  3.10000000E-02  3.10000000E-02  3.10000000E-02  3.10000000E-02
 -5.92770000E-01 -9.17860000E-01 -2.48668000E+00 -8.36430000E-01 -3.18470000E-01
 -4.55790000E-01 -5.70730000E-01 -6.77940000E-01 -7.69860000E-01 -8.51140000E-01
 -1.51908000E+00 -3.18830000E-01 -2.17900000E-01 -3.01260000E-01 -3.72750000E-01
 -4.15890000E-01 -4.45930000E-01 -5.91320000E-01 -9.56370000E-01 -2.88450000E-01
 -4.87320000E-01 -6.34280000E-01 -7.17490000E-01 -7.91980000E-01 -8.68490000E-01
 -9.17520000E-01 -9.54890000E-01 -9.88460000E-01 -1.50055000E+00 -2.92560000E-01
 -2.14960000E-01 -2.91180000E-01 -3.42080000E-01 -3.84480000E-01 -4.34940000E-01
 -5.24310000E-01 -8.10070000E-01 -2.58460000E-01 -4.35550000E-01 -5.32740000E-01
 -6.08450000E-01 -6.10260000E-01 -7.58920000E-01 -8.90130000E-01 -8.45780000E-01
 -8.69340000E-01 -1.38234000E+00 -2.64850000E-01 -1.97280000E-01 -2.65040000E-01
 -2.94470000E-01 -3.16570000E-01 -3.63590000E-01 -4.57840000E-01 -8.61830000E-01
 -1.33004000E+00 -6.82880000E-01 -6.25540000E-01 -6.35430000E-01 -8.79690000E-01
 -9.02690000E-01 -9.59650000E-01 -1.01869000E+00 -6.81170000E-01 -7.96500000E-01
 -9.04950000E-01 -8.34790000E-01 -9.01560000E-01 -9.74130000E-01 -1.03326000E+00
 -7.15490000E-01 -7.83960000E-01 -8.28380000E-01 -5.61040000E-01 -1.03841000E+00
 -8.62500000E-01 -9.59300000E-01 -1.01755000E+00 -7.64900000E-01 -1.29467000E+00
 -1.92740000E-01 -2.56010000E-01 -3.19820000E-01 -1.94660000E-01 -2.60090000E-01
 -4.27990000E-01  0.00000000E+00  0.00000000E+00  0.00000000E+00  0.00000000E+00
  0.00000000E+00  0.00000000E+00  0.00000000E+00  0.00000000E+00  0.00000000E+00
  0.00000000E+00  0.00000000E+00  0.00000000E+00  0.00000000E+00  0.00000000E+00
  0.00000000E+00  0.00000000E+00  0.00000000E+00  0.00000000E+00  0.00000000E+00
  0.00000000E+00  0.00000000E+00  0.00000000E+00  0.00000000E+00  0.00000000E+00
  0.00000000E+00  0.00000000E+00  0.00000000E+00  0.00000000E+00  0.00000000E+00
  0.00000000E+00  0.00000000E+00  0.00000000E+00  0.00000000E+00  0.00000000E+00
  0.00000000E+00  0.00000000E+00  0.00000000E+00  0.00000000E+00  0.00000000E+00
  0.00000000E+00  0.00000000E+00  0.00000000E+00  0.00000000E+00  0.00000000E+00
  0.00000000E+00  0.00000000E+00  0.00000000E+00  0.00000000E+00  0.00000000E+00
  0.00000000E+00  0.00000000E+00  0.00000000E+00  0.00000000E+00  0.00000000E+00
  0.00000000E+00  0.00000000E+00  0.00000000E+00  0.00000000E+00  0.00000000E+00
  0.00000000E+00  0.00000000E+00  0.00000000E+00  0.00000000E+00  0.00000000E+00
  0.00000000E+00  0.00000000E+00  0.00000000E+00  0.00000000E+00  0.00000000E+00
  0.00000000E+00  0.00000000E+00  0.00000000E+00  0.00000000E+00  0.00000000E+00
  0.00000000E+00  0.00000000E+00  0.00000000E+00  0.00000000E+00  0.00000000E+00
  0.00000000E+00  0.00000000E+00  0.00000000E+00  0.00000000E+00  0.00000000E+00
  0.00000000E+00  0.00000000E+00  0.00000000E+00  0.00000000E+00  0.00000000E+00
  0.00000000E+00  0.00000000E+00  0.00000000E+00  0.00000000E+00  0.00000000E+00
  0.00000000E+00  0.00000000E+00  0.00000000E+00  0.00000000E+00  0.00000000E+00
  0.00000000E+00  0.00000000E+00  0.00000000E+00  0.00000000E+00  0.00000000E+00
  0.00000000E+00  0.00000000E+00  0.00000000E+00  0.00000000E+00  0.00000000E+00
  0.00000000E+00  0.00000000E+00  0.00000000E+00  0.00000000E+00  0.00000000E+00
  1.90440000E+00  1.36430000E+00  4.84000000E-01  7.31600000E+00  9.24030000E+00
  8.78200000E+00  5.61290000E+00  4.83340000E+00  3.24870000E+00  2.71090000E+00
  2.01130000E+00  1.50282000E+01  1.46788000E+01  2.13546000E+01  2.38290000E+01
  1.98022000E+01  1.50468000E+01  1.09745000E+01  1.27219000E+01  1.51949000E+01
  1.57342000E+01  2.79222000E+01  1.61366000E+01  2.21252000E+01  2.45676000E+01
  1.96016000E+01  1.79818000E+01  1.72396000E+01  5.01500000E+00  1.92898000E+01
  2.34477000E+01  2.23993000E+01  2.96586000E+01  2.60081000E+01  2.15580000E+01
  1.69594000E+01  1.56479000E+01  1.86897000E+01  1.93530000E+01  3.43444000E+01
  1.98480000E+01  2.72140000E+01  3.02182000E+01  2.41099000E+01  2.21176000E+01
  2.12047000E+01  7.56690000E+00  2.37264000E+01  2.93879000E+01  3.01278000E+01
  4.19382000E+01  3.85203000E+01  3.39511000E+01  2.75774000E+01  1.56460000E+01
  1.04460000E+01  2.01830000E+01  4.99540000E+01  4.76430000E+01  1.18690000E+01
  1.08670000E+01  9.96100000E+00  9.18700000E+00  3.67980000E+01  1.34070000E+01
  9.38200000E+00  9.81700000E+00  8.90800000E+00  8.40700000E+00  8.05800000E+00
  1.29600000E+01  2.67920000E+01  2.49300000E+01  3.45630000E+01  1.11860000E+01
  1.09440000E+01  1.01270000E+01  9.40400000E+00  1.36660000E+01  7.81000000E+00
  6.93600000E+01  5.86630000E+01  4.79690000E+01  4.52740000E+01  3.92290000E+01
  3.30660000E+01  0.00000000E+00  0.00000000E+00  0.00000000E+00  0.00000000E+00
  0.00000000E+00  0.00000000E+00  0.00000000E+00  0.00000000E+00  0.00000000E+00
  0.00000000E+00  0.00000000E+00  0.00000000E+00  0.00000000E+00  0.00000000E+00
  0.00000000E+00  0.00000000E+00  0.00000000E+00  0.00000000E+00  0.00000000E+00
  0.00000000E+00  0.00000000E+00  0.00000000E+00  0.00000000E+00  0.00000000E+00
  0.00000000E+00  0.00000000E+00  0.00000000E+00  0.00000000E+00  0.00000000E+00
  0.00000000E+00  0.00000000E+00  0.00000000E+00  0.00000000E+00  0.00000000E+00
  0.00000000E+00  0.00000000E+00  0.00000000E+00  0.00000000E+00  0.00000000E+00
  0.00000000E+00  0.00000000E+00  0.00000000E+00  0.00000000E+00  0.00000000E+00
  0.00000000E+00  0.00000000E+00  0.00000000E+00  0.00000000E+00  0.00000000E+00
  0.00000000E+00  0.00000000E+00  0.00000000E+00  0.00000000E+00  0.00000000E+00
  0.00000000E+00  0.00000000E+00  0.00000000E+00  0.00000000E+00  0.00000000E+00
  0.00000000E+00  0.00000000E+00  0.00000000E+00  0.00000000E+00  0.00000000E+00
  0.00000000E+00  0.00000000E+00  0.00000000E+00  0.00000000E+00  0.00000000E+00
  0.00000000E+00  0.00000000E+00  0.00000000E+00  0.00000000E+00  0.00000000E+00
  0.00000000E+00  0.00000000E+00  0.00000000E+00  0.00000000E+00  0.00000000E+00
  0.00000000E+00  0.00000000E+00  0.00000000E+00  0.00000000E+00  0.00000000E+00
  0.00000000E+00  0.00000000E+00  0.00000000E+00  0.00000000E+00  0.00000000E+00
  0.00000000E+00  0.00000000E+00  0.00000000E+00  0.00000000E+00  0.00000000E+00
  0.00000000E+00  0.00000000E+00  0.00000000E+00  0.00000000E+00  0.00000000E+00
  0.00000000E+00  0.00000000E+00  0.00000000E+00  0.00000000E+00  0.00000000E+00
  0.00000000E+00  0.00000000E+00  0.00000000E+00  0.00000000E+00  0.00000000E+00
  0.00000000E+00  0.00000000E+00  0.00000000E+00  0.00000000E+00  0.00000000E+00
  0.00000000E+00  0.00000000E+00  0.00000000E+00  0.00000000E+00  0.00000000E+00
  0.00000000E+00  0.00000000E+00  0.00000000E+00  0.00000000E+00  0.00000000E+00
  0.00000000E+00  0.00000000E+00  0.00000000E+00  0.00000000E+00  0.00000000E+00
  0.00000000E+00  0.00000000E+00  0.00000000E+00  0.00000000E+00  0.00000000E+00
  0.00000000E+00  0.00000000E+00  0.00000000E+00  0.00000000E+00  0.00000000E+00
  0.00000000E+00  0.00000000E+00  0.00000000E+00  0.00000000E+00  0.00000000E+00
  0.00000000E+00  0.00000000E+00  0.00000000E+00  0.00000000E+00  0.00000000E+00
  0.00000000E+00  0.00000000E+00  0.00000000E+00  0.00000000E+00  0.00000000E+00
  0.00000000E+00  0.00000000E+00  0.00000000E+00  0.00000000E+00  0.00000000E+00
  0.00000000E+00  0.00000000E+00  0.00000000E+00  0.00000000E+00  0.00000000E+00
  0.00000000E+00  0.00000000E+00  0.00000000E+00  0.00000000E+00  0.00000000E+00
  0.00000000E+00  0.00000000E+00  0.00000000E+00  0.00000000E+00  0.00000000E+00
  0.00000000E+00  0.00000000E+00  0.00000000E+00  0.00000000E+00  0.00000000E+00
  0.00000000E+00  0.00000000E+00  0.00000000E+00  0.00000000E+00  0.00000000E+00
  0.00000000E+00  0.00000000E+00  0.00000000E+00  0.00000000E+00  0.00000000E+00
  0.00000000E+00  0.00000000E+00  0.00000000E+00  0.00000000E+00  0.00000000E+00
  0.00000000E+00  0.00000000E+00  0.00000000E+00  0.00000000E+00  0.00000000E+00
  0.00000000E+00  0.00000000E+00  0.00000000E+00  0.00000000E+00  0.00000000E+00
  0.00000000E+00  0.00000000E+00  0.00000000E+00  0.00000000E+00  0.00000000E+00
  0.00000000E+00  0.00000000E+00  0.00000000E+00  0.00000000E+00  0.00000000E+00
  0.00000000E+00  0.00000000E+00  0.00000000E+00  0.00000000E+00  0.00000000E+00
  0.00000000E+00  0.00000000E+00  0.00000000E+00  0.00000000E+00  0.00000000E+00
  0.00000000E+00  0.00000000E+00  0.00000000E+00  0.00000000E+00  0.00000000E+00
  0.00000000E+00  0.00000000E+00  0.00000000E+00  0.00000000E+00  0.00000000E+00
  0.00000000E+00  0.00000000E+00  0.00000000E+00  0.00000000E+00  0.00000000E+00
  0.00000000E+00  0.00000000E+00  0.00000000E+00  0.00000000E+00  0.00000000E+00
  0.00000000E+00  0.00000000E+00  0.00000000E+00  0.00000000E+00  0.00000000E+00
  0.00000000E+00  0.00000000E+00  0.00000000E+00  0.00000000E+00  0.00000000E+00
  0.00000000E+00  0.00000000E+00  0.00000000E+00  0.00000000E+00  0.00000000E+00
  0.00000000E+00  0.00000000E+00  0.00000000E+00  0.00000000E+00  0.00000000E+00
  0.00000000E+00  0.00000000E+00  0.00000000E+00  0.00000000E+00  0.00000000E+00
  0.00000000E+00  0.00000000E+00  0.00000000E+00  0.00000000E+00  0.00000000E+00
  0.00000000E+00  0.00000000E+00  0.00000000E+00  0.00000000E+00  0.00000000E+00
  0.00000000E+00  0.00000000E+00  0.00000000E+00  0.00000000E+00  0.00000000E+00
  0.00000000E+00  0.00000000E+00  0.00000000E+00  0.00000000E+00  0.00000000E+00
  0.00000000E+00  0.00000000E+00  0.00000000E+00  0.00000000E+00  0.00000000E+00
  0.00000000E+00  0.00000000E+00  0.00000000E+00  0.00000000E+00  0.00000000E+00
  0.00000000E+00  0.00000000E+00  0.00000000E+00  0.00000000E+00  0.00000000E+00
  0.00000000E+00  0.00000000E+00  0.00000000E+00  0.00000000E+00  0.00000000E+00
  0.00000000E+00  0.00000000E+00  0.00000000E+00  0.00000000E+00  0.00000000E+00
  0.00000000E+00  0.00000000E+00  0.00000000E+00  0.00000000E+00  0.00000000E+00
  0.00000000E+00  0.00000000E+00  0.00000000E+00  0.00000000E+00  0.00000000E+00
  0.00000000E+00  0.00000000E+00  0.00000000E+00  0.00000000E+00  0.00000000E+00
  0.00000000E+00  0.00000000E+00  0.00000000E+00  0.00000000E+00  0.00000000E+00
  0.00000000E+00  0.00000000E+00  0.00000000E+00  0.00000000E+00  0.00000000E+00
  0.00000000E+00  0.00000000E+00  0.00000000E+00  0.00000000E+00  0.00000000E+00
  0.00000000E+00  0.00000000E+00  0.00000000E+00  0.00000000E+00  0.00000000E+00
  0.00000000E+00  0.00000000E+00  0.00000000E+00  0.00000000E+00  0.00000000E+00
  0.00000000E+00  0.00000000E+00  0.00000000E+00  0.00000000E+00  0.00000000E+00
  0.00000000E+00  0.00000000E+00  0.00000000E+00  0.00000000E+00  0.00000000E+00
  0.00000000E+00  0.00000000E+00  0.00000000E+00  0.00000000E+00  0.00000000E+00
  0.00000000E+00  0.00000000E+00  0.00000000E+00  0.00000000E+00  0.00000000E+00
  0.00000000E+00  0.00000000E+00  0.00000000E+00  0.00000000E+00  0.00000000E+00
  0.00000000E+00  0.00000000E+00  0.00000000E+00  0.00000000E+00  0.00000000E+00
  0.00000000E+00  0.00000000E+00  0.00000000E+00  0.00000000E+00  0.00000000E+00
  0.00000000E+00  0.00000000E+00  0.00000000E+00  0.00000000E+00  0.00000000E+00
  0.00000000E+00  0.00000000E+00  0.00000000E+00  0.00000000E+00  0.00000000E+00
  0.00000000E+00  0.00000000E+00  0.00000000E+00  0.00000000E+00  0.00000000E+00
  0.00000000E+00  0.00000000E+00  0.00000000E+00  0.00000000E+00  0.00000000E+00
  0.00000000E+00  0.00000000E+00  0.00000000E+00  0.00000000E+00  0.00000000E+00
  0.00000000E+00  0.00000000E+00  0.00000000E+00  0.00000000E+00  0.00000000E+00
  0.00000000E+00  0.00000000E+00  0.00000000E+00  0.00000000E+00  0.00000000E+00
  0.00000000E+00  0.00000000E+00  0.00000000E+00  0.00000000E+00  0.00000000E+00
  0.00000000E+00  0.00000000E+00  0.00000000E+00  0.00000000E+00  0.00000000E+00
  0.00000000E+00  0.00000000E+00  0.00000000E+00  0.00000000E+00  0.00000000E+00
  0.00000000E+00  0.00000000E+00  0.00000000E+00  0.00000000E+00  0.00000000E+00
  0.00000000E+00  0.00000000E+00  0.00000000E+00  0.00000000E+00  0.00000000E+00
  0.00000000E+00  0.00000000E+00  0.00000000E+00  0.00000000E+00  0.00000000E+00
  0.00000000E+00  0.00000000E+00  0.00000000E+00  0.00000000E+00  0.00000000E+00
  0.00000000E+00  0.00000000E+00  0.00000000E+00  0.00000000E+00  0.00000000E+00
  0.00000000E+00  0.00000000E+00  0.00000000E+00  0.00000000E+00  0.00000000E+00
  0.00000000E+00  0.00000000E+00  0.00000000E+00  0.00000000E+00  0.00000000E+00
  0.00000000E+00  0.00000000E+00  0.00000000E+00  0.00000000E+00  0.00000000E+00
  0.00000000E+00  0.00000000E+00  0.00000000E+00  0.00000000E+00  0.00000000E+00
  0.00000000E+00  0.00000000E+00  0.00000000E+00  0.00000000E+00  0.00000000E+00
  0.00000000E+00  0.00000000E+00  0.00000000E+00  0.00000000E+00  0.00000000E+00
  0.00000000E+00  0.00000000E+00  0.00000000E+00  0.00000000E+00  0.00000000E+00
  0.00000000E+00  0.00000000E+00  0.00000000E+00  0.00000000E+00  0.00000000E+00
  0.00000000E+00  0.00000000E+00  0.00000000E+00  0.00000000E+00  0.00000000E+00
  0.00000000E+00  0.00000000E+00  0.00000000E+00  0.00000000E+00  0.00000000E+00
  0.00000000E+00  0.00000000E+00  0.00000000E+00  0.00000000E+00  0.00000000E+00
  0.00000000E+00  0.00000000E+00  0.00000000E+00  0.00000000E+00  0.00000000E+00
  0.00000000E+00  0.00000000E+00  0.00000000E+00  0.00000000E+00  0.00000000E+00
  0.00000000E+00  0.00000000E+00  0.00000000E+00  0.00000000E+00  0.00000000E+00
  0.00000000E+00  0.00000000E+00  0.00000000E+00  0.00000000E+00  0.00000000E+00
  0.00000000E+00  0.00000000E+00  0.00000000E+00  0.00000000E+00  0.00000000E+00
  0.00000000E+00  0.00000000E+00  0.00000000E+00  0.00000000E+00  0.00000000E+00
  0.00000000E+00  0.00000000E+00  0.00000000E+00  0.00000000E+00  0.00000000E+00
  0.00000000E+00  0.00000000E+00  0.00000000E+00  0.00000000E+00  0.00000000E+00
  0.00000000E+00  0.00000000E+00  0.00000000E+00  0.00000000E+00  0.00000000E+00
  0.00000000E+00  0.00000000E+00  0.00000000E+00  0.00000000E+00  0.00000000E+00
  0.00000000E+00  0.00000000E+00  0.00000000E+00  0.00000000E+00  0.00000000E+00
  0.00000000E+00  0.00000000E+00  0.00000000E+00  0.00000000E+00  0.00000000E+00
  0.00000000E+00  0.00000000E+00  0.00000000E+00  0.00000000E+00  0.00000000E+00
  0.00000000E+00  0.00000000E+00  0.00000000E+00  0.00000000E+00  0.00000000E+00
  0.00000000E+00  0.00000000E+00  0.00000000E+00  0.00000000E+00  0.00000000E+00
  0.00000000E+00  0.00000000E+00  0.00000000E+00  0.00000000E+00  0.00000000E+00
  0.00000000E+00  0.00000000E+00  0.00000000E+00  0.00000000E+00  0.00000000E+00
  0.00000000E+00  0.00000000E+00  0.00000000E+00  0.00000000E+00  0.00000000E+00
  0.00000000E+00  0.00000000E+00  0.00000000E+00  0.00000000E+00  0.00000000E+00
  0.00000000E+00  0.00000000E+00  0.00000000E+00  0.00000000E+00  0.00000000E+00
  0.00000000E+00  0.00000000E+00  0.00000000E+00  0.00000000E+00  0.00000000E+00
  0.00000000E+00  0.00000000E+00  0.00000000E+00  0.00000000E+00  0.00000000E+00
  0.00000000E+00  0.00000000E+00  0.00000000E+00  0.00000000E+00  0.00000000E+00
  0.00000000E+00  0.00000000E+00  0.00000000E+00  0.00000000E+00  0.00000000E+00
  0.00000000E+00  0.00000000E+00  0.00000000E+00  0.00000000E+00  0.00000000E+00
  0.00000000E+00  0.00000000E+00  0.00000000E+00  0.00000000E+00  0.00000000E+00
  0.00000000E+00  0.00000000E+00  0.00000000E+00  0.00000000E+00  0.00000000E+00
  0.00000000E+00  0.00000000E+00  0.00000000E+00  0.00000000E+00  0.00000000E+00
  0.00000000E+00  0.00000000E+00  0.00000000E+00  0.00000000E+00  0.00000000E+00
  0.00000000E+00  0.00000000E+00  0.00000000E+00  0.00000000E+00  0.00000000E+00
  0.00000000E+00  0.00000000E+00  0.00000000E+00  0.00000000E+00  0.00000000E+00
  0.00000000E+00  0.00000000E+00  0.00000000E+00  0.00000000E+00  0.00000000E+00
  0.00000000E+00  0.00000000E+00  0.00000000E+00  0.00000000E+00  0.00000000E+00
  0.00000000E+00  0.00000000E+00  0.00000000E+00  0.00000000E+00  0.00000000E+00
  0.00000000E+00  0.00000000E+00  0.00000000E+00  0.00000000E+00  0.00000000E+00
  0.00000000E+00  0.00000000E+00  0.00000000E+00  0.00000000E+00  0.00000000E+00
  0.00000000E+00  0.00000000E+00  0.00000000E+00  0.00000000E+00  0.00000000E+00
  0.00000000E+00  0.00000000E+00  0.00000000E+00  0.00000000E+00  0.00000000E+00
  0.00000000E+00  0.00000000E+00  0.00000000E+00  0.00000000E+00  0.00000000E+00
  0.00000000E+00  0.00000000E+00  0.00000000E+00  0.00000000E+00  0.00000000E+00
  0.00000000E+00  0.00000000E+00  0.00000000E+00  0.00000000E+00  0.00000000E+00
  0.00000000E+00  0.00000000E+00  0.00000000E+00  0.00000000E+00  0.00000000E+00
  0.00000000E+00  0.00000000E+00  0.00000000E+00  0.00000000E+00  0.00000000E+00
  0.00000000E+00  0.00000000E+00  0.00000000E+00  0.00000000E+00  0.00000000E+00
  0.00000000E+00  0.00000000E+00  0.00000000E+00  0.00000000E+00  0.00000000E+00
  0.00000000E+00  0.00000000E+00  0.00000000E+00  0.00000000E+00  0.00000000E+00
  0.00000000E+00  0.00000000E+00  0.00000000E+00  0.00000000E+00  0.00000000E+00
  0.00000000E+00  0.00000000E+00  0.00000000E+00  0.00000000E+00  0.00000000E+00
  0.00000000E+00  0.00000000E+00  0.00000000E+00  0.00000000E+00  0.00000000E+00
  0.00000000E+00  0.00000000E+00  0.00000000E+00  0.00000000E+00  0.00000000E+00
  0.00000000E+00  0.00000000E+00  0.00000000E+00  0.00000000E+00  0.00000000E+00
  0.00000000E+00  0.00000000E+00  0.00000000E+00  0.00000000E+00  0.00000000E+00
  0.00000000E+00  0.00000000E+00  0.00000000E+00  0.00000000E+00  0.00000000E+00
  0.00000000E+00  0.00000000E+00  0.00000000E+00  0.00000000E+00  0.00000000E+00
  0.00000000E+00  0.00000000E+00  0.00000000E+00  0.00000000E+00  0.00000000E+00
  0.00000000E+00  0.00000000E+00  0.00000000E+00  0.00000000E+00  0.00000000E+00
  0.00000000E+00  0.00000000E+00  0.00000000E+00  0.00000000E+00  0.00000000E+00
  0.00000000E+00  0.00000000E+00  0.00000000E+00  0.00000000E+00  0.00000000E+00
  0.00000000E+00  0.00000000E+00  0.00000000E+00  0.00000000E+00  0.00000000E+00
  0.00000000E+00  0.00000000E+00  0.00000000E+00  0.00000000E+00  0.00000000E+00
  0.00000000E+00  0.00000000E+00  0.00000000E+00  0.00000000E+00  0.00000000E+00
  0.00000000E+00  0.00000000E+00  0.00000000E+00  0.00000000E+00  0.00000000E+00
  0.00000000E+00  0.00000000E+00  0.00000000E+00  0.00000000E+00  0.00000000E+00
  0.00000000E+00  0.00000000E+00  0.00000000E+00  0.00000000E+00  0.00000000E+00
  0.00000000E+00  0.00000000E+00  0.00000000E+00  0.00000000E+00  0.00000000E+00
  0.00000000E+00  0.00000000E+00  0.00000000E+00  0.00000000E+00  0.00000000E+00
  0.00000000E+00  0.00000000E+00  0.00000000E+00  0.00000000E+00  0.00000000E+00
  0.00000000E+00  0.00000000E+00  0.00000000E+00  0.00000000E+00  0.00000000E+00
  0.00000000E+00  0.00000000E+00  0.00000000E+00  0.00000000E+00  0.00000000E+00
  0.00000000E+00  0.00000000E+00  0.00000000E+00  0.00000000E+00  0.00000000E+00
  0.00000000E+00  0.00000000E+00  0.00000000E+00  0.00000000E+00  0.00000000E+00
  0.00000000E+00  0.00000000E+00  0.00000000E+00  0.00000000E+00  0.00000000E+00
  0.00000000E+00  0.00000000E+00  0.00000000E+00  0.00000000E+00  0.00000000E+00
  0.00000000E+00  0.00000000E+00  0.00000000E+00  0.00000000E+00  0.00000000E+00
  0.00000000E+00  0.00000000E+00  0.00000000E+00  0.00000000E+00  0.00000000E+00
  0.00000000E+00  0.00000000E+00  0.00000000E+00  0.00000000E+00  0.00000000E+00
  0.00000000E+00  0.00000000E+00  0.00000000E+00  0.00000000E+00  0.00000000E+00
  0.00000000E+00  0.00000000E+00  0.00000000E+00  0.00000000E+00  0.00000000E+00
  0.00000000E+00  0.00000000E+00  0.00000000E+00  0.00000000E+00  0.00000000E+00
  0.00000000E+00  0.00000000E+00  0.00000000E+00  0.00000000E+00  0.00000000E+00
  0.00000000E+00  0.00000000E+00  0.00000000E+00  0.00000000E+00  0.00000000E+00
  0.00000000E+00  0.00000000E+00  0.00000000E+00  0.00000000E+00  0.00000000E+00
  0.00000000E+00  0.00000000E+00  0.00000000E+00  0.00000000E+00  0.00000000E+00
  0.00000000E+00  0.00000000E+00  0.00000000E+00  0.00000000E+00  0.00000000E+00
  0.00000000E+00  0.00000000E+00  0.00000000E+00  0.00000000E+00  0.00000000E+00
  0.00000000E+00  0.00000000E+00  0.00000000E+00  0.00000000E+00  0.00000000E+00
  0.00000000E+00  0.00000000E+00  0.00000000E+00  0.00000000E+00  0.00000000E+00
  0.00000000E+00  0.00000000E+00  0.00000000E+00  0.00000000E+00  0.00000000E+00
  0.00000000E+00  0.00000000E+00  0.00000000E+00  0.00000000E+00  0.00000000E+00
  0.00000000E+00  0.00000000E+00  0.00000000E+00  0.00000000E+00  0.00000000E+00
  0.00000000E+00  0.00000000E+00  0.00000000E+00  0.00000000E+00  0.00000000E+00
  0.00000000E+00  0.00000000E+00  0.00000000E+00  0.00000000E+00  0.00000000E+00
  0.00000000E+00  0.00000000E+00  0.00000000E+00  0.00000000E+00  0.00000000E+00
  0.00000000E+00  0.00000000E+00  0.00000000E+00  0.00000000E+00  0.00000000E+00
  0.00000000E+00  0.00000000E+00  0.00000000E+00  0.00000000E+00  0.00000000E+00
  0.00000000E+00  0.00000000E+00  0.00000000E+00  0.00000000E+00  0.00000000E+00
  0.00000000E+00  0.00000000E+00  0.00000000E+00  0.00000000E+00  0.00000000E+00
  0.00000000E+00  0.00000000E+00  0.00000000E+00  0.00000000E+00  0.00000000E+00
  0.00000000E+00  0.00000000E+00  0.00000000E+00  0.00000000E+00  0.00000000E+00
  0.00000000E+00  0.00000000E+00  0.00000000E+00  0.00000000E+00  0.00000000E+00
  0.00000000E+00  0.00000000E+00  0.00000000E+00  0.00000000E+00  0.00000000E+00
  0.00000000E+00  0.00000000E+00  0.00000000E+00  0.00000000E+00  0.00000000E+00
  0.00000000E+00  0.00000000E+00  0.00000000E+00  0.00000000E+00  0.00000000E+00
  0.00000000E+00  0.00000000E+00  0.00000000E+00  0.00000000E+00  0.00000000E+00
  0.00000000E+00  0.00000000E+00  0.00000000E+00  0.00000000E+00  0.00000000E+00
  0.00000000E+00  0.00000000E+00  0.00000000E+00  0.00000000E+00  0.00000000E+00
  0.00000000E+00  0.00000000E+00  0.00000000E+00  0.00000000E+00  0.00000000E+00
  0.00000000E+00  0.00000000E+00  0.00000000E+00  0.00000000E+00  0.00000000E+00
  0.00000000E+00  0.00000000E+00  0.00000000E+00  0.00000000E+00  0.00000000E+00
  0.00000000E+00  0.00000000E+00  0.00000000E+00  0.00000000E+00  0.00000000E+00
  0.00000000E+00  0.00000000E+00  0.00000000E+00  0.00000000E+00  0.00000000E+00
  0.00000000E+00  0.00000000E+00  0.00000000E+00  0.00000000E+00  0.00000000E+00
  0.00000000E+00  0.00000000E+00  0.00000000E+00  0.00000000E+00  0.00000000E+00
  0.00000000E+00  0.00000000E+00  0.00000000E+00  0.00000000E+00  0.00000000E+00
  0.00000000E+00  0.00000000E+00  0.00000000E+00  0.00000000E+00  0.00000000E+00
  0.00000000E+00  0.00000000E+00  0.00000000E+00  0.00000000E+00  0.00000000E+00
  0.00000000E+00  0.00000000E+00  0.00000000E+00  0.00000000E+00  0.00000000E+00
  0.00000000E+00  0.00000000E+00  0.00000000E+00  0.00000000E+00  0.00000000E+00
  0.00000000E+00  0.00000000E+00  0.00000000E+00  0.00000000E+00  0.00000000E+00
  0.00000000E+00  0.00000000E+00  0.00000000E+00  0.00000000E+00  0.00000000E+00
  0.00000000E+00  0.00000000E+00  0.00000000E+00  0.00000000E+00  0.00000000E+00
  0.00000000E+00  0.00000000E+00  0.00000000E+00  0.00000000E+00  0.00000000E+00
  0.00000000E+00  0.00000000E+00  0.00000000E+00  0.00000000E+00  0.00000000E+00
  0.00000000E+00  0.00000000E+00  0.00000000E+00  0.00000000E+00  0.00000000E+00
  0.00000000E+00  0.00000000E+00  0.00000000E+00  0.00000000E+00  0.00000000E+00
  0.00000000E+00  0.00000000E+00  0.00000000E+00  0.00000000E+00  0.00000000E+00
  0.00000000E+00  0.00000000E+00  0.00000000E+00  0.00000000E+00  0.00000000E+00
  0.00000000E+00  0.00000000E+00  0.00000000E+00  0.00000000E+00  0.00000000E+00
  0.00000000E+00  0.00000000E+00  0.00000000E+00  0.00000000E+00  0.00000000E+00
  0.00000000E+00  0.00000000E+00  0.00000000E+00  0.00000000E+00  0.00000000E+00
  0.00000000E+00  0.00000000E+00  0.00000000E+00  0.00000000E+00  0.00000000E+00
  0.00000000E+00  0.00000000E+00  0.00000000E+00  0.00000000E+00  0.00000000E+00
  0.00000000E+00  0.00000000E+00  0.00000000E+00  0.00000000E+00  0.00000000E+00
  0.00000000E+00  0.00000000E+00  0.00000000E+00  0.00000000E+00  0.00000000E+00
  0.00000000E+00  0.00000000E+00  0.00000000E+00  0.00000000E+00  0.00000000E+00
  0.00000000E+00  0.00000000E+00  0.00000000E+00  0.00000000E+00  0.00000000E+00
  0.00000000E+00  0.00000000E+00  0.00000000E+00  0.00000000E+00  0.00000000E+00
  0.00000000E+00  0.00000000E+00  0.00000000E+00  0.00000000E+00  0.00000000E+00
  0.00000000E+00  0.00000000E+00  0.00000000E+00  0.00000000E+00  0.00000000E+00
  0.00000000E+00  0.00000000E+00  0.00000000E+00  0.00000000E+00  0.00000000E+00
  0.00000000E+00  0.00000000E+00  0.00000000E+00  0.00000000E+00  0.00000000E+00
  0.00000000E+00  0.00000000E+00  0.00000000E+00  0.00000000E+00  0.00000000E+00
  0.00000000E+00  0.00000000E+00  0.00000000E+00  0.00000000E+00  0.00000000E+00
  0.00000000E+00  0.00000000E+00  0.00000000E+00  0.00000000E+00  0.00000000E+00
  0.00000000E+00  0.00000000E+00  0.00000000E+00  0.00000000E+00  0.00000000E+00
  0.00000000E+00  0.00000000E+00  0.00000000E+00  0.00000000E+00  0.00000000E+00
  0.00000000E+00  0.00000000E+00  0.00000000E+00  0.00000000E+00  0.00000000E+00
  0.00000000E+00  0.00000000E+00  0.00000000E+00  0.00000000E+00  0.00000000E+00
  0.00000000E+00  0.00000000E+00  0.00000000E+00  0.00000000E+00  0.00000000E+00
  0.00000000E+00  0.00000000E+00  0.00000000E+00  0.00000000E+00  0.00000000E+00
  0.00000000E+00  0.00000000E+00  0.00000000E+00  0.00000000E+00  0.00000000E+00
  0.00000000E+00  0.00000000E+00  0.00000000E+00  0.00000000E+00  0.00000000E+00
  0.00000000E+00  0.00000000E+00  0.00000000E+00  0.00000000E+00  0.00000000E+00
  0.00000000E+00  0.00000000E+00  0.00000000E+00  0.00000000E+00  0.00000000E+00
  0.00000000E+00  0.00000000E+00  0.00000000E+00  0.00000000E+00  0.00000000E+00
  0.00000000E+00  0.00000000E+00  0.00000000E+00  0.00000000E+00  0.00000000E+00
  0.00000000E+00  0.00000000E+00  0.00000000E+00  0.00000000E+00  0.00000000E+00
  0.00000000E+00  0.00000000E+00  0.00000000E+00  0.00000000E+00  0.00000000E+00
  0.00000000E+00  0.00000000E+00  0.00000000E+00  0.00000000E+00  0.00000000E+00
  0.00000000E+00  0.00000000E+00  0.00000000E+00  0.00000000E+00  0.00000000E+00
  0.00000000E+00  0.00000000E+00  0.00000000E+00  0.00000000E+00  0.00000000E+00
  0.00000000E+00  0.00000000E+00  0.00000000E+00  0.00000000E+00  0.00000000E+00
  0.00000000E+00  0.00000000E+00  0.00000000E+00  0.00000000E+00  0.00000000E+00
  0.00000000E+00  0.00000000E+00  0.00000000E+00  0.00000000E+00  0.00000000E+00
  0.00000000E+00  0.00000000E+00  0.00000000E+00  0.00000000E+00  0.00000000E+00
  0.00000000E+00  0.00000000E+00  0.00000000E+00  0.00000000E+00  0.00000000E+00
  0.00000000E+00  0.00000000E+00  0.00000000E+00  0.00000000E+00  0.00000000E+00
  0.00000000E+00  0.00000000E+00  0.00000000E+00  0.00000000E+00  0.00000000E+00
  0.00000000E+00  0.00000000E+00  0.00000000E+00  0.00000000E+00  0.00000000E+00
  0.00000000E+00  0.00000000E+00  0.00000000E+00  0.00000000E+00  0.00000000E+00
  0.00000000E+00  0.00000000E+00  0.00000000E+00  0.00000000E+00  0.00000000E+00
  0.00000000E+00  0.00000000E+00  0.00000000E+00  0.00000000E+00  0.00000000E+00
  0.00000000E+00  0.00000000E+00  0.00000000E+00  0.00000000E+00  0.00000000E+00
  0.00000000E+00  0.00000000E+00  0.00000000E+00  0.00000000E+00  0.00000000E+00
  0.00000000E+00  0.00000000E+00  0.00000000E+00  0.00000000E+00  0.00000000E+00
  0.00000000E+00  0.00000000E+00  0.00000000E+00  0.00000000E+00  0.00000000E+00
  0.00000000E+00  0.00000000E+00  0.00000000E+00  0.00000000E+00  0.00000000E+00
  0.00000000E+00  0.00000000E+00  0.00000000E+00  0.00000000E+00  0.00000000E+00
  0.00000000E+00  0.00000000E+00  0.00000000E+00  0.00000000E+00  0.00000000E+00
  0.00000000E+00  0.00000000E+00  0.00000000E+00  0.00000000E+00  0.00000000E+00
  0.00000000E+00  0.00000000E+00  0.00000000E+00  0.00000000E+00  0.00000000E+00
  0.00000000E+00  0.00000000E+00  0.00000000E+00  0.00000000E+00  0.00000000E+00
  0.00000000E+00  0.00000000E+00  0.00000000E+00  0.00000000E+00  0.00000000E+00
  0.00000000E+00  0.00000000E+00  0.00000000E+00  0.00000000E+00  0.00000000E+00
  0.00000000E+00  0.00000000E+00  0.00000000E+00  0.00000000E+00  0.00000000E+00
  0.00000000E+00  0.00000000E+00  0.00000000E+00  0.00000000E+00  0.00000000E+00
  0.00000000E+00  0.00000000E+00  0.00000000E+00  0.00000000E+00  0.00000000E+00
  0.00000000E+00  0.00000000E+00  0.00000000E+00  0.00000000E+00  0.00000000E+00
  0.00000000E+00  0.00000000E+00  0.00000000E+00  0.00000000E+00  0.00000000E+00
  0.00000000E+00  0.00000000E+00  0.00000000E+00  0.00000000E+00  0.00000000E+00
  0.00000000E+00  0.00000000E+00  0.00000000E+00  0.00000000E+00  0.00000000E+00
  0.00000000E+00  0.00000000E+00  0.00000000E+00  0.00000000E+00  0.00000000E+00
  0.00000000E+00  0.00000000E+00  0.00000000E+00  0.00000000E+00  0.00000000E+00
  0.00000000E+00  0.00000000E+00  0.00000000E+00  0.00000000E+00  0.00000000E+00
  0.00000000E+00  0.00000000E+00  0.00000000E+00  0.00000000E+00  0.00000000E+00
  0.00000000E+00  0.00000000E+00  0.00000000E+00  0.00000000E+00  0.00000000E+00
  0.00000000E+00  0.00000000E+00  0.00000000E+00  0.00000000E+00  0.00000000E+00
  0.00000000E+00  0.00000000E+00  0.00000000E+00  0.00000000E+00  0.00000000E+00
  0.00000000E+00  0.00000000E+00  0.00000000E+00  0.00000000E+00  0.00000000E+00
  0.00000000E+00  0.00000000E+00  0.00000000E+00  0.00000000E+00  0.00000000E+00
  0.00000000E+00  0.00000000E+00  0.00000000E+00  0.00000000E+00  0.00000000E+00
  0.00000000E+00  0.00000000E+00  0.00000000E+00  0.00000000E+00  0.00000000E+00
  0.00000000E+00  0.00000000E+00  0.00000000E+00  0.00000000E+00  0.00000000E+00
  0.00000000E+00  0.00000000E+00  0.00000000E+00  0.00000000E+00  0.00000000E+00
  0.00000000E+00  0.00000000E+00  0.00000000E+00  0.00000000E+00  0.00000000E+00
  0.00000000E+00  0.00000000E+00  0.00000000E+00  0.00000000E+00  0.00000000E+00
  0.00000000E+00  0.00000000E+00  0.00000000E+00  0.00000000E+00  0.00000000E+00
  0.00000000E+00  0.00000000E+00  0.00000000E+00  0.00000000E+00  0.00000000E+00
  0.00000000E+00  0.00000000E+00  0.00000000E+00  0.00000000E+00  0.00000000E+00
  0.00000000E+00  0.00000000E+00  0.00000000E+00  0.00000000E+00  0.00000000E+00
  0.00000000E+00  0.00000000E+00  0.00000000E+00  0.00000000E+00  0.00000000E+00
  0.00000000E+00  0.00000000E+00  0.00000000E+00  0.00000000E+00  0.00000000E+00
  0.00000000E+00  0.00000000E+00  0.00000000E+00  0.00000000E+00  0.00000000E+00
  0.00000000E+00  0.00000000E+00  0.00000000E+00  0.00000000E+00  0.00000000E+00
  0.00000000E+00  0.00000000E+00  0.00000000E+00  0.00000000E+00  0.00000000E+00
  0.00000000E+00  0.00000000E+00  0.00000000E+00  0.00000000E+00  0.00000000E+00
  0.00000000E+00  0.00000000E+00  0.00000000E+00  0.00000000E+00  0.00000000E+00
  0.00000000E+00  0.00000000E+00  0.00000000E+00  0.00000000E+00  0.00000000E+00
  0.00000000E+00  0.00000000E+00  0.00000000E+00  0.00000000E+00  0.00000000E+00
  0.00000000E+00  0.00000000E+00  0.00000000E+00  0.00000000E+00  0.00000000E+00
  0.00000000E+00  0.00000000E+00  0.00000000E+00  0.00000000E+00  0.00000000E+00
  0.00000000E+00  0.00000000E+00  0.00000000E+00  0.00000000E+00  0.00000000E+00
  0.00000000E+00  0.00000000E+00  0.00000000E+00  0.00000000E+00  0.00000000E+00
  0.00000000E+00  0.00000000E+00  0.00000000E+00  0.00000000E+00  0.00000000E+00
  0.00000000E+00  0.00000000E+00  0.00000000E+00  0.00000000E+00  0.00000000E+00
  0.00000000E+00  0.00000000E+00  0.00000000E+00  0.00000000E+00  0.00000000E+00
  0.00000000E+00  0.00000000E+00  0.00000000E+00  0.00000000E+00  0.00000000E+00
  0.00000000E+00  0.00000000E+00  0.00000000E+00  0.00000000E+00  0.00000000E+00
  0.00000000E+00  0.00000000E+00  0.00000000E+00  0.00000000E+00  0.00000000E+00
  0.00000000E+00  0.00000000E+00  0.00000000E+00  0.00000000E+00  0.00000000E+00
  0.00000000E+00  0.00000000E+00  0.00000000E+00  0.00000000E+00  0.00000000E+00
  0.00000000E+00  0.00000000E+00  0.00000000E+00  0.00000000E+00  0.00000000E+00
  0.00000000E+00  0.00000000E+00  0.00000000E+00  0.00000000E+00  0.00000000E+00
  0.00000000E+00  0.00000000E+00  0.00000000E+00  0.00000000E+00  0.00000000E+00
  0.00000000E+00  0.00000000E+00  0.00000000E+00  0.00000000E+00  0.00000000E+00
  0.00000000E+00  0.00000000E+00  0.00000000E+00  0.00000000E+00  0.00000000E+00
  0.00000000E+00  0.00000000E+00  0.00000000E+00  0.00000000E+00  0.00000000E+00
  0.00000000E+00  0.00000000E+00  0.00000000E+00  0.00000000E+00  0.00000000E+00
  0.00000000E+00  0.00000000E+00  0.00000000E+00  0.00000000E+00  0.00000000E+00
  0.00000000E+00  0.00000000E+00  0.00000000E+00  0.00000000E+00  0.00000000E+00
  0.00000000E+00  0.00000000E+00  0.00000000E+00  0.00000000E+00  0.00000000E+00
  0.00000000E+00  0.00000000E+00  0.00000000E+00  0.00000000E+00  0.00000000E+00
  0.00000000E+00  0.00000000E+00  0.00000000E+00  0.00000000E+00  0.00000000E+00
  0.00000000E+00  0.00000000E+00  0.00000000E+00  0.00000000E+00  0.00000000E+00
  0.00000000E+00  0.00000000E+00  0.00000000E+00  0.00000000E+00  0.00000000E+00
  0.00000000E+00  0.00000000E+00  0.00000000E+00  0.00000000E+00  0.00000000E+00
  0.00000000E+00  0.00000000E+00  0.00000000E+00  0.00000000E+00  0.00000000E+00
  0.00000000E+00  0.00000000E+00  0.00000000E+00  0.00000000E+00  0.00000000E+00
  0.00000000E+00  0.00000000E+00  0.00000000E+00  0.00000000E+00  0.00000000E+00
  0.00000000E+00  0.00000000E+00  0.00000000E+00  0.00000000E+00  0.00000000E+00
  0.00000000E+00  0.00000000E+00  0.00000000E+00  0.00000000E+00  0.00000000E+00
  0.00000000E+00  0.00000000E+00  0.00000000E+00  0.00000000E+00  0.00000000E+00
  0.00000000E+00  0.00000000E+00  0.00000000E+00  0.00000000E+00  0.00000000E+00
  0.00000000E+00  0.00000000E+00  0.00000000E+00  0.00000000E+00  0.00000000E+00
  0.00000000E+00  0.00000000E+00  0.00000000E+00  0.00000000E+00  0.00000000E+00
  0.00000000E+00  0.00000000E+00  0.00000000E+00  0.00000000E+00  0.00000000E+00
  0.00000000E+00  0.00000000E+00  0.00000000E+00  0.00000000E+00  0.00000000E+00
  0.00000000E+00  0.00000000E+00  0.00000000E+00  0.00000000E+00  0.00000000E+00
  0.00000000E+00  0.00000000E+00  0.00000000E+00  0.00000000E+00  0.00000000E+00
  0.00000000E+00  0.00000000E+00  0.00000000E+00  0.00000000E+00  0.00000000E+00
  0.00000000E+00  0.00000000E+00  0.00000000E+00  0.00000000E+00  0.00000000E+00
  0.00000000E+00  0.00000000E+00  0.00000000E+00  0.00000000E+00  0.00000000E+00
  0.00000000E+00  0.00000000E+00  0.00000000E+00  0.00000000E+00  0.00000000E+00
  0.00000000E+00  0.00000000E+00  0.00000000E+00  0.00000000E+00  0.00000000E+00
  0.00000000E+00  0.00000000E+00  0.00000000E+00  0.00000000E+00  0.00000000E+00
  0.00000000E+00  0.00000000E+00  0.00000000E+00  0.00000000E+00  0.00000000E+00
  0.00000000E+00  0.00000000E+00  0.00000000E+00  0.00000000E+00  0.00000000E+00
  0.00000000E+00  0.00000000E+00  0.00000000E+00  0.00000000E+00  0.00000000E+00
  0.00000000E+00  0.00000000E+00  0.00000000E+00  0.00000000E+00  0.00000000E+00
  0.00000000E+00  0.00000000E+00  0.00000000E+00  0.00000000E+00  0.00000000E+00
  0.00000000E+00  0.00000000E+00  0.00000000E+00  0.00000000E+00  0.00000000E+00
  0.00000000E+00  0.00000000E+00  0.00000000E+00  0.00000000E+00  0.00000000E+00
  0.00000000E+00  0.00000000E+00  0.00000000E+00  0.00000000E+00  0.00000000E+00
  0.00000000E+00  0.00000000E+00  0.00000000E+00  0.00000000E+00  0.00000000E+00
  0.00000000E+00  0.00000000E+00  0.00000000E+00  0.00000000E+00  0.00000000E+00
  0.00000000E+00  0.00000000E+00  0.00000000E+00  0.00000000E+00  0.00000000E+00
  0.00000000E+00  0.00000000E+00  0.00000000E+00  0.00000000E+00  0.00000000E+00
  0.00000000E+00  0.00000000E+00  0.00000000E+00  0.00000000E+00  0.00000000E+00
  0.00000000E+00  0.00000000E+00  0.00000000E+00  0.00000000E+00  0.00000000E+00
Gaussian Version                           C   N=           2
ES64L-G16RevB.01        
