%mem=1GB
%nprocshared=1
%chk=GauHarm.chk
#p Amber=(SoftOnly,Print) nosymm  Freq=intmodes
 
Title

0 1
C-c3-0.00  -0.586838  1.436978  -0.566964
H-h3-0.00  -1.380948  2.181498  -0.480955
H-h3-0.00  -0.741117  0.896584  -1.502852
H-h3-0.00  0.366163  1.968936  -0.639975
C-c3-0.00  -0.586838  0.491947  0.635348
H-h3-0.00  -1.526348  -0.071004  0.657687
H-h3-0.00  -0.554528  1.082342  1.555793
C-c3-0.00  0.586838  -0.491947  0.635348
H-h3-0.00  1.526348  0.071004  0.657687
H-h3-0.00  0.554528  -1.082342  1.555793
C-c3-0.00  0.586838  -1.436978  -0.566964
H-h3-0.00  1.380948  -2.181498  -0.480955
H-h3-0.00  -0.366163  -1.968936  -0.639975
H-h3-0.00  0.741117  -0.896584  -1.502852

! Master function
NonBon 3 1 0 0 0.000 0.000 0.500 0.000 0.000 -1.2
! SMARTFIELD FF
!Bonds
HrmStr1 c3 c3  1.0 1.530
HrmStr1 c3 h3  1.0 1.093
!Angles
HrmBnd1 c3 c3 c3  1.0 113.391
HrmBnd1 c3 c3 h3  1.0 109.996
HrmBnd1 h3 c3 h3  1.0 107.484
!Torsions
AmbTrs c3 c3 c3 c3 0 0 0 0  0. 0. 1.0 0. 9.0
AmbTrs c3 c3 c3 h3 0 0 0 0  0. 0. 1.0 0. 9.0
AmbTrs h3 c3 c3 h3 0 0 0 0  0. 0. 1.0 0. 9.0

