 Entering Gaussian System, Link 0=/home/emanuele/chem_software/gaussian/g09/g09
 Input=GauHarm.gjf
 Output=GauHarm.log
 Initial command:
 /home/emanuele/chem_software/gaussian//gdv/l1.exe "/home/emanuele/chem_software/gaussian/scratch/Gau-10425.inp" -scrdir="/home/emanuele/chem_software/gaussian/scratch/"
 Entering Link 1 = /home/emanuele/chem_software/gaussian//gdv/l1.exe PID=     10427.
  
 Copyright (c) 1988-2020, Gaussian, Inc.  All Rights Reserved.
  
 This is the private, development version of
 the Gaussian(R) DV system of programs. It is based on
 the Gaussian(R) 16 system (copyright 2016, Gaussian, Inc.),
 the Gaussian(R) 09 system (copyright 2009, Gaussian, Inc.),
 the Gaussian(R) 03 system (copyright 2003, Gaussian, Inc.),
 the Gaussian(R) 98 system (copyright 1998, Gaussian, Inc.),
 the Gaussian(R) 94 system (copyright 1995, Gaussian, Inc.),
 the Gaussian 92(TM) system (copyright 1992, Gaussian, Inc.),
 the Gaussian 90(TM) system (copyright 1990, Gaussian, Inc.),
 the Gaussian 88(TM) system (copyright 1988, Gaussian, Inc.),
 the Gaussian 86(TM) system (copyright 1986, Carnegie Mellon
 University), and the Gaussian 82(TM) system (copyright 1983,
 Carnegie Mellon University). Gaussian is a federally registered
 trademark of Gaussian, Inc.
  
 This software contains proprietary and confidential information,
 including trade secrets, belonging to Gaussian, Inc.
  
 This software is provided under written license and may be
 used, copied, transmitted, or stored only in accord with that
 written license.
  
 The following legend is applicable only to US Government
 contracts under FAR:
  
                    RESTRICTED RIGHTS LEGEND
  
 Use, reproduction and disclosure by the US Government is
 subject to restrictions as set forth in subparagraphs (a)
 and (c) of the Commercial Computer Software - Restricted
 Rights clause in FAR 52.227-19.
  
 Gaussian, Inc.
 340 Quinnipiac St., Bldg. 40, Wallingford CT 06492
  
  
 ---------------------------------------------------------------
 Warning -- This program may not be used in any manner that
 competes with the business of Gaussian, Inc. or will provide
 assistance to any competitor of Gaussian, Inc.  The licensee
 of this program is prohibited from giving any competitor of
 Gaussian, Inc. access to this program.  By using this program,
 the user acknowledges that Gaussian, Inc. is engaged in the
 business of creating and licensing software in the field of
 computational chemistry and represents and warrants to the
 licensee that it is not a competitor of Gaussian, Inc. and that
 it will not use this program in any manner prohibited above.
 ---------------------------------------------------------------
  

 Cite this work as:
 Gaussian Development Version, Revision J.14,
 M. J. Frisch, G. W. Trucks, H. B. Schlegel, G. E. Scuseria, 
 M. A. Robb, J. R. Cheeseman, G. Scalmani, V. Barone, 
 G. A. Petersson, H. Nakatsuji, X. Li, A. V. Marenich, M. Caricato, 
 J. Bloino, B. G. Janesko, J. Zheng, R. Gomperts, B. Mennucci, 
 H. P. Hratchian, J. V. Ortiz, A. F. Izmaylov, J. L. Sonnenberg, 
 D. Williams-Young, F. Ding, F. Lipparini, F. Egidi, J. Goings, 
 B. Peng, A. Petrone, T. Henderson, D. Ranasinghe, V. G. Zakrzewski, 
 J. Gao, N. Rega, G. Zheng, W. Liang, M. Hada, M. Ehara, K. Toyota, 
 R. Fukuda, J. Hasegawa, M. Ishida, T. Nakajima, Y. Honda, O. Kitao, 
 H. Nakai, T. Vreven, K. Throssell, J. A. Montgomery, Jr., 
 J. E. Peralta, F. Ogliaro, M. J. Bearpark, J. J. Heyd, 
 E. N. Brothers, K. N. Kudin, V. N. Staroverov, T. A. Keith, 
 R. Kobayashi, J. Normand, K. Raghavachari, A. P. Rendell, 
 J. C. Burant, S. S. Iyengar, J. Tomasi, M. Cossi, J. M. Millam, 
 M. Klene, C. Adamo, R. Cammi, J. W. Ochterski, R. L. Martin, 
 K. Morokuma, O. Farkas, J. B. Foresman, and D. J. Fox, 
 Gaussian, Inc., Wallingford CT, 2020.
 
 ******************************************
 Gaussian DV:  ES64L-GDVRevJ.14 29-Dec-2020
                14-Aug-2026 
 ******************************************
 %mem=1GB
 %nprocshared=1
 Will use up to    1 processors via shared memory.
 %chk=GauHarm.chk
 ----------------------------------------------
 #p Amber=(SoftOnly,Print) nosymm Freq=intmodes
 ----------------------------------------------
 1/10=4,18=20,30=1,37=210000000,38=1,56=2,64=303/1,3;
 2/9=110,12=2,15=1,40=1/2;
 3/5=30,11=9,25=1,30=1,41=10030000,43=2,71=2,140=1/1;
 4/20=11,22=2,24=3,119=11/2;
 7/8=21,25=1,30=1,44=-1/16;
 1/10=4,18=20,30=1,64=303/3;
 99//99;
 Leave Link    1 at Fri Aug 14 10:43:55 2026, MaxMem=   134217728 cpu:               0.0 elap:               0.0
 (Enter /home/emanuele/chem_software/gaussian//gdv/l101.exe)
 -----
 Title
 -----
 Symbolic Z-matrix:
 Charge =  0 Multiplicity = 1
 C-c3-0.00            -0.70604   1.82006   0. 
 H-h3-0.00            -1.72143   2.22156   0. 
 H-h3-0.00            -0.19073   2.20746  -0.88279 
 H-h3-0.00            -0.19073   2.20746   0.88279 
 C-c3-0.00            -0.70604   0.29213   0. 
 H-h3-0.00            -1.24715  -0.07746  -0.87756 
 H-h3-0.00            -1.24715  -0.07746   0.87756 
 C-c3-0.00             0.70604  -0.29213   0. 
 H-h3-0.00             1.24715   0.07746  -0.87756 
 H-h3-0.00             1.24715   0.07746   0.87756 
 C-c3-0.00             0.70604  -1.82006   0. 
 H-h3-0.00             0.19073  -2.20746  -0.88279 
 H-h3-0.00             1.72143  -2.22156   0. 
 H-h3-0.00             0.19073  -2.20746   0.88279 
 
 ITRead=  0  0  0  0  0  0  0  0  0  0  0  0  0  0
 MicOpt= -1 -1 -1 -1 -1 -1 -1 -1 -1 -1 -1 -1 -1 -1
 NAtoms=     14 NQM=       14 NQMF=       0 NMMI=      0 NMMIF=      0
                NMic=       0 NMicF=      0.
                    Isotopes and Nuclear Properties:
 (Nuclear quadrupole moments (NQMom) in fm**2, nuclear magnetic moments (NMagM)
  in nuclear magnetons)

  Atom         1           2           3           4           5           6           7           8           9          10
 IAtWgt=          12           1           1           1          12           1           1          12           1           1
 AtmWgt=  12.0000000   1.0078250   1.0078250   1.0078250  12.0000000   1.0078250   1.0078250  12.0000000   1.0078250   1.0078250
 NucSpn=           0           1           1           1           0           1           1           0           1           1
 AtZEff=  -0.0000000  -0.0000000  -0.0000000  -0.0000000  -0.0000000  -0.0000000  -0.0000000  -0.0000000  -0.0000000  -0.0000000
 NQMom=    0.0000000   0.0000000   0.0000000   0.0000000   0.0000000   0.0000000   0.0000000   0.0000000   0.0000000   0.0000000
 NMagM=    0.0000000   2.7928460   2.7928460   2.7928460   0.0000000   2.7928460   2.7928460   0.0000000   2.7928460   2.7928460
 AtZNuc=   6.0000000   1.0000000   1.0000000   1.0000000   6.0000000   1.0000000   1.0000000   6.0000000   1.0000000   1.0000000

  Atom        11          12          13          14
 IAtWgt=          12           1           1           1
 AtmWgt=  12.0000000   1.0078250   1.0078250   1.0078250
 NucSpn=           0           1           1           1
 AtZEff=  -0.0000000  -0.0000000  -0.0000000  -0.0000000
 NQMom=    0.0000000   0.0000000   0.0000000   0.0000000
 NMagM=    0.0000000   2.7928460   2.7928460   2.7928460
 AtZNuc=   6.0000000   1.0000000   1.0000000   1.0000000
 Generating MM parameters.
 Read MM parameter file:
 Define C3         1
 Include all MM classes

 MM sanity checks:
 All charges sum to:                0.00000000
 Charges of atoms sum to:           0.00000000
 WARNING -- There are centers with partial charges, but
 there is no Vanderwaals repulsion. Centers can collapse
 onto each other.
 MMInit generated parameter data with length LenPar=        2689.
 Leave Link  101 at Fri Aug 14 10:43:55 2026, MaxMem=   134217728 cpu:               0.3 elap:               0.3
 (Enter /home/emanuele/chem_software/gaussian//gdv/l103.exe)

 GradGradGradGradGradGradGradGradGradGradGradGradGradGradGradGradGradGrad
 Berny optimization.
 Initialization pass.
                           ----------------------------
                           !    Initial Parameters    !
                           ! (Angstroms and Degrees)  !
 --------------------------                            --------------------------
 ! Name  Definition              Value          Derivative Info.                !
 --------------------------------------------------------------------------------
 ! R1    R(1,2)                  1.0919         calculate D2E/DX2 analytically  !
 ! R2    R(1,3)                  1.0931         calculate D2E/DX2 analytically  !
 ! R3    R(1,4)                  1.0931         calculate D2E/DX2 analytically  !
 ! R4    R(1,5)                  1.5279         calculate D2E/DX2 analytically  !
 ! R5    R(5,6)                  1.0952         calculate D2E/DX2 analytically  !
 ! R6    R(5,7)                  1.0952         calculate D2E/DX2 analytically  !
 ! R7    R(5,8)                  1.5282         calculate D2E/DX2 analytically  !
 ! R8    R(8,9)                  1.0952         calculate D2E/DX2 analytically  !
 ! R9    R(8,10)                 1.0952         calculate D2E/DX2 analytically  !
 ! R10   R(8,11)                 1.5279         calculate D2E/DX2 analytically  !
 ! R11   R(11,12)                1.0931         calculate D2E/DX2 analytically  !
 ! R12   R(11,13)                1.0919         calculate D2E/DX2 analytically  !
 ! R13   R(11,14)                1.0931         calculate D2E/DX2 analytically  !
 ! A1    A(2,1,3)              107.9423         calculate D2E/DX2 analytically  !
 ! A2    A(2,1,4)              107.9423         calculate D2E/DX2 analytically  !
 ! A3    A(2,1,5)              111.5745         calculate D2E/DX2 analytically  !
 ! A4    A(3,1,4)              107.7202         calculate D2E/DX2 analytically  !
 ! A5    A(3,1,5)              110.7564         calculate D2E/DX2 analytically  !
 ! A6    A(4,1,5)              110.7564         calculate D2E/DX2 analytically  !
 ! A7    A(1,5,6)              109.7221         calculate D2E/DX2 analytically  !
 ! A8    A(1,5,7)              109.7221         calculate D2E/DX2 analytically  !
 ! A9    A(1,5,8)              112.4779         calculate D2E/DX2 analytically  !
 ! A10   A(6,5,7)              106.5016         calculate D2E/DX2 analytically  !
 ! A11   A(6,5,8)              109.1177         calculate D2E/DX2 analytically  !
 ! A12   A(7,5,8)              109.1177         calculate D2E/DX2 analytically  !
 ! A13   A(5,8,9)              109.1177         calculate D2E/DX2 analytically  !
 ! A14   A(5,8,10)             109.1177         calculate D2E/DX2 analytically  !
 ! A15   A(5,8,11)             112.4779         calculate D2E/DX2 analytically  !
 ! A16   A(9,8,10)             106.5016         calculate D2E/DX2 analytically  !
 ! A17   A(9,8,11)             109.7221         calculate D2E/DX2 analytically  !
 ! A18   A(10,8,11)            109.7221         calculate D2E/DX2 analytically  !
 ! A19   A(8,11,12)            110.7564         calculate D2E/DX2 analytically  !
 ! A20   A(8,11,13)            111.5745         calculate D2E/DX2 analytically  !
 ! A21   A(8,11,14)            110.7564         calculate D2E/DX2 analytically  !
 ! A22   A(12,11,13)           107.9423         calculate D2E/DX2 analytically  !
 ! A23   A(12,11,14)           107.7202         calculate D2E/DX2 analytically  !
 ! A24   A(13,11,14)           107.9423         calculate D2E/DX2 analytically  !
 ! D1    D(2,1,5,6)             58.3417         calculate D2E/DX2 analytically  !
 ! D2    D(2,1,5,7)            -58.3417         calculate D2E/DX2 analytically  !
 ! D3    D(2,1,5,8)            180.0            calculate D2E/DX2 analytically  !
 ! D4    D(3,1,5,6)            -61.9314         calculate D2E/DX2 analytically  !
 ! D5    D(3,1,5,7)           -178.6147         calculate D2E/DX2 analytically  !
 ! D6    D(3,1,5,8)             59.727          calculate D2E/DX2 analytically  !
 ! D7    D(4,1,5,6)            178.6147         calculate D2E/DX2 analytically  !
 ! D8    D(4,1,5,7)             61.9314         calculate D2E/DX2 analytically  !
 ! D9    D(4,1,5,8)            -59.727          calculate D2E/DX2 analytically  !
 ! D10   D(1,5,8,9)            -57.9984         calculate D2E/DX2 analytically  !
 ! D11   D(1,5,8,10)            57.9984         calculate D2E/DX2 analytically  !
 ! D12   D(1,5,8,11)           180.0            calculate D2E/DX2 analytically  !
 ! D13   D(6,5,8,9)             64.0032         calculate D2E/DX2 analytically  !
 ! D14   D(6,5,8,10)           180.0            calculate D2E/DX2 analytically  !
 ! D15   D(6,5,8,11)           -57.9984         calculate D2E/DX2 analytically  !
 ! D16   D(7,5,8,9)            180.0            calculate D2E/DX2 analytically  !
 ! D17   D(7,5,8,10)           -64.0032         calculate D2E/DX2 analytically  !
 ! D18   D(7,5,8,11)            57.9984         calculate D2E/DX2 analytically  !
 ! D19   D(5,8,11,12)           59.727          calculate D2E/DX2 analytically  !
 ! D20   D(5,8,11,13)          180.0            calculate D2E/DX2 analytically  !
 ! D21   D(5,8,11,14)          -59.727          calculate D2E/DX2 analytically  !
 ! D22   D(9,8,11,12)          -61.9314         calculate D2E/DX2 analytically  !
 ! D23   D(9,8,11,13)           58.3417         calculate D2E/DX2 analytically  !
 ! D24   D(9,8,11,14)          178.6147         calculate D2E/DX2 analytically  !
 ! D25   D(10,8,11,12)        -178.6147         calculate D2E/DX2 analytically  !
 ! D26   D(10,8,11,13)         -58.3417         calculate D2E/DX2 analytically  !
 ! D27   D(10,8,11,14)          61.9314         calculate D2E/DX2 analytically  !
 --------------------------------------------------------------------------------
 Trust Radius=3.00D-01 FncErr=1.00D-07 GrdErr=1.00D-07 EigMax=2.50D+02 EigMin=1.00D-04
 Number of steps in this run=      2 maximum allowed number of steps=      2.
 GradGradGradGradGradGradGradGradGradGradGradGradGradGradGradGradGradGrad

 Leave Link  103 at Fri Aug 14 10:43:55 2026, MaxMem=   134217728 cpu:               0.0 elap:               0.0
 (Enter /home/emanuele/chem_software/gaussian//gdv/l202.exe)
                          Input orientation:                          
 ---------------------------------------------------------------------
 Center     Atomic      Atomic             Coordinates (Angstroms)
 Number     Number       Type             X           Y           Z
 ---------------------------------------------------------------------
      1          6    90000001       -0.706035    1.820058    0.000000
      2          1    20001037       -1.721430    2.221559    0.000000
      3          1    20001037       -0.190734    2.207457   -0.882786
      4          1    20001037       -0.190734    2.207457    0.882786
      5          6    90000001       -0.706035    0.292130    0.000000
      6          1    20001037       -1.247145   -0.077461   -0.877558
      7          1    20001037       -1.247145   -0.077461    0.877558
      8          6    90000001        0.706035   -0.292130    0.000000
      9          1    20001037        1.247145    0.077461   -0.877558
     10          1    20001037        1.247145    0.077461    0.877558
     11          6    90000001        0.706035   -1.820058    0.000000
     12          1    20001037        0.190734   -2.207457   -0.882786
     13          1    20001037        1.721430   -2.221559    0.000000
     14          1    20001037        0.190734   -2.207457    0.882786
 ---------------------------------------------------------------------
                    Distance matrix (angstroms):
                    1          2          3          4          5
     1  C    0.000000
     2  H    1.091893   0.000000
     3  H    1.093126   1.767071   0.000000
     4  H    1.093126   1.767071   1.765572   0.000000
     5  C    1.527928   2.180303   2.171019   2.171019   0.000000
     6  H    2.159511   2.506102   2.517316   3.071753   1.095219
     7  H    2.159511   2.506102   3.071753   2.517316   1.095219
     8  C    2.540724   3.494455   2.798471   2.798471   1.528169
     9  H    2.760736   3.765594   2.569904   3.114994   2.152000
    10  H    2.760736   3.765594   3.114994   2.569904   2.152000
    11  C    3.904406   4.714579   4.219524   4.219524   2.540724
    12  H    4.219524   4.904270   4.431364   4.770139   2.798471
    13  H    4.714579   5.620906   4.904270   4.904270   3.494455
    14  H    4.219524   4.904270   4.770139   4.431364   2.798471
                    6          7          8          9         10
     6  H    0.000000
     7  H    1.755116   0.000000
     8  C    2.152000   2.152000   0.000000
     9  H    2.499097   3.053836   1.095219   0.000000
    10  H    3.053836   2.499097   1.095219   1.755116   0.000000
    11  C    2.760736   2.760736   1.527928   2.159511   2.159511
    12  H    2.569904   3.114994   2.171019   2.517316   3.071753
    13  H    3.765594   3.765594   2.180303   2.506102   2.506102
    14  H    3.114994   2.569904   2.171019   3.071753   2.517316
                   11         12         13         14
    11  C    0.000000
    12  H    1.093126   0.000000
    13  H    1.091893   1.767071   0.000000
    14  H    1.093126   1.765572   1.767071   0.000000
 Symmetry turned off by external request.
 Stoichiometry    C4H10
 Framework group  C2H[SGH(C4H2),X(H8)]
 Deg. of freedom    11
 Full point group                 C2H     NOp   4
 Rotational constants (GHZ):          23.3888509           3.6524088           3.4266694
 Leave Link  202 at Fri Aug 14 10:43:55 2026, MaxMem=   134217728 cpu:               0.0 elap:               0.0
 (Enter /home/emanuele/chem_software/gaussian//gdv/l301.exe)
 Standard basis: Dummy (5D, 7F)
    14 basis functions,    14 primitive gaussians,    14 cartesian basis functions
     9 alpha electrons        9 beta electrons
       nuclear repulsion energy        36.5901170517 Hartrees.
 IExCor=       0 DFT=F Ex=HF Corr=None N6=None ScaHFX=  1.000000
 ScaDFX=  1.000000  1.000000  1.000000  1.000000  1.000000  0.000000
 ScaDFX=  0.000000  0.000000  0.000000  0.000000  0.000000  0.000000
 IRadAn=      5 IRanWt=     -1 IRanGd=            0 ICorTp=0 IEmpDi=  4
 NAtoms=   14 NActive=   14 NUniq=   14 SFac= 1.00D+00 NAtFMM=   60 NAOKFM=F Big=F
 Integral buffers will be    131072 words long.
 Raffenetti 1 integral format.
 Two-electron integral symmetry is turned off.
 Leave Link  301 at Fri Aug 14 10:43:55 2026, MaxMem=   134217728 cpu:               0.0 elap:               0.0
 (Enter /home/emanuele/chem_software/gaussian//gdv/l402.exe)
 AMBER calculation of energy, first and second derivatives.
 ****************************
 MOLECULAR MECHANICS FUNCTION
 ****************************
 Molecular mechanics terms:
 NBDir 3 1      0      0
 HrmStr1  1- 2    1.00 1.0940
 HrmStr1  1- 3    1.00 1.0940
 HrmStr1  1- 4    1.00 1.0940
 HrmStr1  1- 5    1.00 1.5280
 HrmStr1  5- 6    1.00 1.0940
 HrmStr1  5- 7    1.00 1.0940
 HrmStr1  5- 8    1.00 1.5280
 HrmStr1  8- 9    1.00 1.0940
 HrmStr1  8-10    1.00 1.0940
 HrmStr1  8-11    1.00 1.5280
 HrmStr1 11-12    1.00 1.0940
 HrmStr1 11-13    1.00 1.0940
 HrmStr1 11-14    1.00 1.0940
 HrmBnd1  1- 5- 6   1.00 110.11
 HrmBnd1  1- 5- 7   1.00 110.11
 HrmBnd1  1- 5- 8   1.00 112.48
 HrmBnd1  2- 1- 3   1.00 107.53
 HrmBnd1  2- 1- 4   1.00 107.53
 HrmBnd1  5- 1- 2   1.00 110.11
 HrmBnd1  3- 1- 4   1.00 107.53
 HrmBnd1  5- 1- 3   1.00 110.11
 HrmBnd1  5- 1- 4   1.00 110.11
 HrmBnd1  5- 8- 9   1.00 110.11
 HrmBnd1  5- 8-10   1.00 110.11
 HrmBnd1  5- 8-11   1.00 112.48
 HrmBnd1  6- 5- 7   1.00 107.53
 HrmBnd1  8- 5- 6   1.00 110.11
 HrmBnd1  8- 5- 7   1.00 110.11
 HrmBnd1  8-11-12   1.00 110.11
 HrmBnd1  8-11-13   1.00 110.11
 HrmBnd1  8-11-14   1.00 110.11
 HrmBnd1  9- 8-10   1.00 107.53
 HrmBnd1 11- 8- 9   1.00 110.11
 HrmBnd1 11- 8-10   1.00 110.11
 HrmBnd1 12-11-13   1.00 107.53
 HrmBnd1 12-11-14   1.00 107.53
 HrmBnd1 13-11-14   1.00 107.53
 AmbTrs  2- 1- 5- 6   0   0   0   0  0.0000  0.0000  1.0000  0.0000  9.0
 AmbTrs  2- 1- 5- 7   0   0   0   0  0.0000  0.0000  1.0000  0.0000  9.0
 AmbTrs  8- 5- 1- 2   0   0   0   0  0.0000  0.0000  1.0000  0.0000  9.0
 AmbTrs  3- 1- 5- 6   0   0   0   0  0.0000  0.0000  1.0000  0.0000  9.0
 AmbTrs  3- 1- 5- 7   0   0   0   0  0.0000  0.0000  1.0000  0.0000  9.0
 AmbTrs  8- 5- 1- 3   0   0   0   0  0.0000  0.0000  1.0000  0.0000  9.0
 AmbTrs  4- 1- 5- 6   0   0   0   0  0.0000  0.0000  1.0000  0.0000  9.0
 AmbTrs  4- 1- 5- 7   0   0   0   0  0.0000  0.0000  1.0000  0.0000  9.0
 AmbTrs  8- 5- 1- 4   0   0   0   0  0.0000  0.0000  1.0000  0.0000  9.0
 AmbTrs  1- 5- 8- 9   0   0   0   0  0.0000  0.0000  1.0000  0.0000  9.0
 AmbTrs  1- 5- 8-10   0   0   0   0  0.0000  0.0000  1.0000  0.0000  9.0
 AmbTrs  1- 5- 8-11   0   0   0   0  0.0000  0.0000  1.0000  0.0000  9.0
 AmbTrs  6- 5- 8- 9   0   0   0   0  0.0000  0.0000  1.0000  0.0000  9.0
 AmbTrs  6- 5- 8-10   0   0   0   0  0.0000  0.0000  1.0000  0.0000  9.0
 AmbTrs 11- 8- 5- 6   0   0   0   0  0.0000  0.0000  1.0000  0.0000  9.0
 AmbTrs  7- 5- 8- 9   0   0   0   0  0.0000  0.0000  1.0000  0.0000  9.0
 AmbTrs  7- 5- 8-10   0   0   0   0  0.0000  0.0000  1.0000  0.0000  9.0
 AmbTrs 11- 8- 5- 7   0   0   0   0  0.0000  0.0000  1.0000  0.0000  9.0
 AmbTrs  5- 8-11-12   0   0   0   0  0.0000  0.0000  1.0000  0.0000  9.0
 AmbTrs  5- 8-11-13   0   0   0   0  0.0000  0.0000  1.0000  0.0000  9.0
 AmbTrs  5- 8-11-14   0   0   0   0  0.0000  0.0000  1.0000  0.0000  9.0
 AmbTrs  9- 8-11-12   0   0   0   0  0.0000  0.0000  1.0000  0.0000  9.0
 AmbTrs  9- 8-11-13   0   0   0   0  0.0000  0.0000  1.0000  0.0000  9.0
 AmbTrs  9- 8-11-14   0   0   0   0  0.0000  0.0000  1.0000  0.0000  9.0
 AmbTrs 10- 8-11-12   0   0   0   0  0.0000  0.0000  1.0000  0.0000  9.0
 AmbTrs 10- 8-11-13   0   0   0   0  0.0000  0.0000  1.0000  0.0000  9.0
 AmbTrs 10- 8-11-14   0   0   0   0  0.0000  0.0000  1.0000  0.0000  9.0
 NBPair  2- 1 3 1      0      0 -1.000 -1.000
 NBPair  3- 2 3 1      0      0 -1.000 -1.000
 NBPair  4- 2 3 1      0      0 -1.000 -1.000
 NBPair  5- 2 3 1      0      0 -1.000 -1.000
 NBPair  3- 1 3 1      0      0 -1.000 -1.000
 NBPair  4- 3 3 1      0      0 -1.000 -1.000
 NBPair  5- 3 3 1      0      0 -1.000 -1.000
 NBPair  4- 1 3 1      0      0 -1.000 -1.000
 NBPair  5- 4 3 1      0      0 -1.000 -1.000
 NBPair  5- 1 3 1      0      0 -1.000 -1.000
 NBPair  6- 2 3 1      0      0 -0.500 -0.167
 NBPair  7- 2 3 1      0      0 -0.500 -0.167
 NBPair  8- 2 3 1      0      0 -0.500 -0.167
 NBPair  6- 3 3 1      0      0 -0.500 -0.167
 NBPair  7- 3 3 1      0      0 -0.500 -0.167
 NBPair  8- 3 3 1      0      0 -0.500 -0.167
 NBPair  6- 4 3 1      0      0 -0.500 -0.167
 NBPair  7- 4 3 1      0      0 -0.500 -0.167
 NBPair  8- 4 3 1      0      0 -0.500 -0.167
 NBPair  6- 1 3 1      0      0 -1.000 -1.000
 NBPair  7- 1 3 1      0      0 -1.000 -1.000
 NBPair  8- 1 3 1      0      0 -1.000 -1.000
 NBPair  6- 5 3 1      0      0 -1.000 -1.000
 NBPair  7- 6 3 1      0      0 -1.000 -1.000
 NBPair  8- 6 3 1      0      0 -1.000 -1.000
 NBPair  7- 5 3 1      0      0 -1.000 -1.000
 NBPair  8- 7 3 1      0      0 -1.000 -1.000
 NBPair  8- 5 3 1      0      0 -1.000 -1.000
 NBPair  9- 1 3 1      0      0 -0.500 -0.167
 NBPair 10- 1 3 1      0      0 -0.500 -0.167
 NBPair 11- 1 3 1      0      0 -0.500 -0.167
 NBPair  9- 6 3 1      0      0 -0.500 -0.167
 NBPair 10- 6 3 1      0      0 -0.500 -0.167
 NBPair 11- 6 3 1      0      0 -0.500 -0.167
 NBPair  9- 7 3 1      0      0 -0.500 -0.167
 NBPair 10- 7 3 1      0      0 -0.500 -0.167
 NBPair 11- 7 3 1      0      0 -0.500 -0.167
 NBPair  9- 5 3 1      0      0 -1.000 -1.000
 NBPair 10- 5 3 1      0      0 -1.000 -1.000
 NBPair 11- 5 3 1      0      0 -1.000 -1.000
 NBPair  9- 8 3 1      0      0 -1.000 -1.000
 NBPair 10- 9 3 1      0      0 -1.000 -1.000
 NBPair 11- 9 3 1      0      0 -1.000 -1.000
 NBPair 10- 8 3 1      0      0 -1.000 -1.000
 NBPair 11-10 3 1      0      0 -1.000 -1.000
 NBPair 11- 8 3 1      0      0 -1.000 -1.000
 NBPair 12- 5 3 1      0      0 -0.500 -0.167
 NBPair 13- 5 3 1      0      0 -0.500 -0.167
 NBPair 14- 5 3 1      0      0 -0.500 -0.167
 NBPair 12- 9 3 1      0      0 -0.500 -0.167
 NBPair 13- 9 3 1      0      0 -0.500 -0.167
 NBPair 14- 9 3 1      0      0 -0.500 -0.167
 NBPair 12-10 3 1      0      0 -0.500 -0.167
 NBPair 13-10 3 1      0      0 -0.500 -0.167
 NBPair 14-10 3 1      0      0 -0.500 -0.167
 NBPair 12- 8 3 1      0      0 -1.000 -1.000
 NBPair 13- 8 3 1      0      0 -1.000 -1.000
 NBPair 14- 8 3 1      0      0 -1.000 -1.000
 NBPair 12-11 3 1      0      0 -1.000 -1.000
 NBPair 13-12 3 1      0      0 -1.000 -1.000
 NBPair 14-12 3 1      0      0 -1.000 -1.000
 NBPair 13-11 3 1      0      0 -1.000 -1.000
 NBPair 14-13 3 1      0      0 -1.000 -1.000
 NBPair 14-11 3 1      0      0 -1.000 -1.000
 Energy per function type:
 Direct Coulomb + vdW (small)                           0.000000000
 Direct Coulomb (large)                                 0.000000000
 Direct vdW (large)                                     0.000000000
 Non-direct Coulomb + vdW (small)                       0.000000000
 Non-direct Coulomb (large)                             0.000000000
 Non-direct vdW (large)                                 0.000000000
 Harmonic stretch I                                     0.000000029
 Harmonic bend I                                        0.000006490
 Amber torsion                                          0.000019859
 Energy per function class:
        Coulomb               0.000000000
    Vanderwaals               0.000000000
     Stretching               0.000000029
        Bending               0.000006490
        Torsion               0.000019859
 Energy=    2.637692673E-05 NIter=   0.
 Dipole moment=       0.000000       0.000000       0.000000
 Leave Link  402 at Fri Aug 14 10:43:55 2026, MaxMem=   134217728 cpu:               0.0 elap:               0.0
 (Enter /home/emanuele/chem_software/gaussian//gdv/l716.exe)
 Dipole        = 0.00000000D+00 0.00000000D+00 0.00000000D+00
 Full mass-weighted force constant matrix:
 Low frequencies ---  -12.7732   -4.1054   -0.0000   -0.0000    0.0000    5.5087
 Low frequencies ---   32.0430   38.8252   56.6913
 Diagonal vibrational polarizability:
        0.0000000       0.0000000       0.0000000
 Harmonic frequencies (cm**-1), IR intensities (KM/Mole), Raman scattering
 activities (A**4/AMU), depolarization ratios for plane and unpolarized
 incident light, reduced masses (AMU), force constants (mDyne/A),
 and normal coordinates:
                      1                      2                      3
                      A                      A                      A
 Frequencies --     32.0430                38.8252                56.6913
 Red. masses --      3.6275                 2.3777                 3.8352
 Frc consts  --      0.0022                 0.0021                 0.0073
 IR Inten    --      0.0000                 0.0000                 0.0000
  Atom  AN      X      Y      Z        X      Y      Z        X      Y      Z
     1   6    -0.13   0.29   0.00    -0.16   0.01  -0.00    -0.02  -0.24   0.00
     2   1    -0.15   0.26   0.00    -0.27  -0.24  -0.00    -0.02  -0.29   0.00
     3   1    -0.15   0.32   0.00    -0.26   0.14   0.00    -0.03  -0.25   0.01
     4   1    -0.15   0.32  -0.00    -0.26   0.14  -0.00    -0.03  -0.25  -0.01
     5   6    -0.08   0.10  -0.00     0.19  -0.01   0.00     0.02   0.26  -0.00
     6   1    -0.09   0.11  -0.00     0.24  -0.06  -0.00     0.02   0.28   0.01
     7   1    -0.09   0.11   0.00     0.24  -0.06   0.00     0.02   0.28  -0.01
     8   6     0.08  -0.10  -0.00     0.19  -0.01  -0.00     0.02   0.26   0.00
     9   1     0.09  -0.11  -0.00     0.24  -0.06   0.00     0.02   0.28  -0.01
    10   1     0.09  -0.11   0.00     0.24  -0.06  -0.00     0.02   0.28   0.01
    11   6     0.13  -0.29   0.00    -0.16   0.01   0.00    -0.02  -0.24  -0.00
    12   1     0.15  -0.32   0.00    -0.26   0.14  -0.00    -0.03  -0.25  -0.01
    13   1     0.15  -0.26   0.00    -0.27  -0.24   0.00    -0.02  -0.29  -0.00
    14   1     0.15  -0.32  -0.00    -0.26   0.14   0.00    -0.03  -0.25   0.01
                      4                      5                      6
                      A                      A                      A
 Frequencies --     60.4640                65.9145                86.7439
 Red. masses --      3.1720                 2.2004                 2.6059
 Frc consts  --      0.0068                 0.0056                 0.0116
 IR Inten    --      0.0000                 0.0000                 0.0000
  Atom  AN      X      Y      Z        X      Y      Z        X      Y      Z
     1   6     0.02   0.13  -0.00    -0.00  -0.00  -0.15    -0.05  -0.05  -0.00
     2   1    -0.03  -0.02  -0.00     0.00   0.00  -0.26    -0.16  -0.31   0.00
     3   1    -0.03   0.22  -0.00     0.01  -0.25  -0.28    -0.15   0.06   0.01
     4   1    -0.03   0.22   0.00    -0.01   0.25  -0.28    -0.15   0.06  -0.01
     5   6     0.22  -0.18   0.00    -0.00   0.00   0.18     0.18   0.19   0.00
     6   1     0.29  -0.26   0.00     0.02  -0.02   0.21     0.21   0.29   0.04
     7   1     0.29  -0.26  -0.00    -0.02   0.02   0.21     0.21   0.29  -0.04
     8   6    -0.22   0.18   0.00     0.00  -0.00   0.18    -0.18  -0.19   0.00
     9   1    -0.29   0.26   0.00    -0.02   0.02   0.21    -0.21  -0.29   0.04
    10   1    -0.29   0.26  -0.00     0.02  -0.02   0.21    -0.21  -0.29  -0.04
    11   6    -0.02  -0.13  -0.00     0.00   0.00  -0.15     0.05   0.05  -0.00
    12   1     0.03  -0.22  -0.00    -0.01   0.25  -0.28     0.15  -0.06   0.01
    13   1     0.03   0.02  -0.00    -0.00  -0.00  -0.26     0.16   0.31   0.00
    14   1     0.03  -0.22   0.00     0.01  -0.25  -0.28     0.15  -0.06  -0.01
                      7                      8                      9
                      A                      A                      A
 Frequencies --    125.8699               141.8692               149.6057
 Red. masses --      1.0092                 1.0554                 1.0194
 Frc consts  --      0.0094                 0.0125                 0.0134
 IR Inten    --      0.0000                 0.0000                 0.0000
  Atom  AN      X      Y      Z        X      Y      Z        X      Y      Z
     1   6     0.00   0.00  -0.00    -0.00   0.00  -0.02    -0.01  -0.00  -0.00
     2   1     0.00   0.00   0.33    -0.00   0.00   0.23    -0.26   0.49  -0.00
     3   1    -0.29   0.01  -0.17    -0.11   0.29  -0.07     0.01  -0.23   0.12
     4   1     0.29  -0.01  -0.17     0.11  -0.29  -0.07     0.01  -0.23  -0.12
     5   6    -0.00  -0.00  -0.01    -0.00  -0.00  -0.04     0.02  -0.01   0.00
     6   1    -0.27   0.07   0.06    -0.26  -0.12  -0.20     0.11   0.03   0.12
     7   1     0.27  -0.07   0.06     0.26   0.12  -0.20     0.11   0.03  -0.12
     8   6     0.00   0.00  -0.01    -0.00  -0.00   0.04     0.02  -0.01  -0.00
     9   1     0.27  -0.07   0.06    -0.26  -0.12   0.20     0.11   0.03  -0.12
    10   1    -0.27   0.07   0.06     0.26   0.12   0.20     0.11   0.03   0.12
    11   6    -0.00  -0.00  -0.00    -0.00   0.00   0.02    -0.01  -0.00   0.00
    12   1     0.29  -0.01  -0.17    -0.11   0.29   0.07     0.01  -0.23  -0.12
    13   1    -0.00  -0.00   0.33    -0.00   0.00  -0.23    -0.26   0.49   0.00
    14   1    -0.29   0.01  -0.17     0.11  -0.29   0.07     0.01  -0.23   0.12
                     10                     11                     12
                      A                      A                      A
 Frequencies --    149.7564               149.7597               150.0153
 Red. masses --      1.0193                 1.0156                 1.0127
 Frc consts  --      0.0135                 0.0134                 0.0134
 IR Inten    --      0.0000                 0.0000                 0.0000
  Atom  AN      X      Y      Z        X      Y      Z        X      Y      Z
     1   6    -0.01  -0.00  -0.00     0.00   0.00  -0.02     0.00  -0.00  -0.01
     2   1    -0.26   0.47   0.00     0.00  -0.00   0.09     0.00  -0.00   0.04
     3   1     0.01  -0.23   0.12     0.13   0.40  -0.18     0.15   0.35  -0.14
     4   1     0.01  -0.23  -0.12    -0.13  -0.40  -0.18    -0.15  -0.35  -0.14
     5   6     0.02  -0.00   0.00    -0.00   0.00   0.01     0.00   0.00   0.01
     6   1     0.13   0.05   0.15     0.08   0.07   0.16     0.16   0.09   0.22
     7   1     0.13   0.05  -0.15    -0.08  -0.07   0.16    -0.16  -0.09   0.22
     8   6    -0.02   0.00   0.00     0.00  -0.00   0.01     0.00   0.00  -0.01
     9   1    -0.13  -0.05   0.15    -0.08  -0.07   0.16     0.16   0.09  -0.22
    10   1    -0.13  -0.05  -0.15     0.08   0.07   0.16    -0.16  -0.09  -0.22
    11   6     0.01   0.00  -0.00    -0.00  -0.00  -0.02     0.00  -0.00   0.01
    12   1    -0.01   0.23   0.12    -0.13  -0.40  -0.18     0.15   0.35   0.14
    13   1     0.26  -0.47   0.00    -0.00   0.00   0.09     0.00  -0.00  -0.04
    14   1    -0.01   0.23  -0.12     0.13   0.40  -0.18    -0.15  -0.35   0.14
                     13                     14                     15
                      A                      A                      A
 Frequencies --    154.7997               154.7998               157.5265
 Red. masses --      1.0229                 1.0228                 1.0606
 Frc consts  --      0.0144                 0.0144                 0.0155
 IR Inten    --      0.0000                 0.0000                 0.0000
  Atom  AN      X      Y      Z        X      Y      Z        X      Y      Z
     1   6     0.00   0.03   0.00     0.00   0.03  -0.00    -0.01   0.00  -0.00
     2   1     0.37  -0.07   0.00     0.37  -0.07   0.00     0.18  -0.11  -0.00
     3   1    -0.20  -0.11   0.36    -0.20  -0.11   0.36     0.02   0.05  -0.07
     4   1    -0.20  -0.11  -0.36    -0.20  -0.11  -0.36     0.02   0.05   0.07
     5   6     0.00  -0.00  -0.00     0.00  -0.00  -0.00    -0.04  -0.03   0.00
     6   1     0.00  -0.00  -0.00     0.00  -0.00  -0.00     0.20   0.15   0.40
     7   1     0.00  -0.00   0.00     0.00  -0.00   0.00     0.20   0.15  -0.40
     8   6     0.00  -0.00   0.00    -0.00   0.00  -0.00    -0.04  -0.03  -0.00
     9   1     0.00  -0.00   0.00    -0.00   0.00  -0.00     0.20   0.15  -0.40
    10   1     0.00  -0.00  -0.00    -0.00   0.00   0.00     0.20   0.15   0.40
    11   6     0.00   0.03  -0.00    -0.00  -0.03  -0.00    -0.01   0.00   0.00
    12   1    -0.20  -0.11  -0.36     0.20   0.11   0.36     0.02   0.05   0.07
    13   1     0.37  -0.07  -0.00    -0.37   0.07   0.00     0.18  -0.11   0.00
    14   1    -0.20  -0.11   0.36     0.20   0.11  -0.36     0.02   0.05  -0.07
                     16                     17                     18
                      A                      A                      A
 Frequencies --    158.7598               160.3916               164.9045
 Red. masses --      1.0847                 1.0917                 1.1324
 Frc consts  --      0.0161                 0.0165                 0.0181
 IR Inten    --      0.0000                 0.0000                 0.0000
  Atom  AN      X      Y      Z        X      Y      Z        X      Y      Z
     1   6    -0.02   0.00   0.00    -0.00  -0.00  -0.03     0.00  -0.00  -0.07
     2   1     0.27  -0.10  -0.00     0.00  -0.00   0.01    -0.00  -0.00  -0.01
     3   1     0.04   0.05  -0.11    -0.17  -0.07   0.19    -0.24   0.11   0.37
     4   1     0.04   0.05   0.11     0.17   0.07   0.19     0.24  -0.11   0.37
     5   6    -0.05  -0.03   0.00    -0.00   0.00  -0.05     0.00   0.00  -0.02
     6   1     0.19   0.11   0.38     0.21   0.19   0.31     0.10  -0.08   0.16
     7   1     0.19   0.11  -0.38    -0.21  -0.19   0.31    -0.10   0.08   0.16
     8   6     0.05   0.03   0.00     0.00  -0.00  -0.05     0.00   0.00   0.02
     9   1    -0.19  -0.11   0.38    -0.21  -0.19   0.31     0.10  -0.08  -0.16
    10   1    -0.19  -0.11  -0.38     0.21   0.19   0.31    -0.10   0.08  -0.16
    11   6     0.02  -0.00   0.00     0.00   0.00  -0.03     0.00  -0.00   0.07
    12   1    -0.04  -0.05  -0.11     0.17   0.07   0.19    -0.24   0.11  -0.37
    13   1    -0.27   0.10  -0.00    -0.00   0.00   0.01    -0.00  -0.00   0.01
    14   1    -0.04  -0.05   0.11    -0.17  -0.07   0.19     0.24  -0.11  -0.37
                     19                     20                     21
                      A                      A                      A
 Frequencies --    171.3379               172.5235               173.7768
 Red. masses --      1.2341                 1.1227                 1.3039
 Frc consts  --      0.0213                 0.0197                 0.0232
 IR Inten    --      0.0000                 0.0000                 0.0000
  Atom  AN      X      Y      Z        X      Y      Z        X      Y      Z
     1   6    -0.10   0.00  -0.00     0.00  -0.00  -0.02    -0.10   0.00   0.00
     2   1     0.50   0.24   0.00    -0.00  -0.00   0.16     0.47   0.26   0.00
     3   1     0.10  -0.13  -0.22    -0.20  -0.06  -0.08     0.09  -0.15  -0.21
     4   1     0.10  -0.13   0.22     0.20   0.06  -0.08     0.09  -0.15   0.21
     5   6     0.03   0.02  -0.00    -0.00  -0.00  -0.07     0.05   0.03  -0.00
     6   1     0.04  -0.08  -0.09    -0.03   0.43   0.03     0.02  -0.06  -0.15
     7   1     0.04  -0.08   0.09     0.03  -0.43   0.03     0.02  -0.06   0.15
     8   6     0.03   0.02   0.00    -0.00  -0.00   0.07    -0.05  -0.03  -0.00
     9   1     0.04  -0.08   0.09    -0.03   0.43  -0.03    -0.02   0.06  -0.15
    10   1     0.04  -0.08  -0.09     0.03  -0.43  -0.03    -0.02   0.06   0.15
    11   6    -0.10   0.00   0.00     0.00  -0.00   0.02     0.10  -0.00   0.00
    12   1     0.10  -0.13   0.22    -0.20  -0.06   0.08    -0.09   0.15  -0.21
    13   1     0.50   0.24  -0.00    -0.00  -0.00  -0.16    -0.47  -0.26   0.00
    14   1     0.10  -0.13  -0.22     0.20   0.06   0.08    -0.09   0.15   0.21
                     22                     23                     24
                      A                      A                      A
 Frequencies --    176.3831               214.8828               225.4130
 Red. masses --      1.3495                 1.4838                 1.2325
 Frc consts  --      0.0247                 0.0404                 0.0369
 IR Inten    --      0.0000                 0.0000                 0.0000
  Atom  AN      X      Y      Z        X      Y      Z        X      Y      Z
     1   6     0.00  -0.00   0.10     0.00  -0.00  -0.06    -0.00  -0.10   0.00
     2   1    -0.00  -0.00   0.07    -0.00  -0.00  -0.32     0.13   0.39   0.00
     3   1     0.19  -0.26  -0.32     0.10   0.13   0.18    -0.06   0.38   0.10
     4   1    -0.19   0.26  -0.32    -0.10  -0.13   0.18    -0.06   0.38  -0.10
     5   6    -0.00  -0.00  -0.07    -0.00  -0.00   0.14     0.00  -0.00  -0.00
     6   1     0.09   0.13   0.09    -0.20   0.27  -0.14    -0.01   0.02  -0.00
     7   1    -0.09  -0.13   0.09     0.20  -0.27  -0.14    -0.01   0.02   0.00
     8   6     0.00   0.00  -0.07    -0.00  -0.00  -0.14    -0.00   0.00  -0.00
     9   1    -0.09  -0.13   0.09    -0.20   0.27   0.14     0.01  -0.02  -0.00
    10   1     0.09   0.13   0.09     0.20  -0.27   0.14     0.01  -0.02   0.00
    11   6    -0.00   0.00   0.10     0.00  -0.00   0.06     0.00   0.10   0.00
    12   1    -0.19   0.26  -0.32     0.10   0.13  -0.18     0.06  -0.38   0.10
    13   1     0.00   0.00   0.07    -0.00  -0.00   0.32    -0.13  -0.39   0.00
    14   1     0.19  -0.26  -0.32    -0.10  -0.13  -0.18     0.06  -0.38  -0.10
                     25                     26                     27
                      A                      A                      A
 Frequencies --    225.4180               235.4118               236.9739
 Red. masses --      1.2328                 1.2274                 1.0141
 Frc consts  --      0.0369                 0.0401                 0.0336
 IR Inten    --      0.0000                 0.0000                 0.0000
  Atom  AN      X      Y      Z        X      Y      Z        X      Y      Z
     1   6    -0.00  -0.10  -0.00    -0.02   0.01  -0.00     0.00  -0.00  -0.01
     2   1     0.13   0.39  -0.00     0.03   0.04  -0.00    -0.00  -0.00  -0.20
     3   1    -0.06   0.38   0.10    -0.03  -0.04  -0.04     0.14   0.01   0.10
     4   1    -0.06   0.38  -0.10    -0.03  -0.04   0.04    -0.14  -0.01   0.10
     5   6     0.00  -0.00   0.00     0.07  -0.07   0.00    -0.00   0.00   0.01
     6   1    -0.01   0.02  -0.00    -0.26   0.41  -0.03    -0.24   0.38  -0.03
     7   1    -0.01   0.02   0.00    -0.26   0.41   0.03     0.24  -0.38  -0.03
     8   6     0.00  -0.00  -0.00     0.07  -0.07  -0.00     0.00  -0.00   0.01
     9   1    -0.01   0.02   0.00    -0.26   0.41   0.03     0.24  -0.38  -0.03
    10   1    -0.01   0.02  -0.00    -0.26   0.41  -0.03    -0.24   0.38  -0.03
    11   6    -0.00  -0.10   0.00    -0.02   0.01   0.00    -0.00   0.00  -0.01
    12   1    -0.06   0.38  -0.10    -0.03  -0.04   0.04    -0.14  -0.01   0.10
    13   1     0.13   0.39   0.00     0.03   0.04   0.00     0.00   0.00  -0.20
    14   1    -0.06   0.38   0.10    -0.03  -0.04  -0.04     0.14   0.01   0.10
                     28                     29                     30
                      A                      A                      A
 Frequencies --    244.7401               280.8911               299.6817
 Red. masses --      1.3327                 1.1816                 1.1180
 Frc consts  --      0.0470                 0.0549                 0.0592
 IR Inten    --      0.0000                 0.0000                 0.0000
  Atom  AN      X      Y      Z        X      Y      Z        X      Y      Z
     1   6    -0.02   0.01  -0.00    -0.00   0.00   0.00     0.00  -0.00  -0.07
     2   1     0.02   0.03  -0.00    -0.00  -0.00   0.01     0.00   0.00   0.45
     3   1    -0.03  -0.03  -0.04    -0.25   0.06  -0.12     0.28  -0.10   0.15
     4   1    -0.03  -0.03   0.04     0.25  -0.06  -0.12    -0.28   0.10   0.15
     5   6     0.06  -0.11   0.00    -0.00  -0.00   0.09     0.00   0.00  -0.01
     6   1    -0.29   0.39   0.01     0.32  -0.00  -0.25    -0.11  -0.09   0.12
     7   1    -0.29   0.39  -0.01    -0.32   0.00  -0.25     0.11   0.09   0.12
     8   6    -0.06   0.11   0.00    -0.00  -0.00  -0.09    -0.00  -0.00  -0.01
     9   1     0.29  -0.39   0.01     0.32  -0.00   0.25     0.11   0.09   0.12
    10   1     0.29  -0.39  -0.01    -0.32   0.00   0.25    -0.11  -0.09   0.12
    11   6     0.02  -0.01  -0.00    -0.00   0.00  -0.00    -0.00   0.00  -0.07
    12   1     0.03   0.03  -0.04    -0.25   0.06   0.12    -0.28   0.10   0.15
    13   1    -0.02  -0.03  -0.00    -0.00  -0.00  -0.01    -0.00  -0.00   0.45
    14   1     0.03   0.03   0.04     0.25  -0.06   0.12     0.28  -0.10   0.15
                     31                     32                     33
                      A                      A                      A
 Frequencies --    299.9411               299.9495               302.8505
 Red. masses --      1.1377                 1.1383                 1.2003
 Frc consts  --      0.0603                 0.0603                 0.0649
 IR Inten    --      0.0000                 0.0000                 0.0000
  Atom  AN      X      Y      Z        X      Y      Z        X      Y      Z
     1   6    -0.08   0.00  -0.00    -0.08   0.00  -0.00     0.00   0.00  -0.08
     2   1    -0.02  -0.12   0.00    -0.02  -0.12   0.00     0.00   0.00   0.58
     3   1     0.41   0.06   0.25     0.41   0.06   0.25     0.20  -0.10   0.11
     4   1     0.41   0.06  -0.25     0.41   0.06  -0.25    -0.20   0.10   0.11
     5   6     0.01  -0.01  -0.00     0.01  -0.01  -0.00    -0.00  -0.00   0.04
     6   1     0.01   0.04  -0.02     0.01   0.04  -0.02     0.08   0.03  -0.08
     7   1     0.01   0.04   0.02     0.01   0.04   0.02    -0.08  -0.03  -0.08
     8   6     0.01  -0.01   0.00    -0.01   0.01  -0.00    -0.00  -0.00  -0.04
     9   1     0.01   0.04   0.02    -0.01  -0.04  -0.02     0.08   0.03   0.08
    10   1     0.01   0.04  -0.02    -0.01  -0.04   0.02    -0.08  -0.03   0.08
    11   6    -0.08   0.00   0.00     0.08  -0.00  -0.00     0.00   0.00   0.08
    12   1     0.41   0.06  -0.25    -0.41  -0.06   0.25     0.20  -0.10  -0.11
    13   1    -0.02  -0.12  -0.00     0.02   0.12   0.00     0.00   0.00  -0.58
    14   1     0.41   0.06   0.25    -0.41  -0.06  -0.25    -0.20   0.10  -0.11
                     34                     35                     36
                      A                      A                      A
 Frequencies --    307.6933               333.3264               336.0709
 Red. masses --      1.1064                 1.1221                 1.1539
 Frc consts  --      0.0617                 0.0735                 0.0768
 IR Inten    --      0.0000                 0.0000                 0.0000
  Atom  AN      X      Y      Z        X      Y      Z        X      Y      Z
     1   6     0.00   0.00  -0.04     0.01   0.00   0.00     0.01   0.00   0.00
     2   1    -0.00   0.00   0.34    -0.00  -0.00  -0.00    -0.00  -0.00  -0.00
     3   1    -0.03  -0.03  -0.02    -0.03   0.00  -0.01    -0.03   0.00  -0.01
     4   1     0.03   0.03  -0.02    -0.03   0.00   0.01    -0.03   0.00   0.01
     5   6    -0.00  -0.00   0.06    -0.06  -0.04  -0.00    -0.07  -0.05  -0.00
     6   1     0.24   0.22  -0.28     0.34   0.21  -0.30     0.33   0.23  -0.30
     7   1    -0.24  -0.22  -0.28     0.34   0.21   0.30     0.33   0.23   0.30
     8   6     0.00   0.00   0.06    -0.06  -0.04   0.00     0.07   0.05  -0.00
     9   1    -0.24  -0.22  -0.28     0.34   0.21   0.30    -0.33  -0.23  -0.30
    10   1     0.24   0.22  -0.28     0.34   0.21  -0.30    -0.33  -0.23   0.30
    11   6    -0.00  -0.00  -0.04     0.01   0.00  -0.00    -0.01  -0.00   0.00
    12   1     0.03   0.03  -0.02    -0.03   0.00   0.01     0.03  -0.00  -0.01
    13   1     0.00  -0.00   0.34    -0.00  -0.00   0.00     0.00   0.00  -0.00
    14   1    -0.03  -0.03  -0.02    -0.03   0.00  -0.01     0.03  -0.00   0.01

 -------------------
 - Thermochemistry -
 -------------------
 Temperature   298.150 Kelvin.  Pressure      1.00000 Atm.
 Atom     1 has atomic number  6 and mass  12.00000
 Atom     2 has atomic number  1 and mass   1.00783
 Atom     3 has atomic number  1 and mass   1.00783
 Atom     4 has atomic number  1 and mass   1.00783
 Atom     5 has atomic number  6 and mass  12.00000
 Atom     6 has atomic number  1 and mass   1.00783
 Atom     7 has atomic number  1 and mass   1.00783
 Atom     8 has atomic number  6 and mass  12.00000
 Atom     9 has atomic number  1 and mass   1.00783
 Atom    10 has atomic number  1 and mass   1.00783
 Atom    11 has atomic number  6 and mass  12.00000
 Atom    12 has atomic number  1 and mass   1.00783
 Atom    13 has atomic number  1 and mass   1.00783
 Atom    14 has atomic number  1 and mass   1.00783
 Molecular mass:    58.07825 amu.
 Principal axes and moments of inertia in atomic units:
                                 1                 2                 3
     Eigenvalues --           77.162457        494.123556        526.675030
           X                  -0.423644          0.905829          0.000000
           Y                   0.905829          0.423644          0.000000
           Z                  -0.000000          0.000000          1.000000
 This molecule is an asymmetric top.
 Rotational symmetry number  2.
 Rotational temperatures (Kelvin)      1.12249     0.17529     0.16445
 Rotational constants (GHZ):          23.38885     3.65241     3.42667
 Zero-point vibrational energy      40051.0 (Joules/Mol)
                                    9.57242 (Kcal/Mol)
 Warning -- explicit consideration of  36 degrees of freedom as
           vibrations may cause significant error
 Vibrational temperatures:     46.10    55.86    81.57    86.99    94.84
          (Kelvin)            124.81   181.10   204.12   215.25   215.47
                              215.47   215.84   222.72   222.72   226.65
                              228.42   230.77   237.26   246.52   248.22
                              250.03   253.78   309.17   324.32   324.33
                              338.71   340.95   352.13   404.14   431.18
                              431.55   431.56   435.73   442.70   479.58
                              483.53
 
 Zero-point correction=                           0.015255 (Hartree/Particle)
 Thermal correction to Energy=                    0.039497
 Thermal correction to Enthalpy=                  0.040441
 Thermal correction to Gibbs Free Energy=        -0.032273
 Sum of electronic and zero-point Energies=              0.015281
 Sum of electronic and thermal Energies=                 0.039524
 Sum of electronic and thermal Enthalpies=               0.040468
 Sum of electronic and thermal Free Energies=           -0.032247
 
                     E (Thermal)             CV                S
                      KCal/Mol        Cal/Mol-Kelvin    Cal/Mol-Kelvin
 Total                   24.785             72.148            153.041
 Electronic               0.000              0.000              0.000
 Translational            0.889              2.981             38.098
 Rotational               0.889              2.981             23.133
 Vibrational             23.007             66.186             91.809
 Vibration     1          0.594              1.983              5.699
 Vibration     2          0.594              1.981              5.318
 Vibration     3          0.596              1.975              4.569
 Vibration     4          0.597              1.973              4.442
 Vibration     5          0.597              1.971              4.272
 Vibration     6          0.601              1.958              3.732
 Vibration     7          0.611              1.927              3.008
 Vibration     8          0.615              1.911              2.779
 Vibration     9          0.618              1.903              2.677
 Vibration    10          0.618              1.903              2.675
 Vibration    11          0.618              1.903              2.675
 Vibration    12          0.618              1.903              2.672
 Vibration    13          0.620              1.897              2.612
 Vibration    14          0.620              1.897              2.612
 Vibration    15          0.621              1.894              2.579
 Vibration    16          0.621              1.893              2.565
 Vibration    17          0.622              1.891              2.545
 Vibration    18          0.623              1.886              2.493
 Vibration    19          0.626              1.878              2.421
 Vibration    20          0.626              1.876              2.408
 Vibration    21          0.627              1.875              2.394
 Vibration    22          0.628              1.871              2.366
 Vibration    23          0.645              1.818              2.002
 Vibration    24          0.650              1.802              1.915
 Vibration    25          0.650              1.802              1.915
 Vibration    26          0.655              1.787              1.837
 Vibration    27          0.656              1.784              1.825
 Vibration    28          0.660              1.771              1.768
 Vibration    29          0.681              1.709              1.528
 Vibration    30          0.692              1.674              1.419
 Vibration    31          0.692              1.674              1.417
 Vibration    32          0.692              1.674              1.417
 Vibration    33          0.694              1.668              1.401
 Vibration    34          0.698              1.659              1.375
 Vibration    35          0.715              1.609              1.244
 Vibration    36          0.717              1.603              1.231
                       Q            Log10(Q)             Ln(Q)
 Total Bot       0.699144D+15         14.844566         34.180877
 Total V=0       0.726440D+22         21.861200         50.337272
 Vib (Bot)       0.158447D+04          3.199884          7.368006
 Vib (Bot)    1  0.646065D+01          0.810276          1.865730
 Vib (Bot)    2  0.532958D+01          0.726693          1.673272
 Vib (Bot)    3  0.364394D+01          0.561572          1.293067
 Vib (Bot)    4  0.341511D+01          0.533405          1.228210
 Vib (Bot)    5  0.313063D+01          0.495631          1.141233
 Vib (Bot)    6  0.237157D+01          0.375036          0.863552
 Vib (Bot)    7  0.162130D+01          0.209864          0.483229
 Vib (Bot)    8  0.143253D+01          0.156105          0.359444
 Vib (Bot)    9  0.135551D+01          0.132102          0.304176
 Vib (Bot)   10  0.135409D+01          0.131646          0.303126
 Vib (Bot)   11  0.135405D+01          0.131636          0.303103
 Vib (Bot)   12  0.135165D+01          0.130864          0.301324
 Vib (Bot)   13  0.130804D+01          0.116620          0.268528
 Vib (Bot)   14  0.130804D+01          0.116620          0.268527
 Vib (Bot)   15  0.128434D+01          0.108681          0.250247
 Vib (Bot)   16  0.127389D+01          0.105131          0.242073
 Vib (Bot)   17  0.126030D+01          0.100473          0.231347
 Vib (Bot)   18  0.122408D+01          0.087809          0.202189
 Vib (Bot)   19  0.117567D+01          0.070287          0.161842
 Vib (Bot)   20  0.116714D+01          0.067122          0.154554
 Vib (Bot)   21  0.115824D+01          0.063798          0.146900
 Vib (Bot)   22  0.114013D+01          0.056953          0.131138
 Vib (Bot)   23  0.922472D+00         -0.035047         -0.080698
 Vib (Bot)   24  0.875504D+00         -0.057742         -0.132956
 Vib (Bot)   25  0.875483D+00         -0.057753         -0.132980
 Vib (Bot)   26  0.834653D+00         -0.078494         -0.180739
 Vib (Bot)   27  0.828570D+00         -0.081671         -0.188054
 Vib (Bot)   28  0.799434D+00         -0.097217         -0.223851
 Vib (Bot)   29  0.684148D+00         -0.164850         -0.379581
 Vib (Bot)   30  0.634709D+00         -0.197426         -0.454589
 Vib (Bot)   31  0.634067D+00         -0.197865         -0.455600
 Vib (Bot)   32  0.634046D+00         -0.197879         -0.455633
 Vib (Bot)   33  0.626944D+00         -0.202771         -0.466898
 Vib (Bot)   34  0.615369D+00         -0.210864         -0.485533
 Vib (Bot)   35  0.559399D+00         -0.252278         -0.580892
 Vib (Bot)   36  0.553883D+00         -0.256582         -0.590802
 Vib (V=0)       0.164633D+11         10.216518         23.524401
 Vib (V=0)    1  0.697997D+01          0.843853          1.943044
 Vib (V=0)    2  0.585298D+01          0.767377          1.766951
 Vib (V=0)    3  0.417809D+01          0.620978          1.429854
 Vib (V=0)    4  0.395152D+01          0.596764          1.374100
 Vib (V=0)    5  0.367030D+01          0.564702          1.300275
 Vib (V=0)    6  0.292371D+01          0.465934          1.072852
 Vib (V=0)    7  0.219665D+01          0.341761          0.786933
 Vib (V=0)    8  0.201728D+01          0.304767          0.701752
 Vib (V=0)    9  0.194478D+01          0.288872          0.665151
 Vib (V=0)   10  0.194345D+01          0.288573          0.664465
 Vib (V=0)   11  0.194342D+01          0.288567          0.664450
 Vib (V=0)   12  0.194116D+01          0.288062          0.663287
 Vib (V=0)   13  0.190034D+01          0.278832          0.642034
 Vib (V=0)   14  0.190034D+01          0.278832          0.642034
 Vib (V=0)   15  0.187824D+01          0.273750          0.630333
 Vib (V=0)   16  0.186850D+01          0.271493          0.625135
 Vib (V=0)   17  0.185586D+01          0.268544          0.618346
 Vib (V=0)   18  0.182226D+01          0.260610          0.600077
 Vib (V=0)   19  0.177758D+01          0.249829          0.575253
 Vib (V=0)   20  0.176973D+01          0.247907          0.570826
 Vib (V=0)   21  0.176155D+01          0.245896          0.566196
 Vib (V=0)   22  0.174494D+01          0.241781          0.556722
 Vib (V=0)   23  0.154926D+01          0.190125          0.437780
 Vib (V=0)   24  0.150822D+01          0.178465          0.410930
 Vib (V=0)   25  0.150820D+01          0.178459          0.410918
 Vib (V=0)   26  0.147296D+01          0.168190          0.387272
 Vib (V=0)   27  0.146774D+01          0.166650          0.383726
 Vib (V=0)   28  0.144292D+01          0.159242          0.366667
 Vib (V=0)   29  0.134738D+01          0.129491          0.298164
 Vib (V=0)   30  0.130799D+01          0.116606          0.268495
 Vib (V=0)   31  0.130749D+01          0.116439          0.268110
 Vib (V=0)   32  0.130747D+01          0.116433          0.268097
 Vib (V=0)   33  0.130191D+01          0.114581          0.263832
 Vib (V=0)   34  0.129289D+01          0.111563          0.256882
 Vib (V=0)   35  0.125028D+01          0.097009          0.223371
 Vib (V=0)   36  0.124618D+01          0.095581          0.220084
 Electronic      0.100000D+01          0.000000          0.000000
 Translational   0.173970D+08          7.240474         16.671808
 Rotational      0.253634D+05          4.404208         10.141063
                           ----------------------------
                           ! Normal Mode     1        !
 --------------------------                            --------------------------
 ! Name  Definition              Value          Relative Weight (%)             !
 --------------------------------------------------------------------------------
 ! R1    R(1,2)                  0.01                    0.9                    !
 ! R4    R(1,5)                  0.1928                 17.9                    !
 ! R7    R(5,8)                  0.2317                 21.5                    !
 ! R10   R(8,11)                 0.1928                 17.9                    !
 ! R12   R(11,13)                0.01                    0.9                    !
 ! A1    A(2,1,3)               -0.0039                  0.4                    !
 ! A2    A(2,1,4)               -0.0039                  0.4                    !
 ! A5    A(3,1,5)                0.0046                  0.4                    !
 ! A6    A(4,1,5)                0.0046                  0.4                    !
 ! A7    A(1,5,6)               -0.0169                  1.6                    !
 ! A8    A(1,5,7)               -0.0169                  1.6                    !
 ! A9    A(1,5,8)                0.0571                  5.3                    !
 ! A10   A(6,5,7)                0.0043                  0.4                    !
 ! A11   A(6,5,8)               -0.0152                  1.4                    !
 ! A12   A(7,5,8)               -0.0152                  1.4                    !
 ! A13   A(5,8,9)               -0.0152                  1.4                    !
 ! A14   A(5,8,10)              -0.0152                  1.4                    !
 ! A15   A(5,8,11)               0.0571                  5.3                    !
 ! A16   A(9,8,10)               0.0043                  0.4                    !
 ! A17   A(9,8,11)              -0.0169                  1.6                    !
 ! A18   A(10,8,11)             -0.0169                  1.6                    !
 ! A19   A(8,11,12)              0.0046                  0.4                    !
 ! A21   A(8,11,14)              0.0046                  0.4                    !
 ! A22   A(12,11,13)            -0.0039                  0.4                    !
 ! A24   A(13,11,14)            -0.0039                  0.4                    !
 ! D1    D(2,1,5,6)             -0.0073                  0.7                    !
 ! D2    D(2,1,5,7)              0.0073                  0.7                    !
 ! D4    D(3,1,5,6)             -0.0059                  0.6                    !
 ! D5    D(3,1,5,7)              0.0086                  0.8                    !
 ! D7    D(4,1,5,6)             -0.0086                  0.8                    !
 ! D8    D(4,1,5,7)              0.0059                  0.6                    !
 ! D10   D(1,5,8,9)              0.0059                  0.5                    !
 ! D11   D(1,5,8,10)            -0.0059                  0.5                    !
 ! D13   D(6,5,8,9)              0.0118                  1.1                    !
 ! D15   D(6,5,8,11)             0.0059                  0.5                    !
 ! D17   D(7,5,8,10)            -0.0118                  1.1                    !
 ! D18   D(7,5,8,11)            -0.0059                  0.5                    !
 ! D22   D(9,8,11,12)           -0.0059                  0.6                    !
 ! D23   D(9,8,11,13)           -0.0073                  0.7                    !
 ! D24   D(9,8,11,14)           -0.0086                  0.8                    !
 ! D25   D(10,8,11,12)           0.0086                  0.8                    !
 ! D26   D(10,8,11,13)           0.0073                  0.7                    !
 ! D27   D(10,8,11,14)           0.0059                  0.6                    !
 --------------------------------------------------------------------------------
                           ----------------------------
                           ! Normal Mode     2        !
 --------------------------                            --------------------------
 ! Name  Definition              Value          Relative Weight (%)             !
 --------------------------------------------------------------------------------
 ! R1    R(1,2)                  0.0063                  0.7                    !
 ! R4    R(1,5)                  0.0219                  2.2                    !
 ! R5    R(5,6)                 -0.0063                  0.6                    !
 ! R6    R(5,7)                 -0.0063                  0.6                    !
 ! R8    R(8,9)                  0.0063                  0.6                    !
 ! R9    R(8,10)                 0.0063                  0.6                    !
 ! R10   R(8,11)                -0.0219                  2.2                    !
 ! R12   R(11,13)               -0.0063                  0.7                    !
 ! A3    A(2,1,5)               -0.0125                  1.3                    !
 ! A7    A(1,5,6)               -0.0334                  3.4                    !
 ! A8    A(1,5,7)               -0.0334                  3.4                    !
 ! A9    A(1,5,8)                0.1217                 12.5                    !
 ! A10   A(6,5,7)                0.011                   1.1                    !
 ! A11   A(6,5,8)               -0.0359                  3.7                    !
 ! A12   A(7,5,8)               -0.0359                  3.7                    !
 ! A13   A(5,8,9)                0.0359                  3.7                    !
 ! A14   A(5,8,10)               0.0359                  3.7                    !
 ! A15   A(5,8,11)              -0.1217                 12.5                    !
 ! A16   A(9,8,10)              -0.011                   1.1                    !
 ! A17   A(9,8,11)               0.0334                  3.4                    !
 ! A18   A(10,8,11)              0.0334                  3.4                    !
 ! A20   A(8,11,13)              0.0125                  1.3                    !
 ! D1    D(2,1,5,6)             -0.0128                  1.3                    !
 ! D2    D(2,1,5,7)              0.0128                  1.3                    !
 ! D4    D(3,1,5,6)             -0.0083                  0.9                    !
 ! D5    D(3,1,5,7)              0.0172                  1.8                    !
 ! D7    D(4,1,5,6)             -0.0172                  1.8                    !
 ! D8    D(4,1,5,7)              0.0083                  0.9                    !
 ! D10   D(1,5,8,9)             -0.0134                  1.4                    !
 ! D11   D(1,5,8,10)             0.0134                  1.4                    !
 ! D14   D(6,5,8,10)             0.0267                  2.7                    !
 ! D15   D(6,5,8,11)             0.0134                  1.4                    !
 ! D16   D(7,5,8,9)             -0.0267                  2.7                    !
 ! D18   D(7,5,8,11)            -0.0134                  1.4                    !
 ! D22   D(9,8,11,12)            0.0083                  0.9                    !
 ! D23   D(9,8,11,13)            0.0128                  1.3                    !
 ! D24   D(9,8,11,14)            0.0172                  1.8                    !
 ! D25   D(10,8,11,12)          -0.0172                  1.8                    !
 ! D26   D(10,8,11,13)          -0.0128                  1.3                    !
 ! D27   D(10,8,11,14)          -0.0083                  0.9                    !
 --------------------------------------------------------------------------------
                           ----------------------------
                           ! Normal Mode     3        !
 --------------------------                            --------------------------
 ! Name  Definition              Value          Relative Weight (%)             !
 --------------------------------------------------------------------------------
 ! R1    R(1,2)                 -0.0128                  0.9                    !
 ! R2    R(1,3)                 -0.015                   1.0                    !
 ! R3    R(1,4)                 -0.015                   1.0                    !
 ! R4    R(1,5)                 -0.5057                 35.0                    !
 ! R5    R(5,6)                 -0.0162                  1.1                    !
 ! R6    R(5,7)                 -0.0162                  1.1                    !
 ! R8    R(8,9)                  0.0162                  1.1                    !
 ! R9    R(8,10)                 0.0162                  1.1                    !
 ! R10   R(8,11)                 0.5057                 35.0                    !
 ! R11   R(11,12)                0.015                   1.0                    !
 ! R12   R(11,13)                0.0128                  0.9                    !
 ! R13   R(11,14)                0.015                   1.0                    !
 ! A1    A(2,1,3)                0.0099                  0.7                    !
 ! A2    A(2,1,4)                0.0099                  0.7                    !
 ! A3    A(2,1,5)               -0.0121                  0.8                    !
 ! A4    A(3,1,4)                0.0099                  0.7                    !
 ! A7    A(1,5,6)               -0.0111                  0.8                    !
 ! A8    A(1,5,7)               -0.0111                  0.8                    !
 ! A9    A(1,5,8)                0.0114                  0.8                    !
 ! A15   A(5,8,11)              -0.0114                  0.8                    !
 ! A17   A(9,8,11)               0.0111                  0.8                    !
 ! A18   A(10,8,11)              0.0111                  0.8                    !
 ! A20   A(8,11,13)              0.0121                  0.8                    !
 ! A22   A(12,11,13)            -0.0099                  0.7                    !
 ! A23   A(12,11,14)            -0.0099                  0.7                    !
 ! A24   A(13,11,14)            -0.0099                  0.7                    !
 ! D14   D(6,5,8,10)            -0.0093                  0.6                    !
 ! D16   D(7,5,8,9)              0.0093                  0.6                    !
 --------------------------------------------------------------------------------
                           ----------------------------
                           ! Normal Mode     4        !
 --------------------------                            --------------------------
 ! Name  Definition              Value          Relative Weight (%)             !
 --------------------------------------------------------------------------------
 ! R2    R(1,3)                  0.0107                  0.7                    !
 ! R3    R(1,4)                  0.0107                  0.7                    !
 ! R4    R(1,5)                  0.3071                 19.3                    !
 ! R5    R(5,6)                 -0.0081                  0.5                    !
 ! R6    R(5,7)                 -0.0081                  0.5                    !
 ! R7    R(5,8)                 -0.5481                 34.4                    !
 ! R8    R(8,9)                 -0.0081                  0.5                    !
 ! R9    R(8,10)                -0.0081                  0.5                    !
 ! R10   R(8,11)                 0.3071                 19.3                    !
 ! R11   R(11,12)                0.0107                  0.7                    !
 ! R13   R(11,14)                0.0107                  0.7                    !
 ! A3    A(2,1,5)               -0.0075                  0.5                    !
 ! A4    A(3,1,4)               -0.0077                  0.5                    !
 ! A5    A(3,1,5)                0.0119                  0.7                    !
 ! A6    A(4,1,5)                0.0119                  0.7                    !
 ! A7    A(1,5,6)                0.0074                  0.5                    !
 ! A8    A(1,5,7)                0.0074                  0.5                    !
 ! A9    A(1,5,8)                0.0114                  0.7                    !
 ! A11   A(6,5,8)               -0.015                   0.9                    !
 ! A12   A(7,5,8)               -0.015                   0.9                    !
 ! A13   A(5,8,9)               -0.015                   0.9                    !
 ! A14   A(5,8,10)              -0.015                   0.9                    !
 ! A15   A(5,8,11)               0.0114                  0.7                    !
 ! A17   A(9,8,11)               0.0074                  0.5                    !
 ! A18   A(10,8,11)              0.0074                  0.5                    !
 ! A19   A(8,11,12)              0.0119                  0.7                    !
 ! A20   A(8,11,13)             -0.0075                  0.5                    !
 ! A21   A(8,11,14)              0.0119                  0.7                    !
 ! A23   A(12,11,14)            -0.0077                  0.5                    !
 ! D1    D(2,1,5,6)              0.0062                  0.4                    !
 ! D2    D(2,1,5,7)             -0.0062                  0.4                    !
 ! D4    D(3,1,5,6)              0.0091                  0.6                    !
 ! D8    D(4,1,5,7)             -0.0091                  0.6                    !
 ! D10   D(1,5,8,9)              0.0065                  0.4                    !
 ! D11   D(1,5,8,10)            -0.0065                  0.4                    !
 ! D13   D(6,5,8,9)              0.013                   0.8                    !
 ! D15   D(6,5,8,11)             0.0065                  0.4                    !
 ! D17   D(7,5,8,10)            -0.013                   0.8                    !
 ! D18   D(7,5,8,11)            -0.0065                  0.4                    !
 ! D22   D(9,8,11,12)            0.0091                  0.6                    !
 ! D23   D(9,8,11,13)            0.0062                  0.4                    !
 ! D26   D(10,8,11,13)          -0.0062                  0.4                    !
 ! D27   D(10,8,11,14)          -0.0091                  0.6                    !
 --------------------------------------------------------------------------------
                           ----------------------------
                           ! Normal Mode     5        !
 --------------------------                            --------------------------
 ! Name  Definition              Value          Relative Weight (%)             !
 --------------------------------------------------------------------------------
 ! R5    R(5,6)                 -0.0311                  1.4                    !
 ! R6    R(5,7)                  0.0311                  1.4                    !
 ! R8    R(8,9)                 -0.0311                  1.4                    !
 ! R9    R(8,10)                 0.0311                  1.4                    !
 ! A5    A(3,1,5)               -0.0354                  1.6                    !
 ! A6    A(4,1,5)                0.0354                  1.6                    !
 ! A7    A(1,5,6)               -0.0793                  3.6                    !
 ! A8    A(1,5,7)                0.0793                  3.6                    !
 ! A17   A(9,8,11)              -0.0793                  3.6                    !
 ! A18   A(10,8,11)              0.0793                  3.6                    !
 ! A19   A(8,11,12)             -0.0354                  1.6                    !
 ! A21   A(8,11,14)              0.0354                  1.6                    !
 ! D3    D(2,1,5,8)             -0.0628                  2.9                    !
 ! D4    D(3,1,5,6)              0.0318                  1.4                    !
 ! D5    D(3,1,5,7)              0.0318                  1.4                    !
 ! D6    D(3,1,5,8)             -0.0381                  1.7                    !
 ! D7    D(4,1,5,6)              0.0318                  1.4                    !
 ! D8    D(4,1,5,7)              0.0318                  1.4                    !
 ! D9    D(4,1,5,8)             -0.0381                  1.7                    !
 ! D10   D(1,5,8,9)              0.1372                  6.2                    !
 ! D11   D(1,5,8,10)             0.1372                  6.2                    !
 ! D12   D(1,5,8,11)             0.2456                 11.2                    !
 ! D13   D(6,5,8,9)              0.0288                  1.3                    !
 ! D14   D(6,5,8,10)             0.0288                  1.3                    !
 ! D15   D(6,5,8,11)             0.1372                  6.2                    !
 ! D16   D(7,5,8,9)              0.0288                  1.3                    !
 ! D17   D(7,5,8,10)             0.0288                  1.3                    !
 ! D18   D(7,5,8,11)             0.1372                  6.2                    !
 ! D19   D(5,8,11,12)           -0.0381                  1.7                    !
 ! D20   D(5,8,11,13)           -0.0628                  2.9                    !
 ! D21   D(5,8,11,14)           -0.0381                  1.7                    !
 ! D22   D(9,8,11,12)            0.0318                  1.4                    !
 ! D24   D(9,8,11,14)            0.0318                  1.4                    !
 ! D25   D(10,8,11,12)           0.0318                  1.4                    !
 ! D27   D(10,8,11,14)           0.0318                  1.4                    !
 --------------------------------------------------------------------------------
                           ----------------------------
                           ! Normal Mode     6        !
 --------------------------                            --------------------------
 ! Name  Definition              Value          Relative Weight (%)             !
 --------------------------------------------------------------------------------
 ! R2    R(1,3)                 -0.0186                  0.6                    !
 ! R3    R(1,4)                 -0.0186                  0.6                    !
 ! R4    R(1,5)                 -0.236                   8.1                    !
 ! R5    R(5,6)                 -0.0783                  2.7                    !
 ! R6    R(5,7)                 -0.0783                  2.7                    !
 ! R7    R(5,8)                 -0.1912                  6.5                    !
 ! R8    R(8,9)                 -0.0783                  2.7                    !
 ! R9    R(8,10)                -0.0783                  2.7                    !
 ! R10   R(8,11)                -0.236                   8.1                    !
 ! R11   R(11,12)               -0.0186                  0.6                    !
 ! R13   R(11,14)               -0.0186                  0.6                    !
 ! A3    A(2,1,5)               -0.0569                  1.9                    !
 ! A5    A(3,1,5)                0.0209                  0.7                    !
 ! A6    A(4,1,5)                0.0209                  0.7                    !
 ! A7    A(1,5,6)               -0.0813                  2.8                    !
 ! A8    A(1,5,7)               -0.0813                  2.8                    !
 ! A9    A(1,5,8)                0.2472                  8.5                    !
 ! A10   A(6,5,7)                0.0381                  1.3                    !
 ! A11   A(6,5,8)               -0.067                   2.3                    !
 ! A12   A(7,5,8)               -0.067                   2.3                    !
 ! A13   A(5,8,9)               -0.067                   2.3                    !
 ! A14   A(5,8,10)              -0.067                   2.3                    !
 ! A15   A(5,8,11)               0.2472                  8.5                    !
 ! A16   A(9,8,10)               0.0381                  1.3                    !
 ! A17   A(9,8,11)              -0.0813                  2.8                    !
 ! A18   A(10,8,11)             -0.0813                  2.8                    !
 ! A19   A(8,11,12)              0.0209                  0.7                    !
 ! A20   A(8,11,13)             -0.0569                  1.9                    !
 ! A21   A(8,11,14)              0.0209                  0.7                    !
 ! D1    D(2,1,5,6)             -0.0242                  0.8                    !
 ! D2    D(2,1,5,7)              0.0242                  0.8                    !
 ! D5    D(3,1,5,7)              0.0399                  1.4                    !
 ! D7    D(4,1,5,6)             -0.0399                  1.4                    !
 ! D13   D(6,5,8,9)              0.0288                  1.0                    !
 ! D17   D(7,5,8,10)            -0.0288                  1.0                    !
 ! D23   D(9,8,11,13)           -0.0242                  0.8                    !
 ! D24   D(9,8,11,14)           -0.0399                  1.4                    !
 ! D25   D(10,8,11,12)           0.0399                  1.4                    !
 ! D26   D(10,8,11,13)           0.0242                  0.8                    !
 --------------------------------------------------------------------------------
                           ----------------------------
                           ! Normal Mode     7        !
 --------------------------                            --------------------------
 ! Name  Definition              Value          Relative Weight (%)             !
 --------------------------------------------------------------------------------
 ! R5    R(5,6)                  0.0516                  1.8                    !
 ! R6    R(5,7)                 -0.0516                  1.8                    !
 ! R8    R(8,9)                  0.0516                  1.8                    !
 ! R9    R(8,10)                -0.0516                  1.8                    !
 ! A7    A(1,5,6)               -0.0447                  1.6                    !
 ! A8    A(1,5,7)                0.0447                  1.6                    !
 ! A11   A(6,5,8)                0.1329                  4.7                    !
 ! A12   A(7,5,8)               -0.1329                  4.7                    !
 ! A13   A(5,8,9)                0.1329                  4.7                    !
 ! A14   A(5,8,10)              -0.1329                  4.7                    !
 ! A17   A(9,8,11)              -0.0447                  1.6                    !
 ! A18   A(10,8,11)              0.0447                  1.6                    !
 ! D1    D(2,1,5,6)              0.0365                  1.3                    !
 ! D2    D(2,1,5,7)              0.0365                  1.3                    !
 ! D3    D(2,1,5,8)              0.1744                  6.1                    !
 ! D4    D(3,1,5,6)              0.036                   1.3                    !
 ! D5    D(3,1,5,7)              0.036                   1.3                    !
 ! D6    D(3,1,5,8)              0.1739                  6.1                    !
 ! D7    D(4,1,5,6)              0.036                   1.3                    !
 ! D8    D(4,1,5,7)              0.036                   1.3                    !
 ! D9    D(4,1,5,8)              0.1739                  6.1                    !
 ! D13   D(6,5,8,9)              0.0708                  2.5                    !
 ! D14   D(6,5,8,10)             0.0708                  2.5                    !
 ! D16   D(7,5,8,9)              0.0708                  2.5                    !
 ! D17   D(7,5,8,10)             0.0708                  2.5                    !
 ! D19   D(5,8,11,12)            0.1739                  6.1                    !
 ! D20   D(5,8,11,13)            0.1744                  6.1                    !
 ! D21   D(5,8,11,14)            0.1739                  6.1                    !
 ! D22   D(9,8,11,12)            0.036                   1.3                    !
 ! D23   D(9,8,11,13)            0.0365                  1.3                    !
 ! D24   D(9,8,11,14)            0.036                   1.3                    !
 ! D25   D(10,8,11,12)           0.036                   1.3                    !
 ! D26   D(10,8,11,13)           0.0365                  1.3                    !
 ! D27   D(10,8,11,14)           0.036                   1.3                    !
 --------------------------------------------------------------------------------
                           ----------------------------
                           ! Normal Mode     8        !
 --------------------------                            --------------------------
 ! Name  Definition              Value          Relative Weight (%)             !
 --------------------------------------------------------------------------------
 ! R2    R(1,3)                  0.0907                  2.4                    !
 ! R3    R(1,4)                 -0.0907                  2.4                    !
 ! R5    R(5,6)                  0.2931                  7.8                    !
 ! R6    R(5,7)                 -0.2931                  7.8                    !
 ! R8    R(8,9)                 -0.2931                  7.8                    !
 ! R9    R(8,10)                 0.2931                  7.8                    !
 ! R11   R(11,12)               -0.0907                  2.4                    !
 ! R13   R(11,14)                0.0907                  2.4                    !
 ! A5    A(3,1,5)                0.1279                  3.4                    !
 ! A6    A(4,1,5)               -0.1279                  3.4                    !
 ! A11   A(6,5,8)                0.0735                  1.9                    !
 ! A12   A(7,5,8)               -0.0735                  1.9                    !
 ! A13   A(5,8,9)               -0.0735                  1.9                    !
 ! A14   A(5,8,10)               0.0735                  1.9                    !
 ! A19   A(8,11,12)             -0.1279                  3.4                    !
 ! A21   A(8,11,14)              0.1279                  3.4                    !
 ! D1    D(2,1,5,6)              0.0559                  1.5                    !
 ! D2    D(2,1,5,7)              0.0559                  1.5                    !
 ! D3    D(2,1,5,8)              0.162                   4.3                    !
 ! D6    D(3,1,5,8)              0.0989                  2.6                    !
 ! D9    D(4,1,5,8)              0.0989                  2.6                    !
 ! D10   D(1,5,8,9)             -0.0739                  2.0                    !
 ! D11   D(1,5,8,10)            -0.0739                  2.0                    !
 ! D15   D(6,5,8,11)             0.0739                  2.0                    !
 ! D18   D(7,5,8,11)             0.0739                  2.0                    !
 ! D19   D(5,8,11,12)           -0.0989                  2.6                    !
 ! D20   D(5,8,11,13)           -0.162                   4.3                    !
 ! D21   D(5,8,11,14)           -0.0989                  2.6                    !
 ! D23   D(9,8,11,13)           -0.0559                  1.5                    !
 ! D26   D(10,8,11,13)          -0.0559                  1.5                    !
 --------------------------------------------------------------------------------
                           ----------------------------
                           ! Normal Mode     9        !
 --------------------------                            --------------------------
 ! Name  Definition              Value          Relative Weight (%)             !
 --------------------------------------------------------------------------------
 ! R1    R(1,2)                  0.4117                 11.3                    !
 ! R2    R(1,3)                 -0.1677                  4.6                    !
 ! R3    R(1,4)                 -0.1677                  4.6                    !
 ! R5    R(5,6)                 -0.1522                  4.2                    !
 ! R6    R(5,7)                 -0.1522                  4.2                    !
 ! R8    R(8,9)                  0.1522                  4.2                    !
 ! R9    R(8,10)                 0.1522                  4.2                    !
 ! R11   R(11,12)                0.1677                  4.6                    !
 ! R12   R(11,13)               -0.4117                 11.3                    !
 ! R13   R(11,14)                0.1677                  4.6                    !
 ! A3    A(2,1,5)                0.1875                  5.1                    !
 ! A4    A(3,1,4)                0.0268                  0.7                    !
 ! A5    A(3,1,5)               -0.0946                  2.6                    !
 ! A6    A(4,1,5)               -0.0946                  2.6                    !
 ! A19   A(8,11,12)              0.0946                  2.6                    !
 ! A20   A(8,11,13)             -0.1875                  5.1                    !
 ! A21   A(8,11,14)              0.0946                  2.6                    !
 ! A23   A(12,11,14)            -0.0268                  0.7                    !
 ! D4    D(3,1,5,6)             -0.0386                  1.1                    !
 ! D5    D(3,1,5,7)             -0.0507                  1.4                    !
 ! D6    D(3,1,5,8)             -0.0446                  1.2                    !
 ! D7    D(4,1,5,6)              0.0507                  1.4                    !
 ! D8    D(4,1,5,7)              0.0386                  1.1                    !
 ! D9    D(4,1,5,8)              0.0446                  1.2                    !
 ! D19   D(5,8,11,12)            0.0446                  1.2                    !
 ! D21   D(5,8,11,14)           -0.0446                  1.2                    !
 ! D22   D(9,8,11,12)            0.0386                  1.1                    !
 ! D24   D(9,8,11,14)           -0.0507                  1.4                    !
 ! D25   D(10,8,11,12)           0.0507                  1.4                    !
 ! D27   D(10,8,11,14)          -0.0386                  1.1                    !
 --------------------------------------------------------------------------------
                           ----------------------------
                           ! Normal Mode    10        !
 --------------------------                            --------------------------
 ! Name  Definition              Value          Relative Weight (%)             !
 --------------------------------------------------------------------------------
 ! R1    R(1,2)                  0.4036                 10.8                    !
 ! R2    R(1,3)                 -0.1649                  4.4                    !
 ! R3    R(1,4)                 -0.1649                  4.4                    !
 ! R5    R(5,6)                 -0.1887                  5.0                    !
 ! R6    R(5,7)                 -0.1887                  5.0                    !
 ! R7    R(5,8)                 -0.0362                  1.0                    !
 ! R8    R(8,9)                 -0.1887                  5.0                    !
 ! R9    R(8,10)                -0.1887                  5.0                    !
 ! R11   R(11,12)               -0.1649                  4.4                    !
 ! R12   R(11,13)                0.4036                 10.8                    !
 ! R13   R(11,14)               -0.1649                  4.4                    !
 ! A3    A(2,1,5)                0.1802                  4.8                    !
 ! A4    A(3,1,4)                0.0258                  0.7                    !
 ! A5    A(3,1,5)               -0.091                   2.4                    !
 ! A6    A(4,1,5)               -0.091                   2.4                    !
 ! A19   A(8,11,12)             -0.091                   2.4                    !
 ! A20   A(8,11,13)              0.1802                  4.8                    !
 ! A21   A(8,11,14)             -0.091                   2.4                    !
 ! A23   A(12,11,14)             0.0258                  0.7                    !
 ! D4    D(3,1,5,6)             -0.0371                  1.0                    !
 ! D5    D(3,1,5,7)             -0.0488                  1.3                    !
 ! D6    D(3,1,5,8)             -0.0429                  1.1                    !
 ! D7    D(4,1,5,6)              0.0488                  1.3                    !
 ! D8    D(4,1,5,7)              0.0371                  1.0                    !
 ! D9    D(4,1,5,8)              0.0429                  1.1                    !
 ! D19   D(5,8,11,12)           -0.0429                  1.1                    !
 ! D21   D(5,8,11,14)            0.0429                  1.1                    !
 ! D22   D(9,8,11,12)           -0.0371                  1.0                    !
 ! D24   D(9,8,11,14)            0.0488                  1.3                    !
 ! D25   D(10,8,11,12)          -0.0488                  1.3                    !
 ! D27   D(10,8,11,14)           0.0371                  1.0                    !
 --------------------------------------------------------------------------------
                           ----------------------------
                           ! Normal Mode    11        !
 --------------------------                            --------------------------
 ! Name  Definition              Value          Relative Weight (%)             !
 --------------------------------------------------------------------------------
 ! R2    R(1,3)                  0.333                   9.5                    !
 ! R3    R(1,4)                 -0.333                   9.5                    !
 ! R5    R(5,6)                 -0.1858                  5.3                    !
 ! R6    R(5,7)                  0.1858                  5.3                    !
 ! R8    R(8,9)                 -0.1858                  5.3                    !
 ! R9    R(8,10)                 0.1858                  5.3                    !
 ! R11   R(11,12)                0.333                   9.5                    !
 ! R13   R(11,14)               -0.333                   9.5                    !
 ! A1    A(2,1,3)               -0.0221                  0.6                    !
 ! A2    A(2,1,4)                0.0221                  0.6                    !
 ! A5    A(3,1,5)                0.1537                  4.4                    !
 ! A6    A(4,1,5)               -0.1537                  4.4                    !
 ! A19   A(8,11,12)              0.1537                  4.4                    !
 ! A21   A(8,11,14)             -0.1537                  4.4                    !
 ! A22   A(12,11,13)            -0.0221                  0.6                    !
 ! A24   A(13,11,14)             0.0221                  0.6                    !
 ! D1    D(2,1,5,6)              0.0553                  1.6                    !
 ! D2    D(2,1,5,7)              0.0553                  1.6                    !
 ! D3    D(2,1,5,8)              0.0537                  1.5                    !
 ! D6    D(3,1,5,8)             -0.0227                  0.7                    !
 ! D9    D(4,1,5,8)             -0.0227                  0.7                    !
 ! D19   D(5,8,11,12)           -0.0227                  0.7                    !
 ! D20   D(5,8,11,13)            0.0537                  1.5                    !
 ! D21   D(5,8,11,14)           -0.0227                  0.7                    !
 ! D23   D(9,8,11,13)            0.0553                  1.6                    !
 ! D26   D(10,8,11,13)           0.0553                  1.6                    !
 --------------------------------------------------------------------------------
                           ----------------------------
                           ! Normal Mode    12        !
 --------------------------                            --------------------------
 ! Name  Definition              Value          Relative Weight (%)             !
 --------------------------------------------------------------------------------
 ! R2    R(1,3)                  0.2989                  8.2                    !
 ! R3    R(1,4)                 -0.2989                  8.2                    !
 ! R5    R(5,6)                 -0.2825                  7.7                    !
 ! R6    R(5,7)                  0.2825                  7.7                    !
 ! R8    R(8,9)                  0.2825                  7.7                    !
 ! R9    R(8,10)                -0.2825                  7.7                    !
 ! R11   R(11,12)               -0.2989                  8.2                    !
 ! R13   R(11,14)                0.2989                  8.2                    !
 ! A5    A(3,1,5)                0.1318                  3.6                    !
 ! A6    A(4,1,5)               -0.1318                  3.6                    !
 ! A19   A(8,11,12)             -0.1318                  3.6                    !
 ! A21   A(8,11,14)              0.1318                  3.6                    !
 ! D1    D(2,1,5,6)              0.0428                  1.2                    !
 ! D2    D(2,1,5,7)              0.0428                  1.2                    !
 ! D4    D(3,1,5,6)             -0.023                   0.6                    !
 ! D5    D(3,1,5,7)             -0.023                   0.6                    !
 ! D6    D(3,1,5,8)             -0.0479                  1.3                    !
 ! D7    D(4,1,5,6)             -0.023                   0.6                    !
 ! D8    D(4,1,5,7)             -0.023                   0.6                    !
 ! D9    D(4,1,5,8)             -0.0479                  1.3                    !
 ! D19   D(5,8,11,12)            0.0479                  1.3                    !
 ! D21   D(5,8,11,14)            0.0479                  1.3                    !
 ! D22   D(9,8,11,12)            0.023                   0.6                    !
 ! D23   D(9,8,11,13)           -0.0428                  1.2                    !
 ! D24   D(9,8,11,14)            0.023                   0.6                    !
 ! D25   D(10,8,11,12)           0.023                   0.6                    !
 ! D26   D(10,8,11,13)          -0.0428                  1.2                    !
 ! D27   D(10,8,11,14)           0.023                   0.6                    !
 --------------------------------------------------------------------------------
                           ----------------------------
                           ! Normal Mode    13        !
 --------------------------                            --------------------------
 ! Name  Definition              Value          Relative Weight (%)             !
 --------------------------------------------------------------------------------
 ! R1    R(1,2)                 -0.3767                 13.6                    !
 ! R2    R(1,3)                 -0.4308                 15.6                    !
 ! R3    R(1,4)                 -0.4308                 15.6                    !
 ! R4    R(1,5)                  0.0275                  1.0                    !
 ! R10   R(8,11)                -0.0275                  1.0                    !
 ! R11   R(11,12)                0.4308                 15.6                    !
 ! R12   R(11,13)                0.3767                 13.6                    !
 ! R13   R(11,14)                0.4308                 15.6                    !
 ! A3    A(2,1,5)                0.0231                  0.8                    !
 ! A20   A(8,11,13)             -0.0231                  0.8                    !
 --------------------------------------------------------------------------------
                           ----------------------------
                           ! Normal Mode    14        !
 --------------------------                            --------------------------
 ! Name  Definition              Value          Relative Weight (%)             !
 --------------------------------------------------------------------------------
 ! R1    R(1,2)                 -0.378                  13.7                    !
 ! R2    R(1,3)                 -0.4302                 15.6                    !
 ! R3    R(1,4)                 -0.4302                 15.6                    !
 ! R4    R(1,5)                  0.0276                  1.0                    !
 ! R10   R(8,11)                 0.0276                  1.0                    !
 ! R11   R(11,12)               -0.4302                 15.6                    !
 ! R12   R(11,13)               -0.378                  13.7                    !
 ! R13   R(11,14)               -0.4302                 15.6                    !
 ! A3    A(2,1,5)                0.0231                  0.8                    !
 ! A20   A(8,11,13)              0.0231                  0.8                    !
 --------------------------------------------------------------------------------
                           ----------------------------
                           ! Normal Mode    15        !
 --------------------------                            --------------------------
 ! Name  Definition              Value          Relative Weight (%)             !
 --------------------------------------------------------------------------------
 ! R1    R(1,2)                 -0.2193                  7.0                    !
 ! R2    R(1,3)                  0.091                   2.9                    !
 ! R3    R(1,4)                  0.091                   2.9                    !
 ! R4    R(1,5)                  0.0304                  1.0                    !
 ! R5    R(5,6)                 -0.4938                 15.7                    !
 ! R6    R(5,7)                 -0.4938                 15.7                    !
 ! R8    R(8,9)                  0.4938                 15.7                    !
 ! R9    R(8,10)                 0.4938                 15.7                    !
 ! R10   R(8,11)                -0.0304                  1.0                    !
 ! R11   R(11,12)               -0.091                   2.9                    !
 ! R12   R(11,13)                0.2193                  7.0                    !
 ! R13   R(11,14)               -0.091                   2.9                    !
 ! A3    A(2,1,5)               -0.0242                  0.8                    !
 ! A20   A(8,11,13)              0.0242                  0.8                    !
 --------------------------------------------------------------------------------
                           ----------------------------
                           ! Normal Mode    16        !
 --------------------------                            --------------------------
 ! Name  Definition              Value          Relative Weight (%)             !
 --------------------------------------------------------------------------------
 ! R1    R(1,2)                 -0.307                   8.9                    !
 ! R2    R(1,3)                  0.1346                  3.9                    !
 ! R3    R(1,4)                  0.1346                  3.9                    !
 ! R4    R(1,5)                  0.0307                  0.9                    !
 ! R5    R(5,6)                 -0.4669                 13.5                    !
 ! R6    R(5,7)                 -0.4669                 13.5                    !
 ! R7    R(5,8)                  0.0654                  1.9                    !
 ! R8    R(8,9)                 -0.4669                 13.5                    !
 ! R9    R(8,10)                -0.4669                 13.5                    !
 ! R10   R(8,11)                 0.0307                  0.9                    !
 ! R11   R(11,12)                0.1346                  3.9                    !
 ! R12   R(11,13)               -0.307                   8.9                    !
 ! R13   R(11,14)                0.1346                  3.9                    !
 ! A9    A(1,5,8)               -0.0389                  1.1                    !
 ! A15   A(5,8,11)              -0.0389                  1.1                    !
 --------------------------------------------------------------------------------
                           ----------------------------
                           ! Normal Mode    17        !
 --------------------------                            --------------------------
 ! Name  Definition              Value          Relative Weight (%)             !
 --------------------------------------------------------------------------------
 ! R2    R(1,3)                 -0.2799                  7.7                    !
 ! R3    R(1,4)                  0.2799                  7.7                    !
 ! R5    R(5,6)                 -0.463                  12.8                    !
 ! R6    R(5,7)                  0.463                  12.8                    !
 ! R8    R(8,9)                 -0.463                  12.8                    !
 ! R9    R(8,10)                 0.463                  12.8                    !
 ! R11   R(11,12)               -0.2799                  7.7                    !
 ! R13   R(11,14)                0.2799                  7.7                    !
 ! A11   A(6,5,8)                0.014                   0.4                    !
 ! A12   A(7,5,8)               -0.014                   0.4                    !
 ! A13   A(5,8,9)                0.014                   0.4                    !
 ! A14   A(5,8,10)              -0.014                   0.4                    !
 ! D3    D(2,1,5,8)              0.0207                  0.6                    !
 ! D4    D(3,1,5,6)              0.0146                  0.4                    !
 ! D5    D(3,1,5,7)              0.0146                  0.4                    !
 ! D6    D(3,1,5,8)              0.0254                  0.7                    !
 ! D7    D(4,1,5,6)              0.0146                  0.4                    !
 ! D8    D(4,1,5,7)              0.0146                  0.4                    !
 ! D9    D(4,1,5,8)              0.0254                  0.7                    !
 ! D10   D(1,5,8,9)             -0.0189                  0.5                    !
 ! D11   D(1,5,8,10)            -0.0189                  0.5                    !
 ! D12   D(1,5,8,11)            -0.0162                  0.4                    !
 ! D13   D(6,5,8,9)             -0.0216                  0.6                    !
 ! D14   D(6,5,8,10)            -0.0216                  0.6                    !
 ! D15   D(6,5,8,11)            -0.0189                  0.5                    !
 ! D16   D(7,5,8,9)             -0.0216                  0.6                    !
 ! D17   D(7,5,8,10)            -0.0216                  0.6                    !
 ! D18   D(7,5,8,11)            -0.0189                  0.5                    !
 ! D19   D(5,8,11,12)            0.0254                  0.7                    !
 ! D20   D(5,8,11,13)            0.0207                  0.6                    !
 ! D21   D(5,8,11,14)            0.0254                  0.7                    !
 ! D22   D(9,8,11,12)            0.0146                  0.4                    !
 ! D24   D(9,8,11,14)            0.0146                  0.4                    !
 ! D25   D(10,8,11,12)           0.0146                  0.4                    !
 ! D27   D(10,8,11,14)           0.0146                  0.4                    !
 --------------------------------------------------------------------------------
                           ----------------------------
                           ! Normal Mode    18        !
 --------------------------                            --------------------------
 ! Name  Definition              Value          Relative Weight (%)             !
 --------------------------------------------------------------------------------
 ! R2    R(1,3)                 -0.4276                 10.6                    !
 ! R3    R(1,4)                  0.4276                 10.6                    !
 ! R5    R(5,6)                 -0.1685                  4.2                    !
 ! R6    R(5,7)                  0.1685                  4.2                    !
 ! R8    R(8,9)                  0.1685                  4.2                    !
 ! R9    R(8,10)                -0.1685                  4.2                    !
 ! R11   R(11,12)                0.4276                 10.6                    !
 ! R13   R(11,14)               -0.4276                 10.6                    !
 ! A1    A(2,1,3)               -0.0406                  1.0                    !
 ! A2    A(2,1,4)                0.0406                  1.0                    !
 ! A5    A(3,1,5)                0.1519                  3.7                    !
 ! A6    A(4,1,5)               -0.1519                  3.7                    !
 ! A7    A(1,5,6)                0.0555                  1.4                    !
 ! A8    A(1,5,7)               -0.0555                  1.4                    !
 ! A17   A(9,8,11)              -0.0555                  1.4                    !
 ! A18   A(10,8,11)              0.0555                  1.4                    !
 ! A19   A(8,11,12)             -0.1519                  3.7                    !
 ! A21   A(8,11,14)              0.1519                  3.7                    !
 ! A22   A(12,11,13)             0.0406                  1.0                    !
 ! A24   A(13,11,14)            -0.0406                  1.0                    !
 ! D1    D(2,1,5,6)              0.0377                  0.9                    !
 ! D2    D(2,1,5,7)              0.0377                  0.9                    !
 ! D3    D(2,1,5,8)              0.0505                  1.2                    !
 ! D10   D(1,5,8,9)             -0.056                   1.4                    !
 ! D11   D(1,5,8,10)            -0.056                   1.4                    !
 ! D15   D(6,5,8,11)             0.056                   1.4                    !
 ! D18   D(7,5,8,11)             0.056                   1.4                    !
 ! D20   D(5,8,11,13)           -0.0505                  1.2                    !
 ! D23   D(9,8,11,13)           -0.0377                  0.9                    !
 ! D26   D(10,8,11,13)          -0.0377                  0.9                    !
 --------------------------------------------------------------------------------
                           ----------------------------
                           ! Normal Mode    19        !
 --------------------------                            --------------------------
 ! Name  Definition              Value          Relative Weight (%)             !
 --------------------------------------------------------------------------------
 ! R1    R(1,2)                 -0.4653                 10.2                    !
 ! R2    R(1,3)                  0.2221                  4.9                    !
 ! R3    R(1,4)                  0.2221                  4.9                    !
 ! R5    R(5,6)                  0.101                   2.2                    !
 ! R6    R(5,7)                  0.101                   2.2                    !
 ! R8    R(8,9)                 -0.101                   2.2                    !
 ! R9    R(8,10)                -0.101                   2.2                    !
 ! R11   R(11,12)               -0.2221                  4.9                    !
 ! R12   R(11,13)                0.4653                 10.2                    !
 ! R13   R(11,14)               -0.2221                  4.9                    !
 ! A1    A(2,1,3)               -0.0313                  0.7                    !
 ! A2    A(2,1,4)               -0.0313                  0.7                    !
 ! A3    A(2,1,5)                0.2565                  5.6                    !
 ! A4    A(3,1,4)                0.0688                  1.5                    !
 ! A5    A(3,1,5)               -0.1318                  2.9                    !
 ! A6    A(4,1,5)               -0.1318                  2.9                    !
 ! A9    A(1,5,8)                0.0438                  1.0                    !
 ! A11   A(6,5,8)               -0.0394                  0.9                    !
 ! A12   A(7,5,8)               -0.0394                  0.9                    !
 ! A13   A(5,8,9)                0.0394                  0.9                    !
 ! A14   A(5,8,10)               0.0394                  0.9                    !
 ! A15   A(5,8,11)              -0.0438                  1.0                    !
 ! A19   A(8,11,12)              0.1318                  2.9                    !
 ! A20   A(8,11,13)             -0.2565                  5.6                    !
 ! A21   A(8,11,14)              0.1318                  2.9                    !
 ! A22   A(12,11,13)             0.0313                  0.7                    !
 ! A23   A(12,11,14)            -0.0688                  1.5                    !
 ! A24   A(13,11,14)             0.0313                  0.7                    !
 ! D4    D(3,1,5,6)             -0.0289                  0.6                    !
 ! D5    D(3,1,5,7)             -0.0562                  1.2                    !
 ! D6    D(3,1,5,8)             -0.0425                  0.9                    !
 ! D7    D(4,1,5,6)              0.0562                  1.2                    !
 ! D8    D(4,1,5,7)              0.0289                  0.6                    !
 ! D9    D(4,1,5,8)              0.0425                  0.9                    !
 ! D14   D(6,5,8,10)             0.0284                  0.6                    !
 ! D16   D(7,5,8,9)             -0.0284                  0.6                    !
 ! D19   D(5,8,11,12)            0.0425                  0.9                    !
 ! D21   D(5,8,11,14)           -0.0425                  0.9                    !
 ! D22   D(9,8,11,12)            0.0289                  0.6                    !
 ! D24   D(9,8,11,14)           -0.0562                  1.2                    !
 ! D25   D(10,8,11,12)           0.0562                  1.2                    !
 ! D27   D(10,8,11,14)          -0.0289                  0.6                    !
 --------------------------------------------------------------------------------
                           ----------------------------
                           ! Normal Mode    20        !
 --------------------------                            --------------------------
 ! Name  Definition              Value          Relative Weight (%)             !
 --------------------------------------------------------------------------------
 ! R2    R(1,3)                 -0.0701                  1.5                    !
 ! R3    R(1,4)                  0.0701                  1.5                    !
 ! R5    R(5,6)                 -0.2114                  4.6                    !
 ! R6    R(5,7)                  0.2114                  4.6                    !
 ! R8    R(8,9)                  0.2114                  4.6                    !
 ! R9    R(8,10)                -0.2114                  4.6                    !
 ! R11   R(11,12)                0.0701                  1.5                    !
 ! R13   R(11,14)               -0.0701                  1.5                    !
 ! A7    A(1,5,6)               -0.1674                  3.6                    !
 ! A8    A(1,5,7)                0.1674                  3.6                    !
 ! A11   A(6,5,8)                0.175                   3.8                    !
 ! A12   A(7,5,8)               -0.175                   3.8                    !
 ! A13   A(5,8,9)               -0.175                   3.8                    !
 ! A14   A(5,8,10)               0.175                   3.8                    !
 ! A17   A(9,8,11)               0.1674                  3.6                    !
 ! A18   A(10,8,11)             -0.1674                  3.6                    !
 ! D3    D(2,1,5,8)              0.1448                  3.1                    !
 ! D4    D(3,1,5,6)              0.0643                  1.4                    !
 ! D5    D(3,1,5,7)              0.0643                  1.4                    !
 ! D6    D(3,1,5,8)              0.1693                  3.7                    !
 ! D7    D(4,1,5,6)              0.0643                  1.4                    !
 ! D8    D(4,1,5,7)              0.0643                  1.4                    !
 ! D9    D(4,1,5,8)              0.1693                  3.7                    !
 ! D10   D(1,5,8,9)              0.0895                  1.9                    !
 ! D11   D(1,5,8,10)             0.0895                  1.9                    !
 ! D15   D(6,5,8,11)            -0.0895                  1.9                    !
 ! D18   D(7,5,8,11)            -0.0895                  1.9                    !
 ! D19   D(5,8,11,12)           -0.1693                  3.7                    !
 ! D20   D(5,8,11,13)           -0.1448                  3.1                    !
 ! D21   D(5,8,11,14)           -0.1693                  3.7                    !
 ! D22   D(9,8,11,12)           -0.0643                  1.4                    !
 ! D24   D(9,8,11,14)           -0.0643                  1.4                    !
 ! D25   D(10,8,11,12)          -0.0643                  1.4                    !
 ! D27   D(10,8,11,14)          -0.0643                  1.4                    !
 --------------------------------------------------------------------------------
                           ----------------------------
                           ! Normal Mode    21        !
 --------------------------                            --------------------------
 ! Name  Definition              Value          Relative Weight (%)             !
 --------------------------------------------------------------------------------
 ! R1    R(1,2)                 -0.427                   8.6                    !
 ! R2    R(1,3)                  0.2058                  4.1                    !
 ! R3    R(1,4)                  0.2058                  4.1                    !
 ! R5    R(5,6)                  0.1715                  3.4                    !
 ! R6    R(5,7)                  0.1715                  3.4                    !
 ! R7    R(5,8)                 -0.0781                  1.6                    !
 ! R8    R(8,9)                  0.1715                  3.4                    !
 ! R9    R(8,10)                 0.1715                  3.4                    !
 ! R11   R(11,12)                0.2058                  4.1                    !
 ! R12   R(11,13)               -0.427                   8.6                    !
 ! R13   R(11,14)                0.2058                  4.1                    !
 ! A1    A(2,1,3)               -0.0329                  0.7                    !
 ! A2    A(2,1,4)               -0.0329                  0.7                    !
 ! A3    A(2,1,5)                0.271                   5.4                    !
 ! A4    A(3,1,4)                0.0748                  1.5                    !
 ! A5    A(3,1,5)               -0.1405                  2.8                    !
 ! A6    A(4,1,5)               -0.1405                  2.8                    !
 ! A9    A(1,5,8)                0.0868                  1.7                    !
 ! A11   A(6,5,8)               -0.0452                  0.9                    !
 ! A12   A(7,5,8)               -0.0452                  0.9                    !
 ! A13   A(5,8,9)               -0.0452                  0.9                    !
 ! A14   A(5,8,10)              -0.0452                  0.9                    !
 ! A15   A(5,8,11)               0.0868                  1.7                    !
 ! A19   A(8,11,12)             -0.1405                  2.8                    !
 ! A20   A(8,11,13)              0.271                   5.4                    !
 ! A21   A(8,11,14)             -0.1405                  2.8                    !
 ! A22   A(12,11,13)            -0.0329                  0.7                    !
 ! A23   A(12,11,14)             0.0748                  1.5                    !
 ! A24   A(13,11,14)            -0.0329                  0.7                    !
 ! D4    D(3,1,5,6)             -0.0363                  0.7                    !
 ! D5    D(3,1,5,7)             -0.0525                  1.1                    !
 ! D6    D(3,1,5,8)             -0.0444                  0.9                    !
 ! D7    D(4,1,5,6)              0.0525                  1.1                    !
 ! D8    D(4,1,5,7)              0.0363                  0.7                    !
 ! D9    D(4,1,5,8)              0.0444                  0.9                    !
 ! D19   D(5,8,11,12)           -0.0444                  0.9                    !
 ! D21   D(5,8,11,14)            0.0444                  0.9                    !
 ! D22   D(9,8,11,12)           -0.0363                  0.7                    !
 ! D24   D(9,8,11,14)            0.0525                  1.1                    !
 ! D25   D(10,8,11,12)          -0.0525                  1.1                    !
 ! D27   D(10,8,11,14)           0.0363                  0.7                    !
 --------------------------------------------------------------------------------
                           ----------------------------
                           ! Normal Mode    22        !
 --------------------------                            --------------------------
 ! Name  Definition              Value          Relative Weight (%)             !
 --------------------------------------------------------------------------------
 ! R2    R(1,3)                  0.3429                  6.8                    !
 ! R3    R(1,4)                 -0.3429                  6.8                    !
 ! R5    R(5,6)                 -0.2193                  4.3                    !
 ! R6    R(5,7)                  0.2193                  4.3                    !
 ! R8    R(8,9)                 -0.2193                  4.3                    !
 ! R9    R(8,10)                 0.2193                  4.3                    !
 ! R11   R(11,12)                0.3429                  6.8                    !
 ! R13   R(11,14)               -0.3429                  6.8                    !
 ! A1    A(2,1,3)                0.0705                  1.4                    !
 ! A2    A(2,1,4)               -0.0705                  1.4                    !
 ! A5    A(3,1,5)               -0.2469                  4.9                    !
 ! A6    A(4,1,5)                0.2469                  4.9                    !
 ! A19   A(8,11,12)             -0.2469                  4.9                    !
 ! A21   A(8,11,14)              0.2469                  4.9                    !
 ! A22   A(12,11,13)             0.0705                  1.4                    !
 ! A24   A(13,11,14)            -0.0705                  1.4                    !
 ! D1    D(2,1,5,6)             -0.0568                  1.1                    !
 ! D2    D(2,1,5,7)             -0.0568                  1.1                    !
 ! D6    D(3,1,5,8)              0.0619                  1.2                    !
 ! D9    D(4,1,5,8)              0.0619                  1.2                    !
 ! D10   D(1,5,8,9)             -0.0895                  1.8                    !
 ! D11   D(1,5,8,10)            -0.0895                  1.8                    !
 ! D12   D(1,5,8,11)            -0.1298                  2.6                    !
 ! D13   D(6,5,8,9)             -0.0491                  1.0                    !
 ! D14   D(6,5,8,10)            -0.0491                  1.0                    !
 ! D15   D(6,5,8,11)            -0.0895                  1.8                    !
 ! D16   D(7,5,8,9)             -0.0491                  1.0                    !
 ! D17   D(7,5,8,10)            -0.0491                  1.0                    !
 ! D18   D(7,5,8,11)            -0.0895                  1.8                    !
 ! D19   D(5,8,11,12)            0.0619                  1.2                    !
 ! D21   D(5,8,11,14)            0.0619                  1.2                    !
 ! D23   D(9,8,11,13)           -0.0568                  1.1                    !
 ! D26   D(10,8,11,13)          -0.0568                  1.1                    !
 --------------------------------------------------------------------------------
                           ----------------------------
                           ! Normal Mode    23        !
 --------------------------                            --------------------------
 ! Name  Definition              Value          Relative Weight (%)             !
 --------------------------------------------------------------------------------
 ! R2    R(1,3)                 -0.098                   1.4                    !
 ! R3    R(1,4)                  0.098                   1.4                    !
 ! R5    R(5,6)                  0.2333                  3.3                    !
 ! R6    R(5,7)                 -0.2333                  3.3                    !
 ! R8    R(8,9)                 -0.2333                  3.3                    !
 ! R9    R(8,10)                 0.2333                  3.3                    !
 ! R11   R(11,12)                0.098                   1.4                    !
 ! R13   R(11,14)               -0.098                   1.4                    !
 ! A5    A(3,1,5)                0.1426                  2.0                    !
 ! A6    A(4,1,5)               -0.1426                  2.0                    !
 ! A7    A(1,5,6)               -0.2337                  3.3                    !
 ! A8    A(1,5,7)                0.2337                  3.3                    !
 ! A17   A(9,8,11)               0.2337                  3.3                    !
 ! A18   A(10,8,11)             -0.2337                  3.3                    !
 ! A19   A(8,11,12)             -0.1426                  2.0                    !
 ! A21   A(8,11,14)              0.1426                  2.0                    !
 ! D1    D(2,1,5,6)             -0.1093                  1.5                    !
 ! D2    D(2,1,5,7)             -0.1093                  1.5                    !
 ! D3    D(2,1,5,8)             -0.2369                  3.3                    !
 ! D4    D(3,1,5,6)             -0.1188                  1.7                    !
 ! D5    D(3,1,5,7)             -0.1188                  1.7                    !
 ! D6    D(3,1,5,8)             -0.2463                  3.4                    !
 ! D7    D(4,1,5,6)             -0.1188                  1.7                    !
 ! D8    D(4,1,5,7)             -0.1188                  1.7                    !
 ! D9    D(4,1,5,8)             -0.2463                  3.4                    !
 ! D10   D(1,5,8,9)              0.2763                  3.9                    !
 ! D11   D(1,5,8,10)             0.2763                  3.9                    !
 ! D15   D(6,5,8,11)            -0.2763                  3.9                    !
 ! D18   D(7,5,8,11)            -0.2763                  3.9                    !
 ! D19   D(5,8,11,12)            0.2463                  3.4                    !
 ! D20   D(5,8,11,13)            0.2369                  3.3                    !
 ! D21   D(5,8,11,14)            0.2463                  3.4                    !
 ! D22   D(9,8,11,12)            0.1188                  1.7                    !
 ! D23   D(9,8,11,13)            0.1093                  1.5                    !
 ! D24   D(9,8,11,14)            0.1188                  1.7                    !
 ! D25   D(10,8,11,12)           0.1188                  1.7                    !
 ! D26   D(10,8,11,13)           0.1093                  1.5                    !
 ! D27   D(10,8,11,14)           0.1188                  1.7                    !
 --------------------------------------------------------------------------------
                           ----------------------------
                           ! Normal Mode    24        !
 --------------------------                            --------------------------
 ! Name  Definition              Value          Relative Weight (%)             !
 --------------------------------------------------------------------------------
 ! R1    R(1,2)                  0.058                   1.5                    !
 ! R2    R(1,3)                  0.0667                  1.8                    !
 ! R3    R(1,4)                  0.0667                  1.8                    !
 ! R4    R(1,5)                 -0.1006                  2.7                    !
 ! R10   R(8,11)                -0.1006                  2.7                    !
 ! R11   R(11,12)                0.0667                  1.8                    !
 ! R12   R(11,13)                0.058                   1.5                    !
 ! R13   R(11,14)                0.0667                  1.8                    !
 ! A1    A(2,1,3)               -0.2562                  6.8                    !
 ! A2    A(2,1,4)               -0.2562                  6.8                    !
 ! A3    A(2,1,5)                0.2457                  6.5                    !
 ! A4    A(3,1,4)               -0.25                    6.6                    !
 ! A5    A(3,1,5)                0.2381                  6.3                    !
 ! A6    A(4,1,5)                0.2381                  6.3                    !
 ! A19   A(8,11,12)              0.2381                  6.3                    !
 ! A20   A(8,11,13)              0.2457                  6.5                    !
 ! A21   A(8,11,14)              0.2381                  6.3                    !
 ! A22   A(12,11,13)            -0.2562                  6.8                    !
 ! A23   A(12,11,14)            -0.25                    6.6                    !
 ! A24   A(13,11,14)            -0.2562                  6.8                    !
 --------------------------------------------------------------------------------
                           ----------------------------
                           ! Normal Mode    25        !
 --------------------------                            --------------------------
 ! Name  Definition              Value          Relative Weight (%)             !
 --------------------------------------------------------------------------------
 ! R1    R(1,2)                  0.0576                  1.5                    !
 ! R2    R(1,3)                  0.0668                  1.7                    !
 ! R3    R(1,4)                  0.0668                  1.7                    !
 ! R4    R(1,5)                 -0.101                   2.6                    !
 ! R10   R(8,11)                 0.101                   2.6                    !
 ! R11   R(11,12)               -0.0668                  1.7                    !
 ! R12   R(11,13)               -0.0576                  1.5                    !
 ! R13   R(11,14)               -0.0668                  1.7                    !
 ! A1    A(2,1,3)               -0.2563                  6.7                    !
 ! A2    A(2,1,4)               -0.2563                  6.7                    !
 ! A3    A(2,1,5)                0.2464                  6.4                    !
 ! A4    A(3,1,4)               -0.2495                  6.5                    !
 ! A5    A(3,1,5)                0.2377                  6.2                    !
 ! A6    A(4,1,5)                0.2377                  6.2                    !
 ! A19   A(8,11,12)             -0.2377                  6.2                    !
 ! A20   A(8,11,13)             -0.2464                  6.4                    !
 ! A21   A(8,11,14)             -0.2377                  6.2                    !
 ! A22   A(12,11,13)             0.2563                  6.7                    !
 ! A23   A(12,11,14)             0.2495                  6.5                    !
 ! A24   A(13,11,14)             0.2563                  6.7                    !
 --------------------------------------------------------------------------------
                           ----------------------------
                           ! Normal Mode    26        !
 --------------------------                            --------------------------
 ! Name  Definition              Value          Relative Weight (%)             !
 --------------------------------------------------------------------------------
 ! R1    R(1,2)                 -0.0369                  0.6                    !
 ! R4    R(1,5)                  0.0793                  1.3                    !
 ! R10   R(8,11)                -0.0793                  1.3                    !
 ! R12   R(11,13)                0.0369                  0.6                    !
 ! A3    A(2,1,5)                0.052                   0.9                    !
 ! A4    A(3,1,4)                0.0556                  0.9                    !
 ! A5    A(3,1,5)               -0.0438                  0.7                    !
 ! A6    A(4,1,5)               -0.0438                  0.7                    !
 ! A7    A(1,5,6)               -0.2682                  4.6                    !
 ! A8    A(1,5,7)               -0.2682                  4.6                    !
 ! A11   A(6,5,8)                0.2454                  4.2                    !
 ! A12   A(7,5,8)                0.2454                  4.2                    !
 ! A13   A(5,8,9)               -0.2454                  4.2                    !
 ! A14   A(5,8,10)              -0.2454                  4.2                    !
 ! A17   A(9,8,11)               0.2682                  4.6                    !
 ! A18   A(10,8,11)              0.2682                  4.6                    !
 ! A19   A(8,11,12)              0.0438                  0.7                    !
 ! A20   A(8,11,13)             -0.052                   0.9                    !
 ! A21   A(8,11,14)              0.0438                  0.7                    !
 ! A23   A(12,11,14)            -0.0556                  0.9                    !
 ! D1    D(2,1,5,6)             -0.1436                  2.4                    !
 ! D2    D(2,1,5,7)              0.1436                  2.4                    !
 ! D4    D(3,1,5,6)             -0.1373                  2.3                    !
 ! D5    D(3,1,5,7)              0.1499                  2.6                    !
 ! D7    D(4,1,5,6)             -0.1499                  2.6                    !
 ! D8    D(4,1,5,7)              0.1373                  2.3                    !
 ! D10   D(1,5,8,9)              0.1483                  2.5                    !
 ! D11   D(1,5,8,10)            -0.1483                  2.5                    !
 ! D14   D(6,5,8,10)            -0.2966                  5.0                    !
 ! D15   D(6,5,8,11)            -0.1483                  2.5                    !
 ! D16   D(7,5,8,9)              0.2966                  5.0                    !
 ! D18   D(7,5,8,11)             0.1483                  2.5                    !
 ! D22   D(9,8,11,12)            0.1373                  2.3                    !
 ! D23   D(9,8,11,13)            0.1436                  2.4                    !
 ! D24   D(9,8,11,14)            0.1499                  2.6                    !
 ! D25   D(10,8,11,12)          -0.1499                  2.6                    !
 ! D26   D(10,8,11,13)          -0.1436                  2.4                    !
 ! D27   D(10,8,11,14)          -0.1373                  2.3                    !
 --------------------------------------------------------------------------------
                           ----------------------------
                           ! Normal Mode    27        !
 --------------------------                            --------------------------
 ! Name  Definition              Value          Relative Weight (%)             !
 --------------------------------------------------------------------------------
 ! A7    A(1,5,6)               -0.2052                  3.4                    !
 ! A8    A(1,5,7)                0.2052                  3.4                    !
 ! A11   A(6,5,8)                0.183                   3.0                    !
 ! A12   A(7,5,8)               -0.183                   3.0                    !
 ! A13   A(5,8,9)                0.183                   3.0                    !
 ! A14   A(5,8,10)              -0.183                   3.0                    !
 ! A17   A(9,8,11)              -0.2052                  3.4                    !
 ! A18   A(10,8,11)              0.2052                  3.4                    !
 ! D1    D(2,1,5,6)             -0.1884                  3.1                    !
 ! D2    D(2,1,5,7)             -0.1884                  3.1                    !
 ! D3    D(2,1,5,8)             -0.0999                  1.6                    !
 ! D4    D(3,1,5,6)             -0.1828                  3.0                    !
 ! D5    D(3,1,5,7)             -0.1828                  3.0                    !
 ! D6    D(3,1,5,8)             -0.0943                  1.6                    !
 ! D7    D(4,1,5,6)             -0.1828                  3.0                    !
 ! D8    D(4,1,5,7)             -0.1828                  3.0                    !
 ! D9    D(4,1,5,8)             -0.0943                  1.6                    !
 ! D10   D(1,5,8,9)             -0.1145                  1.9                    !
 ! D11   D(1,5,8,10)            -0.1145                  1.9                    !
 ! D13   D(6,5,8,9)             -0.2464                  4.1                    !
 ! D14   D(6,5,8,10)            -0.2464                  4.1                    !
 ! D15   D(6,5,8,11)            -0.1145                  1.9                    !
 ! D16   D(7,5,8,9)             -0.2464                  4.1                    !
 ! D17   D(7,5,8,10)            -0.2464                  4.1                    !
 ! D18   D(7,5,8,11)            -0.1145                  1.9                    !
 ! D19   D(5,8,11,12)           -0.0943                  1.6                    !
 ! D20   D(5,8,11,13)           -0.0999                  1.6                    !
 ! D21   D(5,8,11,14)           -0.0943                  1.6                    !
 ! D22   D(9,8,11,12)           -0.1828                  3.0                    !
 ! D23   D(9,8,11,13)           -0.1884                  3.1                    !
 ! D24   D(9,8,11,14)           -0.1828                  3.0                    !
 ! D25   D(10,8,11,12)          -0.1828                  3.0                    !
 ! D26   D(10,8,11,13)          -0.1884                  3.1                    !
 ! D27   D(10,8,11,14)          -0.1828                  3.0                    !
 --------------------------------------------------------------------------------
                           ----------------------------
                           ! Normal Mode    28        !
 --------------------------                            --------------------------
 ! Name  Definition              Value          Relative Weight (%)             !
 --------------------------------------------------------------------------------
 ! R4    R(1,5)                  0.1117                  1.7                    !
 ! R7    R(5,8)                 -0.1884                  2.9                    !
 ! R10   R(8,11)                 0.1117                  1.7                    !
 ! A7    A(1,5,6)               -0.2683                  4.2                    !
 ! A8    A(1,5,7)               -0.2683                  4.2                    !
 ! A11   A(6,5,8)                0.29                    4.5                    !
 ! A12   A(7,5,8)                0.29                    4.5                    !
 ! A13   A(5,8,9)                0.29                    4.5                    !
 ! A14   A(5,8,10)               0.29                    4.5                    !
 ! A17   A(9,8,11)              -0.2683                  4.2                    !
 ! A18   A(10,8,11)             -0.2683                  4.2                    !
 ! D1    D(2,1,5,6)             -0.1627                  2.5                    !
 ! D2    D(2,1,5,7)              0.1627                  2.5                    !
 ! D4    D(3,1,5,6)             -0.1532                  2.4                    !
 ! D5    D(3,1,5,7)              0.1721                  2.7                    !
 ! D7    D(4,1,5,6)             -0.1721                  2.7                    !
 ! D8    D(4,1,5,7)              0.1532                  2.4                    !
 ! D10   D(1,5,8,9)             -0.1542                  2.4                    !
 ! D11   D(1,5,8,10)             0.1542                  2.4                    !
 ! D13   D(6,5,8,9)             -0.3085                  4.8                    !
 ! D15   D(6,5,8,11)            -0.1542                  2.4                    !
 ! D17   D(7,5,8,10)             0.3085                  4.8                    !
 ! D18   D(7,5,8,11)             0.1542                  2.4                    !
 ! D22   D(9,8,11,12)           -0.1532                  2.4                    !
 ! D23   D(9,8,11,13)           -0.1627                  2.5                    !
 ! D24   D(9,8,11,14)           -0.1721                  2.7                    !
 ! D25   D(10,8,11,12)           0.1721                  2.7                    !
 ! D26   D(10,8,11,13)           0.1627                  2.5                    !
 ! D27   D(10,8,11,14)           0.1532                  2.4                    !
 --------------------------------------------------------------------------------
                           ----------------------------
                           ! Normal Mode    29        !
 --------------------------                            --------------------------
 ! Name  Definition              Value          Relative Weight (%)             !
 --------------------------------------------------------------------------------
 ! R5    R(5,6)                  0.114                   1.5                    !
 ! R6    R(5,7)                 -0.114                   1.5                    !
 ! R8    R(8,9)                 -0.114                   1.5                    !
 ! R9    R(8,10)                 0.114                   1.5                    !
 ! A1    A(2,1,3)               -0.1272                  1.7                    !
 ! A2    A(2,1,4)                0.1272                  1.7                    !
 ! A5    A(3,1,5)                0.0556                  0.7                    !
 ! A6    A(4,1,5)               -0.0556                  0.7                    !
 ! A11   A(6,5,8)               -0.2236                  3.0                    !
 ! A12   A(7,5,8)                0.2236                  3.0                    !
 ! A13   A(5,8,9)                0.2236                  3.0                    !
 ! A14   A(5,8,10)              -0.2236                  3.0                    !
 ! A19   A(8,11,12)             -0.0556                  0.7                    !
 ! A21   A(8,11,14)              0.0556                  0.7                    !
 ! A22   A(12,11,13)             0.1272                  1.7                    !
 ! A24   A(13,11,14)            -0.1272                  1.7                    !
 ! D1    D(2,1,5,6)              0.2522                  3.4                    !
 ! D2    D(2,1,5,7)              0.2522                  3.4                    !
 ! D3    D(2,1,5,8)             -0.0636                  0.8                    !
 ! D4    D(3,1,5,6)              0.3756                  5.0                    !
 ! D5    D(3,1,5,7)              0.3756                  5.0                    !
 ! D6    D(3,1,5,8)              0.0598                  0.8                    !
 ! D7    D(4,1,5,6)              0.3756                  5.0                    !
 ! D8    D(4,1,5,7)              0.3756                  5.0                    !
 ! D9    D(4,1,5,8)              0.0598                  0.8                    !
 ! D10   D(1,5,8,9)              0.2122                  2.8                    !
 ! D11   D(1,5,8,10)             0.2122                  2.8                    !
 ! D15   D(6,5,8,11)            -0.2122                  2.8                    !
 ! D18   D(7,5,8,11)            -0.2122                  2.8                    !
 ! D19   D(5,8,11,12)           -0.0598                  0.8                    !
 ! D20   D(5,8,11,13)            0.0636                  0.8                    !
 ! D21   D(5,8,11,14)           -0.0598                  0.8                    !
 ! D22   D(9,8,11,12)           -0.3756                  5.0                    !
 ! D23   D(9,8,11,13)           -0.2522                  3.4                    !
 ! D24   D(9,8,11,14)           -0.3756                  5.0                    !
 ! D25   D(10,8,11,12)          -0.3756                  5.0                    !
 ! D26   D(10,8,11,13)          -0.2522                  3.4                    !
 ! D27   D(10,8,11,14)          -0.3756                  5.0                    !
 --------------------------------------------------------------------------------
                           ----------------------------
                           ! Normal Mode    30        !
 --------------------------                            --------------------------
 ! Name  Definition              Value          Relative Weight (%)             !
 --------------------------------------------------------------------------------
 ! R2    R(1,3)                 -0.0771                  1.0                    !
 ! R3    R(1,4)                  0.0771                  1.0                    !
 ! R11   R(11,12)               -0.0771                  1.0                    !
 ! R13   R(11,14)                0.0771                  1.0                    !
 ! A1    A(2,1,3)                0.3791                  4.9                    !
 ! A2    A(2,1,4)               -0.3791                  4.9                    !
 ! A22   A(12,11,13)             0.3791                  4.9                    !
 ! A24   A(13,11,14)            -0.3791                  4.9                    !
 ! D1    D(2,1,5,6)              0.1984                  2.6                    !
 ! D2    D(2,1,5,7)              0.1984                  2.6                    !
 ! D3    D(2,1,5,8)              0.2703                  3.5                    !
 ! D4    D(3,1,5,6)             -0.2672                  3.5                    !
 ! D5    D(3,1,5,7)             -0.2672                  3.5                    !
 ! D6    D(3,1,5,8)             -0.1953                  2.5                    !
 ! D7    D(4,1,5,6)             -0.2672                  3.5                    !
 ! D8    D(4,1,5,7)             -0.2672                  3.5                    !
 ! D9    D(4,1,5,8)             -0.1953                  2.5                    !
 ! D10   D(1,5,8,9)              0.1104                  1.4                    !
 ! D11   D(1,5,8,10)             0.1104                  1.4                    !
 ! D13   D(6,5,8,9)              0.1777                  2.3                    !
 ! D14   D(6,5,8,10)             0.1777                  2.3                    !
 ! D15   D(6,5,8,11)             0.1104                  1.4                    !
 ! D16   D(7,5,8,9)              0.1777                  2.3                    !
 ! D17   D(7,5,8,10)             0.1777                  2.3                    !
 ! D18   D(7,5,8,11)             0.1104                  1.4                    !
 ! D19   D(5,8,11,12)           -0.1953                  2.5                    !
 ! D20   D(5,8,11,13)            0.2703                  3.5                    !
 ! D21   D(5,8,11,14)           -0.1953                  2.5                    !
 ! D22   D(9,8,11,12)           -0.2672                  3.5                    !
 ! D23   D(9,8,11,13)            0.1984                  2.6                    !
 ! D24   D(9,8,11,14)           -0.2672                  3.5                    !
 ! D25   D(10,8,11,12)          -0.2672                  3.5                    !
 ! D26   D(10,8,11,13)           0.1984                  2.6                    !
 ! D27   D(10,8,11,14)          -0.2672                  3.5                    !
 --------------------------------------------------------------------------------
                           ----------------------------
                           ! Normal Mode    31        !
 --------------------------                            --------------------------
 ! Name  Definition              Value          Relative Weight (%)             !
 --------------------------------------------------------------------------------
 ! R1    R(1,2)                 -0.0957                  1.5                    !
 ! R2    R(1,3)                  0.0464                  0.7                    !
 ! R3    R(1,4)                  0.0464                  0.7                    !
 ! R11   R(11,12)               -0.0464                  0.7                    !
 ! R12   R(11,13)                0.0957                  1.5                    !
 ! R13   R(11,14)               -0.0464                  0.7                    !
 ! A1    A(2,1,3)                0.2372                  3.7                    !
 ! A2    A(2,1,4)                0.2372                  3.7                    !
 ! A4    A(3,1,4)               -0.4764                  7.4                    !
 ! A22   A(12,11,13)            -0.2372                  3.7                    !
 ! A23   A(12,11,14)             0.4764                  7.4                    !
 ! A24   A(13,11,14)            -0.2372                  3.7                    !
 ! D4    D(3,1,5,6)             -0.2944                  4.6                    !
 ! D5    D(3,1,5,7)             -0.2934                  4.6                    !
 ! D6    D(3,1,5,8)             -0.2939                  4.6                    !
 ! D7    D(4,1,5,6)              0.2934                  4.6                    !
 ! D8    D(4,1,5,7)              0.2944                  4.6                    !
 ! D9    D(4,1,5,8)              0.2939                  4.6                    !
 ! D14   D(6,5,8,10)            -0.051                   0.8                    !
 ! D16   D(7,5,8,9)              0.051                   0.8                    !
 ! D19   D(5,8,11,12)            0.2939                  4.6                    !
 ! D21   D(5,8,11,14)           -0.2939                  4.6                    !
 ! D22   D(9,8,11,12)            0.2944                  4.6                    !
 ! D24   D(9,8,11,14)           -0.2934                  4.6                    !
 ! D25   D(10,8,11,12)           0.2934                  4.6                    !
 ! D27   D(10,8,11,14)          -0.2944                  4.6                    !
 --------------------------------------------------------------------------------
                           ----------------------------
                           ! Normal Mode    32        !
 --------------------------                            --------------------------
 ! Name  Definition              Value          Relative Weight (%)             !
 --------------------------------------------------------------------------------
 ! R1    R(1,2)                 -0.0957                  1.5                    !
 ! R2    R(1,3)                  0.0464                  0.7                    !
 ! R3    R(1,4)                  0.0464                  0.7                    !
 ! R11   R(11,12)                0.0464                  0.7                    !
 ! R12   R(11,13)               -0.0957                  1.5                    !
 ! R13   R(11,14)                0.0464                  0.7                    !
 ! A1    A(2,1,3)                0.2372                  3.7                    !
 ! A2    A(2,1,4)                0.2372                  3.7                    !
 ! A4    A(3,1,4)               -0.4763                  7.4                    !
 ! A7    A(1,5,6)               -0.0404                  0.6                    !
 ! A8    A(1,5,7)               -0.0404                  0.6                    !
 ! A17   A(9,8,11)              -0.0404                  0.6                    !
 ! A18   A(10,8,11)             -0.0404                  0.6                    !
 ! A22   A(12,11,13)             0.2372                  3.7                    !
 ! A23   A(12,11,14)            -0.4763                  7.4                    !
 ! A24   A(13,11,14)             0.2372                  3.7                    !
 ! D4    D(3,1,5,6)             -0.2953                  4.6                    !
 ! D5    D(3,1,5,7)             -0.2925                  4.5                    !
 ! D6    D(3,1,5,8)             -0.2939                  4.6                    !
 ! D7    D(4,1,5,6)              0.2925                  4.5                    !
 ! D8    D(4,1,5,7)              0.2953                  4.6                    !
 ! D9    D(4,1,5,8)              0.2939                  4.6                    !
 ! D13   D(6,5,8,9)             -0.0542                  0.8                    !
 ! D17   D(7,5,8,10)             0.0542                  0.8                    !
 ! D19   D(5,8,11,12)           -0.2939                  4.6                    !
 ! D21   D(5,8,11,14)            0.2939                  4.6                    !
 ! D22   D(9,8,11,12)           -0.2953                  4.6                    !
 ! D24   D(9,8,11,14)            0.2925                  4.5                    !
 ! D25   D(10,8,11,12)          -0.2925                  4.5                    !
 ! D27   D(10,8,11,14)           0.2953                  4.6                    !
 --------------------------------------------------------------------------------
                           ----------------------------
                           ! Normal Mode    33        !
 --------------------------                            --------------------------
 ! Name  Definition              Value          Relative Weight (%)             !
 --------------------------------------------------------------------------------
 ! R2    R(1,3)                 -0.0908                  1.3                    !
 ! R3    R(1,4)                  0.0908                  1.3                    !
 ! R5    R(5,6)                  0.0494                  0.7                    !
 ! R6    R(5,7)                 -0.0494                  0.7                    !
 ! R8    R(8,9)                 -0.0494                  0.7                    !
 ! R9    R(8,10)                 0.0494                  0.7                    !
 ! R11   R(11,12)                0.0908                  1.3                    !
 ! R13   R(11,14)               -0.0908                  1.3                    !
 ! A1    A(2,1,3)                0.4027                  5.8                    !
 ! A2    A(2,1,4)               -0.4027                  5.8                    !
 ! A7    A(1,5,6)               -0.0603                  0.9                    !
 ! A8    A(1,5,7)                0.0603                  0.9                    !
 ! A11   A(6,5,8)               -0.0657                  0.9                    !
 ! A12   A(7,5,8)                0.0657                  0.9                    !
 ! A13   A(5,8,9)                0.0657                  0.9                    !
 ! A14   A(5,8,10)              -0.0657                  0.9                    !
 ! A17   A(9,8,11)               0.0603                  0.9                    !
 ! A18   A(10,8,11)             -0.0603                  0.9                    !
 ! A22   A(12,11,13)            -0.4027                  5.8                    !
 ! A24   A(13,11,14)             0.4027                  5.8                    !
 ! D1    D(2,1,5,6)              0.4407                  6.3                    !
 ! D2    D(2,1,5,7)              0.4407                  6.3                    !
 ! D3    D(2,1,5,8)              0.3142                  4.5                    !
 ! D4    D(3,1,5,6)             -0.0726                  1.0                    !
 ! D5    D(3,1,5,7)             -0.0726                  1.0                    !
 ! D6    D(3,1,5,8)             -0.1991                  2.9                    !
 ! D7    D(4,1,5,6)             -0.0726                  1.0                    !
 ! D8    D(4,1,5,7)             -0.0726                  1.0                    !
 ! D9    D(4,1,5,8)             -0.1991                  2.9                    !
 ! D10   D(1,5,8,9)              0.123                   1.8                    !
 ! D11   D(1,5,8,10)             0.123                   1.8                    !
 ! D15   D(6,5,8,11)            -0.123                   1.8                    !
 ! D18   D(7,5,8,11)            -0.123                   1.8                    !
 ! D19   D(5,8,11,12)            0.1991                  2.9                    !
 ! D20   D(5,8,11,13)           -0.3142                  4.5                    !
 ! D21   D(5,8,11,14)            0.1991                  2.9                    !
 ! D22   D(9,8,11,12)            0.0726                  1.0                    !
 ! D23   D(9,8,11,13)           -0.4407                  6.3                    !
 ! D24   D(9,8,11,14)            0.0726                  1.0                    !
 ! D25   D(10,8,11,12)           0.0726                  1.0                    !
 ! D26   D(10,8,11,13)          -0.4407                  6.3                    !
 ! D27   D(10,8,11,14)           0.0726                  1.0                    !
 --------------------------------------------------------------------------------
                           ----------------------------
                           ! Normal Mode    34        !
 --------------------------                            --------------------------
 ! Name  Definition              Value          Relative Weight (%)             !
 --------------------------------------------------------------------------------
 ! R5    R(5,6)                  0.0726                  0.9                    !
 ! R6    R(5,7)                 -0.0726                  0.9                    !
 ! R8    R(8,9)                  0.0726                  0.9                    !
 ! R9    R(8,10)                -0.0726                  0.9                    !
 ! A1    A(2,1,3)                0.153                   1.8                    !
 ! A2    A(2,1,4)               -0.153                   1.8                    !
 ! A7    A(1,5,6)               -0.1548                  1.8                    !
 ! A8    A(1,5,7)                0.1548                  1.8                    !
 ! A11   A(6,5,8)               -0.0831                  1.0                    !
 ! A12   A(7,5,8)                0.0831                  1.0                    !
 ! A13   A(5,8,9)               -0.0831                  1.0                    !
 ! A14   A(5,8,10)               0.0831                  1.0                    !
 ! A17   A(9,8,11)              -0.1548                  1.8                    !
 ! A18   A(10,8,11)              0.1548                  1.8                    !
 ! A22   A(12,11,13)             0.153                   1.8                    !
 ! A24   A(13,11,14)            -0.153                   1.8                    !
 ! D1    D(2,1,5,6)              0.413                   4.9                    !
 ! D2    D(2,1,5,7)              0.413                   4.9                    !
 ! D3    D(2,1,5,8)              0.1975                  2.4                    !
 ! D4    D(3,1,5,6)              0.2055                  2.4                    !
 ! D5    D(3,1,5,7)              0.2055                  2.4                    !
 ! D7    D(4,1,5,6)              0.2055                  2.4                    !
 ! D8    D(4,1,5,7)              0.2055                  2.4                    !
 ! D10   D(1,5,8,9)             -0.1861                  2.2                    !
 ! D11   D(1,5,8,10)            -0.1861                  2.2                    !
 ! D12   D(1,5,8,11)             0.0692                  0.8                    !
 ! D13   D(6,5,8,9)             -0.4413                  5.3                    !
 ! D14   D(6,5,8,10)            -0.4413                  5.3                    !
 ! D15   D(6,5,8,11)            -0.1861                  2.2                    !
 ! D16   D(7,5,8,9)             -0.4413                  5.3                    !
 ! D17   D(7,5,8,10)            -0.4413                  5.3                    !
 ! D18   D(7,5,8,11)            -0.1861                  2.2                    !
 ! D20   D(5,8,11,13)            0.1975                  2.4                    !
 ! D22   D(9,8,11,12)            0.2055                  2.4                    !
 ! D23   D(9,8,11,13)            0.413                   4.9                    !
 ! D24   D(9,8,11,14)            0.2055                  2.4                    !
 ! D25   D(10,8,11,12)           0.2055                  2.4                    !
 ! D26   D(10,8,11,13)           0.413                   4.9                    !
 ! D27   D(10,8,11,14)           0.2055                  2.4                    !
 --------------------------------------------------------------------------------
                           ----------------------------
                           ! Normal Mode    35        !
 --------------------------                            --------------------------
 ! Name  Definition              Value          Relative Weight (%)             !
 --------------------------------------------------------------------------------
 ! A7    A(1,5,6)               -0.107                   1.4                    !
 ! A8    A(1,5,7)               -0.107                   1.4                    !
 ! A10   A(6,5,7)                0.5348                  6.8                    !
 ! A11   A(6,5,8)               -0.1326                  1.7                    !
 ! A12   A(7,5,8)               -0.1326                  1.7                    !
 ! A13   A(5,8,9)                0.1326                  1.7                    !
 ! A14   A(5,8,10)               0.1326                  1.7                    !
 ! A16   A(9,8,10)              -0.5348                  6.8                    !
 ! A17   A(9,8,11)               0.107                   1.4                    !
 ! A18   A(10,8,11)              0.107                   1.4                    !
 ! D1    D(2,1,5,6)              0.2616                  3.3                    !
 ! D2    D(2,1,5,7)             -0.2616                  3.3                    !
 ! D4    D(3,1,5,6)              0.2891                  3.7                    !
 ! D5    D(3,1,5,7)             -0.2341                  3.0                    !
 ! D7    D(4,1,5,6)              0.2341                  3.0                    !
 ! D8    D(4,1,5,7)             -0.2891                  3.7                    !
 ! D10   D(1,5,8,9)              0.2459                  3.1                    !
 ! D11   D(1,5,8,10)            -0.2459                  3.1                    !
 ! D14   D(6,5,8,10)            -0.4919                  6.3                    !
 ! D15   D(6,5,8,11)            -0.2459                  3.1                    !
 ! D16   D(7,5,8,9)              0.4919                  6.3                    !
 ! D18   D(7,5,8,11)             0.2459                  3.1                    !
 ! D22   D(9,8,11,12)           -0.2891                  3.7                    !
 ! D23   D(9,8,11,13)           -0.2616                  3.3                    !
 ! D24   D(9,8,11,14)           -0.2341                  3.0                    !
 ! D25   D(10,8,11,12)           0.2341                  3.0                    !
 ! D26   D(10,8,11,13)           0.2616                  3.3                    !
 ! D27   D(10,8,11,14)           0.2891                  3.7                    !
 --------------------------------------------------------------------------------
                           ----------------------------
                           ! Normal Mode    36        !
 --------------------------                            --------------------------
 ! Name  Definition              Value          Relative Weight (%)             !
 --------------------------------------------------------------------------------
 ! R7    R(5,8)                  0.0846                  1.0                    !
 ! A7    A(1,5,6)               -0.1196                  1.5                    !
 ! A8    A(1,5,7)               -0.1196                  1.5                    !
 ! A9    A(1,5,8)               -0.0741                  0.9                    !
 ! A10   A(6,5,7)                0.5416                  6.7                    !
 ! A11   A(6,5,8)               -0.0969                  1.2                    !
 ! A12   A(7,5,8)               -0.0969                  1.2                    !
 ! A13   A(5,8,9)               -0.0969                  1.2                    !
 ! A14   A(5,8,10)              -0.0969                  1.2                    !
 ! A15   A(5,8,11)              -0.0741                  0.9                    !
 ! A16   A(9,8,10)               0.5416                  6.7                    !
 ! A17   A(9,8,11)              -0.1196                  1.5                    !
 ! A18   A(10,8,11)             -0.1196                  1.5                    !
 ! D1    D(2,1,5,6)              0.2584                  3.2                    !
 ! D2    D(2,1,5,7)             -0.2584                  3.2                    !
 ! D4    D(3,1,5,6)              0.2872                  3.5                    !
 ! D5    D(3,1,5,7)             -0.2295                  2.8                    !
 ! D7    D(4,1,5,6)              0.2295                  2.8                    !
 ! D8    D(4,1,5,7)             -0.2872                  3.5                    !
 ! D10   D(1,5,8,9)             -0.2698                  3.3                    !
 ! D11   D(1,5,8,10)             0.2698                  3.3                    !
 ! D13   D(6,5,8,9)             -0.5396                  6.6                    !
 ! D15   D(6,5,8,11)            -0.2698                  3.3                    !
 ! D17   D(7,5,8,10)             0.5396                  6.6                    !
 ! D18   D(7,5,8,11)             0.2698                  3.3                    !
 ! D22   D(9,8,11,12)            0.2872                  3.5                    !
 ! D23   D(9,8,11,13)            0.2584                  3.2                    !
 ! D24   D(9,8,11,14)            0.2295                  2.8                    !
 ! D25   D(10,8,11,12)          -0.2295                  2.8                    !
 ! D26   D(10,8,11,13)          -0.2584                  3.2                    !
 ! D27   D(10,8,11,14)          -0.2872                  3.5                    !
 --------------------------------------------------------------------------------
 Max01P=     39 Av01P=   23.47 Stan. Dev.=    9.45
 Max05P=     12 Av05P=    4.56 Stan. Dev.=    3.05
 Max10P=      6 Av10P=    1.25 Stan. Dev.=    1.84
 MaxNDP=     94 AvNDP=   61.39 Stan. Dev.=   17.83
 -------------------------------------------------------------------
 Center     Atomic                   Forces (Hartrees/Bohr)
 Number     Number              X              Y              Z
 -------------------------------------------------------------------
      1        6           0.000095775    0.000039768   -0.000000000
      2        1          -0.000013470   -0.000024400    0.000000000
      3        1          -0.000012222   -0.000007623   -0.000012305
      4        1          -0.000012222   -0.000007623    0.000012305
      5        6          -0.000273938   -0.000267764   -0.000000000
      6        1           0.000087498    0.000083804   -0.000086680
      7        1           0.000087498    0.000083804    0.000086680
      8        6           0.000273938    0.000267764   -0.000000000
      9        1          -0.000087498   -0.000083804   -0.000086680
     10        1          -0.000087498   -0.000083804    0.000086680
     11        6          -0.000095775   -0.000039768   -0.000000000
     12        1           0.000012222    0.000007623   -0.000012305
     13        1           0.000013470    0.000024400    0.000000000
     14        1           0.000012222    0.000007623    0.000012305
 -------------------------------------------------------------------
 Cartesian Forces:  Max     0.000273938 RMS     0.000098410
 FormGI is forming the generalized inverse of G from B-inverse, IUseBI=4.
 Leave Link  716 at Fri Aug 14 10:43:55 2026, MaxMem=   134217728 cpu:               0.1 elap:               0.0
 (Enter /home/emanuele/chem_software/gaussian//gdv/l103.exe)

 GradGradGradGradGradGradGradGradGradGradGradGradGradGradGradGradGradGrad
 Berny optimization.
 Internal  Forces:  Max     0.000097182 RMS     0.000032354
 Search for a local minimum.
 Step number   1 out of a maximum of    2
 All quantities printed in internal units (Hartrees-Bohrs-Radians)
 Second derivative matrix not updated -- analytic derivatives used.
 ITU=  0
     Eigenvalues ---    0.00089   0.00089   0.00089   0.00089   0.00089
     Eigenvalues ---    0.00089   0.00089   0.00089   0.00089   0.00089
     Eigenvalues ---    0.00089   0.00089   0.00089   0.00158   0.00159
     Eigenvalues ---    0.00159   0.00193   0.00193   0.00202   0.00203
     Eigenvalues ---    0.00210   0.00210   0.00211   0.00211   0.00239
     Eigenvalues ---    0.00239   0.00280   0.00280   0.00315   0.00315
     Eigenvalues ---    0.00317   0.00317   0.00319   0.00319   0.00320
     Eigenvalues ---    0.00320
 Angle between quadratic step and forces=   6.59 degrees.
 Linear search not attempted -- first point.
 Iteration  1 RMS(Cart)=  0.01329061 RMS(Int)=  0.00014898
 Iteration  2 RMS(Cart)=  0.00022916 RMS(Int)=  0.00009495
 Iteration  3 RMS(Cart)=  0.00000001 RMS(Int)=  0.00009495
 ITry= 1 IFail=0 DXMaxC= 3.25D-02 DCOld= 1.00D+10 DXMaxT= 3.00D-01 DXLimC= 3.00D+00 Rises=F
 Variable       Old X    -DE/DX   Delta X   Delta X   Delta X     New X
                                 (Linear)    (Quad)   (Total)
    R1        2.06338   0.00000   0.00000   0.00398   0.00398   2.06736
    R2        2.06571   0.00000   0.00000   0.00165   0.00165   2.06736
    R3        2.06571   0.00000   0.00000   0.00165   0.00165   2.06736
    R4        2.88737   0.00000   0.00000   0.00014   0.00014   2.88750
    R5        2.06966  -0.00000   0.00000  -0.00230  -0.00230   2.06736
    R6        2.06966  -0.00000   0.00000  -0.00230  -0.00230   2.06736
    R7        2.88782  -0.00000   0.00000  -0.00032  -0.00032   2.88750
    R8        2.06966  -0.00000   0.00000  -0.00230  -0.00230   2.06736
    R9        2.06966  -0.00000   0.00000  -0.00230  -0.00230   2.06736
   R10        2.88737   0.00000   0.00000   0.00014   0.00014   2.88750
   R11        2.06571   0.00000   0.00000   0.00165   0.00165   2.06736
   R12        2.06338   0.00000   0.00000   0.00398   0.00398   2.06736
   R13        2.06571   0.00000   0.00000   0.00165   0.00165   2.06736
    A1        1.88395   0.00001   0.00000   0.00365   0.00363   1.88758
    A2        1.88395   0.00001   0.00000   0.00365   0.00363   1.88758
    A3        1.94734  -0.00004   0.00000  -0.01416  -0.01419   1.93315
    A4        1.88007   0.00002   0.00000   0.00753   0.00753   1.88760
    A5        1.93306  -0.00000   0.00000   0.00011   0.00009   1.93316
    A6        1.93306  -0.00000   0.00000   0.00011   0.00009   1.93316
    A7        1.91501  -0.00001   0.00000  -0.00732  -0.00740   1.90761
    A8        1.91501  -0.00001   0.00000  -0.00732  -0.00740   1.90761
    A9        1.96311  -0.00006   0.00000  -0.02470  -0.02494   1.93817
   A10        1.85880   0.00007   0.00000   0.03625   0.03621   1.89502
   A11        1.90446   0.00001   0.00000   0.00328   0.00299   1.90746
   A12        1.90446   0.00001   0.00000   0.00328   0.00299   1.90746
   A13        1.90446   0.00001   0.00000   0.00328   0.00299   1.90746
   A14        1.90446   0.00001   0.00000   0.00328   0.00299   1.90746
   A15        1.96311  -0.00006   0.00000  -0.02470  -0.02494   1.93817
   A16        1.85880   0.00007   0.00000   0.03625   0.03621   1.89502
   A17        1.91501  -0.00001   0.00000  -0.00732  -0.00740   1.90761
   A18        1.91501  -0.00001   0.00000  -0.00732  -0.00740   1.90761
   A19        1.93306  -0.00000   0.00000   0.00011   0.00009   1.93316
   A20        1.94734  -0.00004   0.00000  -0.01416  -0.01419   1.93315
   A21        1.93306  -0.00000   0.00000   0.00011   0.00009   1.93316
   A22        1.88395   0.00001   0.00000   0.00365   0.00363   1.88758
   A23        1.88007   0.00002   0.00000   0.00753   0.00753   1.88760
   A24        1.88395   0.00001   0.00000   0.00365   0.00363   1.88758
    D1        1.01825   0.00003   0.00000   0.01769   0.01761   1.03586
    D2       -1.01825  -0.00003   0.00000  -0.01769  -0.01761  -1.03586
    D3        3.14159   0.00000   0.00000   0.00000   0.00000   3.14159
    D4       -1.08091   0.00004   0.00000   0.02247   0.02238  -1.05852
    D5       -3.11741  -0.00002   0.00000  -0.01291  -0.01283  -3.13025
    D6        1.04243   0.00001   0.00000   0.00478   0.00478   1.04721
    D7        3.11741   0.00002   0.00000   0.01291   0.01283   3.13025
    D8        1.08091  -0.00004   0.00000  -0.02247  -0.02238   1.05852
    D9       -1.04243  -0.00001   0.00000  -0.00478  -0.00478  -1.04721
   D10       -1.01226  -0.00005   0.00000  -0.02348  -0.02351  -1.03577
   D11        1.01226   0.00005   0.00000   0.02348   0.02351   1.03577
   D12        3.14159  -0.00000   0.00000   0.00000   0.00000   3.14159
   D13        1.11707  -0.00010   0.00000  -0.04695  -0.04701   1.07005
   D14        3.14159   0.00000   0.00000   0.00000   0.00000   3.14159
   D15       -1.01226  -0.00005   0.00000  -0.02348  -0.02351  -1.03577
   D16        3.14159   0.00000   0.00000   0.00000   0.00000   3.14159
   D17       -1.11707   0.00010   0.00000   0.04695   0.04701  -1.07005
   D18        1.01226   0.00005   0.00000   0.02348   0.02351   1.03577
   D19        1.04243   0.00001   0.00000   0.00478   0.00478   1.04721
   D20        3.14159   0.00000   0.00000   0.00000   0.00000   3.14159
   D21       -1.04243  -0.00001   0.00000  -0.00478  -0.00478  -1.04721
   D22       -1.08091   0.00004   0.00000   0.02247   0.02238  -1.05852
   D23        1.01825   0.00003   0.00000   0.01769   0.01761   1.03586
   D24        3.11741   0.00002   0.00000   0.01291   0.01283   3.13025
   D25       -3.11741  -0.00002   0.00000  -0.01291  -0.01283  -3.13025
   D26       -1.01825  -0.00003   0.00000  -0.01769  -0.01761  -1.03586
   D27        1.08091  -0.00004   0.00000  -0.02247  -0.02238   1.05852
         Item               Value     Threshold  Converged?
 Maximum Force            0.000097     0.000450     YES
 RMS     Force            0.000032     0.000300     YES
 Maximum Displacement     0.032475     0.001800     NO 
 RMS     Displacement     0.013434     0.001200     NO 
 Predicted change in Energy=-1.594398D-05
                           ----------------------------
                           ! Non-Optimized Parameters !
                           ! (Angstroms and Degrees)  !
 --------------------------                            --------------------------
 ! Name  Definition              Value          Derivative Info.                !
 --------------------------------------------------------------------------------
 ! R1    R(1,2)                  1.094          -DE/DX =    0.0                 !
 ! R2    R(1,3)                  1.094          -DE/DX =    0.0                 !
 ! R3    R(1,4)                  1.094          -DE/DX =    0.0                 !
 ! R4    R(1,5)                  1.528          -DE/DX =    0.0                 !
 ! R5    R(5,6)                  1.094          -DE/DX =    0.0                 !
 ! R6    R(5,7)                  1.094          -DE/DX =    0.0                 !
 ! R7    R(5,8)                  1.528          -DE/DX =    0.0                 !
 ! R8    R(8,9)                  1.094          -DE/DX =    0.0                 !
 ! R9    R(8,10)                 1.094          -DE/DX =    0.0                 !
 ! R10   R(8,11)                 1.528          -DE/DX =    0.0                 !
 ! R11   R(11,12)                1.094          -DE/DX =    0.0                 !
 ! R12   R(11,13)                1.094          -DE/DX =    0.0                 !
 ! R13   R(11,14)                1.094          -DE/DX =    0.0                 !
 ! A1    A(2,1,3)              108.1501         -DE/DX =    0.0                 !
 ! A2    A(2,1,4)              108.1501         -DE/DX =    0.0                 !
 ! A3    A(2,1,5)              110.7615         -DE/DX =    0.0                 !
 ! A4    A(3,1,4)              108.1515         -DE/DX =    0.0                 !
 ! A5    A(3,1,5)              110.7616         -DE/DX =    0.0                 !
 ! A6    A(4,1,5)              110.7616         -DE/DX =    0.0                 !
 ! A7    A(1,5,6)              109.2981         -DE/DX =    0.0                 !
 ! A8    A(1,5,7)              109.2981         -DE/DX =    0.0                 !
 ! A9    A(1,5,8)              111.0491         -DE/DX =   -0.0001              !
 ! A10   A(6,5,7)              108.5764         -DE/DX =    0.0001              !
 ! A11   A(6,5,8)              109.2892         -DE/DX =    0.0                 !
 ! A12   A(7,5,8)              109.2892         -DE/DX =    0.0                 !
 ! A13   A(5,8,9)              109.2892         -DE/DX =    0.0                 !
 ! A14   A(5,8,10)             109.2892         -DE/DX =    0.0                 !
 ! A15   A(5,8,11)             111.0491         -DE/DX =   -0.0001              !
 ! A16   A(9,8,10)             108.5764         -DE/DX =    0.0001              !
 ! A17   A(9,8,11)             109.2981         -DE/DX =    0.0                 !
 ! A18   A(10,8,11)            109.2981         -DE/DX =    0.0                 !
 ! A19   A(8,11,12)            110.7616         -DE/DX =    0.0                 !
 ! A20   A(8,11,13)            110.7615         -DE/DX =    0.0                 !
 ! A21   A(8,11,14)            110.7616         -DE/DX =    0.0                 !
 ! A22   A(12,11,13)           108.1501         -DE/DX =    0.0                 !
 ! A23   A(12,11,14)           108.1515         -DE/DX =    0.0                 !
 ! A24   A(13,11,14)           108.1501         -DE/DX =    0.0                 !
 ! D1    D(2,1,5,6)             59.3505         -DE/DX =    0.0                 !
 ! D2    D(2,1,5,7)            -59.3505         -DE/DX =    0.0                 !
 ! D3    D(2,1,5,8)            180.0            -DE/DX =    0.0                 !
 ! D4    D(3,1,5,6)            -60.6489         -DE/DX =    0.0                 !
 ! D5    D(3,1,5,7)           -179.3499         -DE/DX =    0.0                 !
 ! D6    D(3,1,5,8)             60.0006         -DE/DX =    0.0                 !
 ! D7    D(4,1,5,6)            179.3499         -DE/DX =    0.0                 !
 ! D8    D(4,1,5,7)             60.6489         -DE/DX =    0.0                 !
 ! D9    D(4,1,5,8)            -60.0006         -DE/DX =    0.0                 !
 ! D10   D(1,5,8,9)            -59.3453         -DE/DX =    0.0                 !
 ! D11   D(1,5,8,10)            59.3453         -DE/DX =    0.0                 !
 ! D12   D(1,5,8,11)           180.0            -DE/DX =    0.0                 !
 ! D13   D(6,5,8,9)             61.3095         -DE/DX =   -0.0001              !
 ! D14   D(6,5,8,10)           180.0            -DE/DX =    0.0                 !
 ! D15   D(6,5,8,11)           -59.3453         -DE/DX =    0.0                 !
 ! D16   D(7,5,8,9)            180.0            -DE/DX =    0.0                 !
 ! D17   D(7,5,8,10)           -61.3095         -DE/DX =    0.0001              !
 ! D18   D(7,5,8,11)            59.3453         -DE/DX =    0.0                 !
 ! D19   D(5,8,11,12)           60.0006         -DE/DX =    0.0                 !
 ! D20   D(5,8,11,13)          180.0            -DE/DX =    0.0                 !
 ! D21   D(5,8,11,14)          -60.0006         -DE/DX =    0.0                 !
 ! D22   D(9,8,11,12)          -60.6489         -DE/DX =    0.0                 !
 ! D23   D(9,8,11,13)           59.3505         -DE/DX =    0.0                 !
 ! D24   D(9,8,11,14)          179.3499         -DE/DX =    0.0                 !
 ! D25   D(10,8,11,12)        -179.3499         -DE/DX =    0.0                 !
 ! D26   D(10,8,11,13)         -59.3505         -DE/DX =    0.0                 !
 ! D27   D(10,8,11,14)          60.6489         -DE/DX =    0.0                 !
 --------------------------------------------------------------------------------
 GradGradGradGradGradGradGradGradGradGradGradGradGradGradGradGradGradGrad

 Leave Link  103 at Fri Aug 14 10:43:55 2026, MaxMem=   134217728 cpu:               0.0 elap:               0.0
 (Enter /home/emanuele/chem_software/gaussian//gdv/l9999.exe)
 Unable to Open any file for archive entry.
 1\1\GINC-EMANUELE-XPS-13-9343\Freq\AMBER\ZDO\C4H10\EMANUELE\14-Aug-202
 6\0\\#p Amber=(SoftOnly,Print) nosymm Freq=intmodes\\Title\\0,1\C,-0.7
 06035,1.820058,0.\H,-1.72143,2.221559,0.\H,-0.190734,2.207457,-0.88278
 6\H,-0.190734,2.207457,0.882786\C,-0.706035,0.29213,0.\H,-1.247145,-0.
 077461,-0.877558\H,-1.247145,-0.077461,0.877558\C,0.706035,-0.29213,0.
 \H,1.247145,0.077461,-0.877558\H,1.247145,0.077461,0.877558\C,0.706035
 ,-1.820058,0.\H,0.190734,-2.207457,-0.882786\H,1.72143,-2.221559,0.\H,
 0.190734,-2.207457,0.882786\\Version=ES64L-GDVRevJ.14\HF=0.0000264\RMS
 D=0.000e+00\RMSF=9.841e-05\ZeroPoint=0.0152546\Thermal=0.0394973\ETot=
 0.0395237\HTot=0.0404678\GTot=-0.0322467\Dipole=0.,0.,0.\PG=C02H [SGH(
 C4H2),X(H8)]\NImag=0\\0.00794928,0.00002158,0.00532828,0.,0.,0.0087177
 8,-0.00089403,-0.00024508,0.,0.00093821,0.00000954,-0.00147843,0.,0.00
 010217,0.00111702,0.,0.,-0.00300703,0.,0.,0.00236378,-0.00245807,0.000
 12213,-0.00092660,-0.00012044,-0.00030460,0.00052262,0.00198478,-0.000
 00554,-0.00147867,0.00002517,0.00007145,0.00018071,-0.00032055,-0.0000
 5278,0.00112375,-0.00092402,-0.00019082,-0.00142900,-0.00003895,-0.000
 09850,0.00016439,0.00062216,0.00007555,0.00129550,-0.00245807,0.000122
 13,0.00092660,-0.00012044,-0.00030460,-0.00052262,0.00031027,0.0002352
 5,0.00028435,0.00198478,-0.00000554,-0.00147867,-0.00002517,0.00007145
 ,0.00018071,0.00032055,0.00023525,0.00017421,0.00021377,-0.00005278,0.
 00112375,0.00092402,0.00019082,-0.00142900,0.00003895,0.00009850,0.000
 16439,-0.00028435,-0.00021377,-0.00025979,-0.00062216,-0.00007555,0.00
 129550,-0.00281209,-0.00002076,0.,0.00019671,0.00049749,0.,0.00028269,
 -0.00024838,0.00005601,0.00028269,-0.00024838,-0.00005601,0.00829088,0
 .00011195,-0.00089251,0.,0.,0.,0.,0.,0.,0.,0.,0.,0.,0.00098653,0.00737
 125,0.,0.,-0.00380213,0.,0.,0.00044901,-0.00004926,0.00043360,0.000161
 53,0.00004926,-0.00043360,0.00016153,0.,0.,0.01057310,0.00026342,0.,-0
 .00006353,0.,0.,0.00036148,-0.00030970,0.,-0.00018078,0.00031047,0.,-0
 .00018123,-0.00260271,-0.00032974,0.00107353,0.00205668,-0.00024260,0.
 ,-0.00044024,0.,0.,0.,0.,0.,0.,0.,0.,0.,-0.00032921,-0.00230786,0.0007
 2960,0.00023050,0.00184362,-0.00006025,0.,0.00022458,0.,0.,-0.00022289
 ,0.00019096,0.,0.00011147,-0.00019144,0.,0.00011175,0.00124532,0.00084
 952,-0.00191499,-0.00086707,-0.00059281,0.00173008,0.00026342,0.,0.000
 06353,0.,0.,-0.00036148,0.00031047,0.,0.00018123,-0.00030970,0.,0.0001
 8078,-0.00260271,-0.00032974,-0.00107353,0.00033016,0.00021602,-0.0002
 9456,0.00205668,-0.00024260,0.,0.00044024,0.,0.,0.,0.,0.,0.,0.,0.,0.,-
 0.00032921,-0.00230786,-0.00072960,0.00021602,0.00016143,-0.00020119,0
 .00023050,0.00184362,0.00006025,0.,0.00022458,0.,0.,-0.00022289,0.0001
 9144,0.,0.00011175,-0.00019096,0.,0.00011147,-0.00124532,-0.00084952,-
 0.00191499,0.00029456,0.00020119,-0.00026636,0.00086707,0.00059281,0.0
 0173008,0.00014614,0.,0.,0.,0.,0.,0.,0.,0.,0.,0.,0.,-0.00108305,-0.000
 55401,0.,-0.00004928,0.00012297,-0.00002141,-0.00004928,0.00012297,0.0
 0002141,0.00829088,0.00035320,0.,0.,0.,0.,0.,0.,0.,0.,0.,0.,0.,-0.0005
 5401,-0.00245742,0.,-0.00011910,0.00029720,-0.00005173,-0.00011910,0.0
 0029720,0.00005173,0.00098653,0.00737125,0.,0.,0.00059829,0.,0.,0.0003
 1124,-0.00026698,0.,-0.00015584,0.00026698,0.,-0.00015584,0.,0.,-0.004
 62257,-0.00039382,0.00020656,0.00015584,0.00039382,-0.00020656,0.00015
 584,0.,0.,0.01057310,0.,0.,-0.00009849,0.,0.,0.,0.,0.,0.,0.,0.,0.,-0.0
 0004928,-0.00011910,0.00039382,-0.00004285,-0.00010356,0.00007004,0.00
 004381,0.00010588,0.00007160,-0.00260271,-0.00032974,-0.00107353,0.002
 05668,0.,0.,-0.00023803,0.,0.,0.,0.,0.,0.,0.,0.,0.,0.00012297,0.000297
 20,-0.00020656,-0.00010356,-0.00025029,0.00016927,0.00010588,0.0002558
 9,0.00017305,-0.00032921,-0.00230786,-0.00072960,0.00023050,0.00184362
 ,0.,0.,-0.00016098,0.,0.,0.,0.,0.,0.,0.,0.,0.,0.00002141,0.00005173,0.
 00015584,-0.00007004,-0.00016927,0.00011447,0.00007160,0.00017305,0.00
 011703,-0.00124532,-0.00084952,-0.00191499,0.00086707,0.00059281,0.001
 73008,0.,0.,0.00009849,0.,0.,0.,0.,0.,0.,0.,0.,0.,-0.00004928,-0.00011
 910,-0.00039382,0.00004381,0.00010588,-0.00007160,-0.00004285,-0.00010
 356,-0.00007004,-0.00260271,-0.00032974,0.00107353,0.00033016,0.000216
 02,0.00029456,0.00205668,0.,0.,0.00023803,0.,0.,0.,0.,0.,0.,0.,0.,0.,0
 .00012297,0.00029720,0.00020656,0.00010588,0.00025589,-0.00017305,-0.0
 0010356,-0.00025029,-0.00016927,-0.00032921,-0.00230786,0.00072960,0.0
 0021602,0.00016143,0.00020119,0.00023050,0.00184362,0.,0.,-0.00016098,
 0.,0.,0.,0.,0.,0.,0.,0.,0.,-0.00002141,-0.00005173,0.00015584,-0.00007
 160,-0.00017305,0.00011703,0.00007004,0.00016927,0.00011447,0.00124532
 ,0.00084952,-0.00191499,-0.00029456,-0.00020119,-0.00026636,-0.0008670
 7,-0.00059281,0.00173008,0.,0.,0.,0.,0.,0.,0.,0.,0.,0.,0.,0.,0.0001461
 4,0.00035320,0.,0.,0.,0.,0.,0.,0.,-0.00281209,0.00011195,0.,0.00026342
 ,-0.00024260,0.00006025,0.00026342,-0.00024260,-0.00006025,0.00794928,
 0.,0.,0.,0.,0.,0.,0.,0.,0.,0.,0.,0.,0.,0.,0.,0.,0.,0.,0.,0.,0.,-0.0000
 2076,-0.00089251,0.,0.,0.,0.,0.,0.,0.,0.00002158,0.00532828,0.,0.,0.00
 022388,0.,0.,0.,0.,0.,0.,0.,0.,0.,0.,0.,0.00059829,0.00009849,0.000238
 03,-0.00016098,-0.00009849,-0.00023803,-0.00016098,0.,0.,-0.00380213,0
 .00006353,0.00044024,0.00022458,-0.00006353,-0.00044024,0.00022458,0.,
 0.,0.00871778,0.,0.,0.,0.,0.,0.,0.,0.,0.,0.,0.,0.,0.,0.,0.00026698,0.,
 0.,0.,0.,0.,0.,0.00028269,0.,0.00004926,-0.00030970,0.,-0.00019096,0.0
 0031047,0.,-0.00019144,-0.00245807,0.00012213,0.00092660,0.00198478,0.
 ,0.,0.,0.,0.,0.,0.,0.,0.,0.,0.,0.,0.,0.,0.,0.,0.,0.,0.,0.,0.,-0.000248
 38,0.,-0.00043360,0.,0.,0.,0.,0.,0.,-0.00000554,-0.00147867,-0.0000251
 7,-0.00005278,0.00112375,0.,0.,0.,0.,0.,0.,0.,0.,0.,0.,0.,0.,0.,0.,-0.
 00015584,0.,0.,0.,0.,0.,0.,-0.00005601,0.,0.00016153,0.00018078,0.,0.0
 0011147,-0.00018123,0.,0.00011175,0.00092402,0.00019082,-0.00142900,-0
 .00062216,-0.00007555,0.00129550,0.,0.,0.,0.,0.,0.,0.,0.,0.,0.,0.,0.,0
 .,0.,0.,0.,0.,0.,0.,0.,0.,0.00019671,0.,0.,0.,0.,0.,0.,0.,0.,-0.000894
 03,-0.00024508,0.,-0.00012044,0.00007145,0.00003895,0.00093821,0.,0.,0
 .,0.,0.,0.,0.,0.,0.,0.,0.,0.,0.,0.,0.,0.,0.,0.,0.,0.,0.,0.00049749,0.,
 0.,0.,0.,0.,0.,0.,0.,0.00000954,-0.00147843,0.,-0.00030460,0.00018071,
 0.00009850,0.00010217,0.00111702,0.,0.,0.,0.,0.,0.,0.,0.,0.,0.,0.,0.,0
 .,0.,0.00031124,0.,0.,0.,0.,0.,0.,0.,0.,0.00044901,-0.00036148,0.,-0.0
 0022289,0.00036148,0.,-0.00022289,0.,0.,-0.00300703,-0.00052262,0.0003
 2055,0.00016439,0.,0.,0.00236378,0.,0.,0.,0.,0.,0.,0.,0.,0.,0.,0.,0.,0
 .,0.,-0.00026698,0.,0.,0.,0.,0.,0.,0.00028269,0.,-0.00004926,0.0003104
 7,0.,0.00019144,-0.00030970,0.,0.00019096,-0.00245807,0.00012213,-0.00
 092660,0.00031027,0.00023525,-0.00028435,-0.00012044,-0.00030460,0.000
 52262,0.00198478,0.,0.,0.,0.,0.,0.,0.,0.,0.,0.,0.,0.,0.,0.,0.,0.,0.,0.
 ,0.,0.,0.,-0.00024838,0.,0.00043360,0.,0.,0.,0.,0.,0.,-0.00000554,-0.0
 0147867,0.00002517,0.00023525,0.00017421,-0.00021377,0.00007145,0.0001
 8071,-0.00032055,-0.00005278,0.00112375,0.,0.,0.,0.,0.,0.,0.,0.,0.,0.,
 0.,0.,0.,0.,-0.00015584,0.,0.,0.,0.,0.,0.,0.00005601,0.,0.00016153,0.0
 0018123,0.,0.00011175,-0.00018078,0.,0.00011147,-0.00092402,-0.0001908
 2,-0.00142900,0.00028435,0.00021377,-0.00025979,-0.00003895,-0.0000985
 0,0.00016439,0.00062216,0.00007555,0.00129550\\-0.00009577,-0.00003977
 ,0.,0.00001347,0.00002440,0.,0.00001222,0.00000762,0.00001230,0.000012
 22,0.00000762,-0.00001230,0.00027394,0.00026776,0.,-0.00008750,-0.0000
 8380,0.00008668,-0.00008750,-0.00008380,-0.00008668,-0.00027394,-0.000
 26776,0.,0.00008750,0.00008380,0.00008668,0.00008750,0.00008380,-0.000
 08668,0.00009577,0.00003977,0.,-0.00001222,-0.00000762,0.00001230,-0.0
 0001347,-0.00002440,0.,-0.00001222,-0.00000762,-0.00001230\\\@
 The archive entry for this job was punched.


 "I COULD HAVE DONE IT IN A MUCH MORE COMPLICATED WAY"
 SAID THE RED QUEEN, IMMENSELY PROUD.

                                      -- LEWIS CARROLL
 Job cpu time:       0 days  0 hours  0 minutes  0.6 seconds.
 Elapsed time:       0 days  0 hours  0 minutes  0.6 seconds.
 File lengths (MBytes):  RWF=      6 Int=      0 D2E=      0 Chk=      1 Scr=      1
 Normal termination of Gaussian DV at Fri Aug 14 10:43:55 2026.
