%mem=1GB
%nprocshared=1
%chk=GauNonBon.chk
#p Amber=(SoftOnly,Print) nosymm Freq=intmodes
 
Title

0 1
C-C0--0.267532  1.956897  -0.120392  0.000000
H-H1-+0.083821  2.742005  0.637259  -0.000000
H-H2-+0.077363  2.103753  -0.749379  -0.880760
H-H3-+0.077360  2.103753  -0.749379  0.880760
C-C4--0.092257  0.566957  0.512915  -0.000000
H-H5-+0.060623  0.461751  1.163403  -0.874026
H-H6-+0.060622  0.461751  1.163404  0.874026
C-C7--0.092258  -0.566957  -0.512915  -0.000000
H-H8-+0.060627  -0.461751  -1.163403  -0.874026
H-H9-+0.060618  -0.461751  -1.163404  0.874026
C-C10--0.267532  -1.956897  0.120392  0.000000
H-H11-+0.077330  -2.103753  0.749379  -0.880760
H-H12-+0.083821  -2.742005  -0.637259  0.000000
H-H13-+0.077394  -2.103753  0.749379  0.880760

! Master function
NonBon 3 1 0 0 0.000 0.000 0.500 0.000 0.000 -1.2
! SMARTFIELD FF
!Bonds
HrmStr1 C0 C4  0.0 1.527
HrmStr1 C0 H1  0.0 1.091
HrmStr1 C0 H2  0.0 1.092
HrmStr1 C0 H3  0.0 1.092
HrmStr1 C10 H11  0.0 1.092
HrmStr1 C10 H12  0.0 1.091
HrmStr1 C10 H13  0.0 1.092
HrmStr1 C4 C7  0.0 1.529
HrmStr1 C4 H5  0.0 1.095
HrmStr1 C4 H6  0.0 1.095
HrmStr1 C7 C10  0.0 1.527
HrmStr1 C7 H8  0.0 1.095
HrmStr1 C7 H9  0.0 1.095
!Angles
HrmBnd1 C0 C4 C7  0.0 1.000
HrmBnd1 C0 C4 H5  0.0 1.000
HrmBnd1 C0 C4 H6  0.0 1.000
HrmBnd1 C4 C7 C10  0.0 1.000
HrmBnd1 C4 C7 H8  0.0 1.000
HrmBnd1 C4 C7 H9  0.0 1.000
HrmBnd1 C7 C10 H11  0.0 1.000
HrmBnd1 C7 C10 H12  0.0 1.000
HrmBnd1 C7 C10 H13  0.0 1.000
HrmBnd1 H1 C0 C4  0.0 1.000
HrmBnd1 H1 C0 H2  0.0 1.000
HrmBnd1 H1 C0 H3  0.0 1.000
HrmBnd1 H11 C10 H12  0.0 1.000
HrmBnd1 H11 C10 H13  0.0 1.000
HrmBnd1 H12 C10 H13  0.0 1.000
HrmBnd1 H2 C0 C4  0.0 1.000
HrmBnd1 H2 C0 H3  0.0 1.000
HrmBnd1 H3 C0 C4  0.0 1.000
HrmBnd1 H5 C4 C7  0.0 1.000
HrmBnd1 H5 C4 H6  0.0 1.000
HrmBnd1 H6 C4 C7  0.0 1.000
HrmBnd1 H8 C7 C10  0.0 1.000
HrmBnd1 H8 C7 H9  0.0 1.000
HrmBnd1 H9 C7 C10  0.0 1.000
!Torsions
AmbTrs C0 C4 C7 C10 0 0 0 0  0. 0. 0. 0. 9.0
AmbTrs C0 C4 C7 H8 0 0 0 0  0. 0. 0. 0. 9.0
AmbTrs C0 C4 C7 H9 0 0 0 0  0. 0. 0. 0. 9.0
AmbTrs C4 C7 C10 H11 0 0 0 0  0. 0. 0. 0. 9.0
AmbTrs C4 C7 C10 H12 0 0 0 0  0. 0. 0. 0. 9.0
AmbTrs C4 C7 C10 H13 0 0 0 0  0. 0. 0. 0. 9.0
AmbTrs H1 C0 C4 C7 0 0 0 0  0. 0. 0. 0. 9.0
AmbTrs H1 C0 C4 H5 0 0 0 0  0. 0. 0. 0. 9.0
AmbTrs H1 C0 C4 H6 0 0 0 0  0. 0. 0. 0. 9.0
AmbTrs H2 C0 C4 C7 0 0 0 0  0. 0. 0. 0. 9.0
AmbTrs H2 C0 C4 H5 0 0 0 0  0. 0. 0. 0. 9.0
AmbTrs H2 C0 C4 H6 0 0 0 0  0. 0. 0. 0. 9.0
AmbTrs H3 C0 C4 C7 0 0 0 0  0. 0. 0. 0. 9.0
AmbTrs H3 C0 C4 H5 0 0 0 0  0. 0. 0. 0. 9.0
AmbTrs H3 C0 C4 H6 0 0 0 0  0. 0. 0. 0. 9.0
AmbTrs H5 C4 C7 C10 0 0 0 0  0. 0. 0. 0. 9.0
AmbTrs H5 C4 C7 H8 0 0 0 0  0. 0. 0. 0. 9.0
AmbTrs H5 C4 C7 H9 0 0 0 0  0. 0. 0. 0. 9.0
AmbTrs H6 C4 C7 C10 0 0 0 0  0. 0. 0. 0. 9.0
AmbTrs H6 C4 C7 H8 0 0 0 0  0. 0. 0. 0. 9.0
AmbTrs H6 C4 C7 H9 0 0 0 0  0. 0. 0. 0. 9.0
AmbTrs H8 C7 C10 H11 0 0 0 0  0. 0. 0. 0. 9.0
AmbTrs H8 C7 C10 H12 0 0 0 0  0. 0. 0. 0. 9.0
AmbTrs H8 C7 C10 H13 0 0 0 0  0. 0. 0. 0. 9.0
AmbTrs H9 C7 C10 H11 0 0 0 0  0. 0. 0. 0. 9.0
AmbTrs H9 C7 C10 H12 0 0 0 0  0. 0. 0. 0. 9.0
AmbTrs H9 C7 C10 H13 0 0 0 0  0. 0. 0. 0. 9.0
!VDW
VDW H1 1.3870 0.0157
VDW H2 1.2870 0.0157
VDW H3 1.1870 0.0157
VDW H5 1.3590 0.0150

