%mem=1GB
%nprocshared=1
%chk=GauNonBon.chk
#p Amber=(SoftOnly,Print) nosymm Freq=intmodes
 
Title

0 1
C-c3--0.768379  -0.706035  1.820058  0.000000
H-h3-+0.209939  -1.721430  2.221559  0.000000
H-h3-+0.210941  -0.190734  2.207457  -0.882786
H-h3-+0.210941  -0.190734  2.207457  0.882786
C-c3--0.277892  -0.706035  0.292130  0.000000
H-h3-+0.207224  -1.247145  -0.077461  -0.877558
H-h3-+0.207224  -1.247145  -0.077461  0.877558
C-c3--0.277892  0.706035  -0.292130  0.000000
H-h3-+0.207224  1.247145  0.077461  -0.877558
H-h3-+0.207224  1.247145  0.077461  0.877558
C-c3--0.768379  0.706035  -1.820058  0.000000
H-h3-+0.210941  0.190734  -2.207457  -0.882786
H-h3-+0.209939  1.721430  -2.221559  0.000000
H-h3-+0.210941  0.190734  -2.207457  0.882786

! Master function
NonBon 3 1 0 0 0.000 0.000 0.500 0.000 0.000 -1.2
! SMARTFIELD FF
!Bonds
HrmStr1 c3 c3  0.0 1.528
HrmStr1 c3 h3  0.0 1.094
!Angles
HrmBnd1 c3 c3 c3  0.0 112.478
HrmBnd1 c3 c3 h3  0.0 110.110
HrmBnd1 h3 c3 h3  0.0 107.527
!Torsions
AmbTrs c3 c3 c3 c3 0 0 0 0  0. 0. 0. 0. 9.0
AmbTrs c3 c3 c3 h3 0 0 0 0  0. 0. 0. 0. 9.0
AmbTrs h3 c3 c3 h3 0 0 0 0  0. 0. 0. 0. 9.0
!VDW
VDW c3 1.9080 0.1094
VDW h3 1.4870 0.0157

