 Entering Gaussian System, Link 0=/home/emanuele/chem_software/gaussian/g09/g09
 Input=GauNonBon.gjf
 Output=GauNonBon.log
 Initial command:
 /home/emanuele/chem_software/gaussian//gdv/l1.exe "/home/emanuele/chem_software/gaussian/scratch/Gau-8303.inp" -scrdir="/home/emanuele/chem_software/gaussian/scratch/"
 Entering Link 1 = /home/emanuele/chem_software/gaussian//gdv/l1.exe PID=      8305.
  
 Copyright (c) 1988-2020, Gaussian, Inc.  All Rights Reserved.
  
 This is the private, development version of
 the Gaussian(R) DV system of programs. It is based on
 the Gaussian(R) 16 system (copyright 2016, Gaussian, Inc.),
 the Gaussian(R) 09 system (copyright 2009, Gaussian, Inc.),
 the Gaussian(R) 03 system (copyright 2003, Gaussian, Inc.),
 the Gaussian(R) 98 system (copyright 1998, Gaussian, Inc.),
 the Gaussian(R) 94 system (copyright 1995, Gaussian, Inc.),
 the Gaussian 92(TM) system (copyright 1992, Gaussian, Inc.),
 the Gaussian 90(TM) system (copyright 1990, Gaussian, Inc.),
 the Gaussian 88(TM) system (copyright 1988, Gaussian, Inc.),
 the Gaussian 86(TM) system (copyright 1986, Carnegie Mellon
 University), and the Gaussian 82(TM) system (copyright 1983,
 Carnegie Mellon University). Gaussian is a federally registered
 trademark of Gaussian, Inc.
  
 This software contains proprietary and confidential information,
 including trade secrets, belonging to Gaussian, Inc.
  
 This software is provided under written license and may be
 used, copied, transmitted, or stored only in accord with that
 written license.
  
 The following legend is applicable only to US Government
 contracts under FAR:
  
                    RESTRICTED RIGHTS LEGEND
  
 Use, reproduction and disclosure by the US Government is
 subject to restrictions as set forth in subparagraphs (a)
 and (c) of the Commercial Computer Software - Restricted
 Rights clause in FAR 52.227-19.
  
 Gaussian, Inc.
 340 Quinnipiac St., Bldg. 40, Wallingford CT 06492
  
  
 ---------------------------------------------------------------
 Warning -- This program may not be used in any manner that
 competes with the business of Gaussian, Inc. or will provide
 assistance to any competitor of Gaussian, Inc.  The licensee
 of this program is prohibited from giving any competitor of
 Gaussian, Inc. access to this program.  By using this program,
 the user acknowledges that Gaussian, Inc. is engaged in the
 business of creating and licensing software in the field of
 computational chemistry and represents and warrants to the
 licensee that it is not a competitor of Gaussian, Inc. and that
 it will not use this program in any manner prohibited above.
 ---------------------------------------------------------------
  

 Cite this work as:
 Gaussian Development Version, Revision J.14,
 M. J. Frisch, G. W. Trucks, H. B. Schlegel, G. E. Scuseria, 
 M. A. Robb, J. R. Cheeseman, G. Scalmani, V. Barone, 
 G. A. Petersson, H. Nakatsuji, X. Li, A. V. Marenich, M. Caricato, 
 J. Bloino, B. G. Janesko, J. Zheng, R. Gomperts, B. Mennucci, 
 H. P. Hratchian, J. V. Ortiz, A. F. Izmaylov, J. L. Sonnenberg, 
 D. Williams-Young, F. Ding, F. Lipparini, F. Egidi, J. Goings, 
 B. Peng, A. Petrone, T. Henderson, D. Ranasinghe, V. G. Zakrzewski, 
 J. Gao, N. Rega, G. Zheng, W. Liang, M. Hada, M. Ehara, K. Toyota, 
 R. Fukuda, J. Hasegawa, M. Ishida, T. Nakajima, Y. Honda, O. Kitao, 
 H. Nakai, T. Vreven, K. Throssell, J. A. Montgomery, Jr., 
 J. E. Peralta, F. Ogliaro, M. J. Bearpark, J. J. Heyd, 
 E. N. Brothers, K. N. Kudin, V. N. Staroverov, T. A. Keith, 
 R. Kobayashi, J. Normand, K. Raghavachari, A. P. Rendell, 
 J. C. Burant, S. S. Iyengar, J. Tomasi, M. Cossi, J. M. Millam, 
 M. Klene, C. Adamo, R. Cammi, J. W. Ochterski, R. L. Martin, 
 K. Morokuma, O. Farkas, J. B. Foresman, and D. J. Fox, 
 Gaussian, Inc., Wallingford CT, 2020.
 
 ******************************************
 Gaussian DV:  ES64L-GDVRevJ.14 29-Dec-2020
                15-Aug-2026 
 ******************************************
 %mem=1GB
 %nprocshared=1
 Will use up to    1 processors via shared memory.
 %chk=GauNonBon.chk
 ----------------------------------------------
 #p Amber=(SoftOnly,Print) nosymm Freq=intmodes
 ----------------------------------------------
 1/10=4,18=20,30=1,37=210000000,38=1,56=2,64=303/1,3;
 2/9=110,12=2,15=1,40=1/2;
 3/5=30,11=9,25=1,30=1,41=10030000,43=2,71=2,140=1/1;
 4/20=11,22=2,24=3,119=11/2;
 7/8=21,25=1,30=1,44=-1/16;
 1/10=4,18=20,30=1,64=303/3;
 99//99;
 Leave Link    1 at Sat Aug 15 12:20:53 2026, MaxMem=   134217728 cpu:               0.0 elap:               0.0
 (Enter /home/emanuele/chem_software/gaussian//gdv/l101.exe)
 -----
 Title
 -----
 Symbolic Z-matrix:
 Charge =  0 Multiplicity = 1
 C-c3--0.646624       -0.58684   1.43698  -0.56696 
 H-h3-+0.210695       -1.38095   2.1815   -0.48096 
 H-h3-+0.210038       -0.74112   0.89658  -1.50285 
 H-h3-+0.212760        0.36616   1.96894  -0.63998 
 C-c3--0.406786       -0.58684   0.49195   0.63535 
 H-h3-+0.211064       -1.52635  -0.071     0.65769 
 H-h3-+0.208865       -0.55453   1.08234   1.55579 
 C-c3--0.406821        0.58684  -0.49195   0.63535 
 H-h3-+0.211063        1.52635   0.071     0.65769 
 H-h3-+0.208870        0.55453  -1.08234   1.55579 
 C-c3--0.646584        0.58684  -1.43698  -0.56696 
 H-h3-+0.210691        1.38095  -2.1815   -0.48096 
 H-h3-+0.212749       -0.36616  -1.96894  -0.63998 
 H-h3-+0.210021        0.74112  -0.89658  -1.50285 
 
 ITRead=  0  0  0  0  0  0  0  0  0  0  0  0  0  0
 MicOpt= -1 -1 -1 -1 -1 -1 -1 -1 -1 -1 -1 -1 -1 -1
 NAtoms=     14 NQM=       14 NQMF=       0 NMMI=      0 NMMIF=      0
                NMic=       0 NMicF=      0.
                    Isotopes and Nuclear Properties:
 (Nuclear quadrupole moments (NQMom) in fm**2, nuclear magnetic moments (NMagM)
  in nuclear magnetons)

  Atom         1           2           3           4           5           6           7           8           9          10
 IAtWgt=          12           1           1           1          12           1           1          12           1           1
 AtmWgt=  12.0000000   1.0078250   1.0078250   1.0078250  12.0000000   1.0078250   1.0078250  12.0000000   1.0078250   1.0078250
 NucSpn=           0           1           1           1           0           1           1           0           1           1
 AtZEff=  -0.0000000  -0.0000000  -0.0000000  -0.0000000  -0.0000000  -0.0000000  -0.0000000  -0.0000000  -0.0000000  -0.0000000
 NQMom=    0.0000000   0.0000000   0.0000000   0.0000000   0.0000000   0.0000000   0.0000000   0.0000000   0.0000000   0.0000000
 NMagM=    0.0000000   2.7928460   2.7928460   2.7928460   0.0000000   2.7928460   2.7928460   0.0000000   2.7928460   2.7928460
 AtZNuc=   6.0000000   1.0000000   1.0000000   1.0000000   6.0000000   1.0000000   1.0000000   6.0000000   1.0000000   1.0000000

  Atom        11          12          13          14
 IAtWgt=          12           1           1           1
 AtmWgt=  12.0000000   1.0078250   1.0078250   1.0078250
 NucSpn=           0           1           1           1
 AtZEff=  -0.0000000  -0.0000000  -0.0000000  -0.0000000
 NQMom=    0.0000000   0.0000000   0.0000000   0.0000000
 NMagM=    0.0000000   2.7928460   2.7928460   2.7928460
 AtZNuc=   6.0000000   1.0000000   1.0000000   1.0000000
 Generating MM parameters.
 Read MM parameter file:
 Define C3         1
 Include all MM classes

 MM sanity checks:
 All charges sum to:                0.00000100
 Charges of atoms sum to:           0.00000100
 MMInit generated parameter data with length LenPar=        2749.
 MM Charge=              0.0000 electrons
 MM Dipole moment (Debye):
    X=             -0.0000    Y=             -0.0000    Z=              0.1803  Tot=              0.1803
 MM Quadrupole moment (Debye-Ang):
   XX=              7.0978   YY=              7.7660   ZZ=              8.0217
   XY=             -0.5829   XZ=             -0.0000   YZ=             -0.0000
 MM Traceless Quadrupole moment (Debye-Ang):
   XX=             -0.5307   YY=              0.1375   ZZ=              0.3932
   XY=             -0.5829   XZ=             -0.0000   YZ=             -0.0000
 MM Octapole moment (Debye-Ang**2):
  XXX=             -0.0001  YYY=              0.0001  ZZZ=              0.6532  XYY=              0.0001
  XXY=              0.0001  XXZ=              0.7272  XZZ=             -0.0001  YZZ=              0.0001
  YYZ=             -1.8060  XYZ=              0.0224
 MM Hexadecapole moment (Debye-Ang**3):
 XXXX=             18.0007 YYYY=             53.8981 ZZZZ=             21.5995 XXXY=             -9.8326
 XXXZ=              0.0000 YYYX=            -14.7030 YYYZ=             -0.0002 ZZZX=              0.0002
 ZZZY=             -0.0003 XXYY=             16.3255 XXZZ=              5.8138 YYZZ=             10.3254
 XXYZ=             -0.0000 YYXZ=             -0.0000 ZZXY=             -4.5156
 Leave Link  101 at Sat Aug 15 12:20:54 2026, MaxMem=   134217728 cpu:               0.3 elap:               0.3
 (Enter /home/emanuele/chem_software/gaussian//gdv/l103.exe)

 GradGradGradGradGradGradGradGradGradGradGradGradGradGradGradGradGradGrad
 Berny optimization.
 Initialization pass.
                           ----------------------------
                           !    Initial Parameters    !
                           ! (Angstroms and Degrees)  !
 --------------------------                            --------------------------
 ! Name  Definition              Value          Derivative Info.                !
 --------------------------------------------------------------------------------
 ! R1    R(1,2)                  1.0919         calculate D2E/DX2 analytically  !
 ! R2    R(1,3)                  1.0917         calculate D2E/DX2 analytically  !
 ! R3    R(1,4)                  1.0939         calculate D2E/DX2 analytically  !
 ! R4    R(1,5)                  1.5293         calculate D2E/DX2 analytically  !
 ! R5    R(5,6)                  1.0955         calculate D2E/DX2 analytically  !
 ! R6    R(5,7)                  1.094          calculate D2E/DX2 analytically  !
 ! R7    R(5,8)                  1.5315         calculate D2E/DX2 analytically  !
 ! R8    R(8,9)                  1.0955         calculate D2E/DX2 analytically  !
 ! R9    R(8,10)                 1.094          calculate D2E/DX2 analytically  !
 ! R10   R(8,11)                 1.5293         calculate D2E/DX2 analytically  !
 ! R11   R(11,12)                1.0919         calculate D2E/DX2 analytically  !
 ! R12   R(11,13)                1.0939         calculate D2E/DX2 analytically  !
 ! R13   R(11,14)                1.0917         calculate D2E/DX2 analytically  !
 ! A1    A(2,1,3)              107.5942         calculate D2E/DX2 analytically  !
 ! A2    A(2,1,4)              107.895          calculate D2E/DX2 analytically  !
 ! A3    A(2,1,5)              111.0648         calculate D2E/DX2 analytically  !
 ! A4    A(3,1,4)              107.8569         calculate D2E/DX2 analytically  !
 ! A5    A(3,1,5)              111.5994         calculate D2E/DX2 analytically  !
 ! A6    A(4,1,5)              110.6711         calculate D2E/DX2 analytically  !
 ! A7    A(1,5,6)              109.487          calculate D2E/DX2 analytically  !
 ! A8    A(1,5,7)              109.1465         calculate D2E/DX2 analytically  !
 ! A9    A(1,5,8)              113.3907         calculate D2E/DX2 analytically  !
 ! A10   A(6,5,7)              106.5886         calculate D2E/DX2 analytically  !
 ! A11   A(6,5,8)              109.0928         calculate D2E/DX2 analytically  !
 ! A12   A(7,5,8)              108.9089         calculate D2E/DX2 analytically  !
 ! A13   A(5,8,9)              109.0928         calculate D2E/DX2 analytically  !
 ! A14   A(5,8,10)             108.9089         calculate D2E/DX2 analytically  !
 ! A15   A(5,8,11)             113.3907         calculate D2E/DX2 analytically  !
 ! A16   A(9,8,10)             106.5886         calculate D2E/DX2 analytically  !
 ! A17   A(9,8,11)             109.487          calculate D2E/DX2 analytically  !
 ! A18   A(10,8,11)            109.1465         calculate D2E/DX2 analytically  !
 ! A19   A(8,11,12)            111.0648         calculate D2E/DX2 analytically  !
 ! A20   A(8,11,13)            110.6711         calculate D2E/DX2 analytically  !
 ! A21   A(8,11,14)            111.5994         calculate D2E/DX2 analytically  !
 ! A22   A(12,11,13)           107.895          calculate D2E/DX2 analytically  !
 ! A23   A(12,11,14)           107.5942         calculate D2E/DX2 analytically  !
 ! A24   A(13,11,14)           107.8569         calculate D2E/DX2 analytically  !
 ! D1    D(2,1,5,6)             63.3325         calculate D2E/DX2 analytically  !
 ! D2    D(2,1,5,7)            -52.9909         calculate D2E/DX2 analytically  !
 ! D3    D(2,1,5,8)           -174.5873         calculate D2E/DX2 analytically  !
 ! D4    D(3,1,5,6)            -56.7254         calculate D2E/DX2 analytically  !
 ! D5    D(3,1,5,7)           -173.0488         calculate D2E/DX2 analytically  !
 ! D6    D(3,1,5,8)             65.3548         calculate D2E/DX2 analytically  !
 ! D7    D(4,1,5,6)           -176.849          calculate D2E/DX2 analytically  !
 ! D8    D(4,1,5,7)             66.8276         calculate D2E/DX2 analytically  !
 ! D9    D(4,1,5,8)            -54.7688         calculate D2E/DX2 analytically  !
 ! D10   D(1,5,8,9)             60.1735         calculate D2E/DX2 analytically  !
 ! D11   D(1,5,8,10)           176.1449         calculate D2E/DX2 analytically  !
 ! D12   D(1,5,8,11)           -62.1259         calculate D2E/DX2 analytically  !
 ! D13   D(6,5,8,9)           -177.527          calculate D2E/DX2 analytically  !
 ! D14   D(6,5,8,10)           -61.5557         calculate D2E/DX2 analytically  !
 ! D15   D(6,5,8,11)            60.1735         calculate D2E/DX2 analytically  !
 ! D16   D(7,5,8,9)            -61.5557         calculate D2E/DX2 analytically  !
 ! D17   D(7,5,8,10)            54.4157         calculate D2E/DX2 analytically  !
 ! D18   D(7,5,8,11)           176.1449         calculate D2E/DX2 analytically  !
 ! D19   D(5,8,11,12)         -174.5873         calculate D2E/DX2 analytically  !
 ! D20   D(5,8,11,13)          -54.7688         calculate D2E/DX2 analytically  !
 ! D21   D(5,8,11,14)           65.3548         calculate D2E/DX2 analytically  !
 ! D22   D(9,8,11,12)           63.3325         calculate D2E/DX2 analytically  !
 ! D23   D(9,8,11,13)         -176.849          calculate D2E/DX2 analytically  !
 ! D24   D(9,8,11,14)          -56.7254         calculate D2E/DX2 analytically  !
 ! D25   D(10,8,11,12)         -52.9909         calculate D2E/DX2 analytically  !
 ! D26   D(10,8,11,13)          66.8276         calculate D2E/DX2 analytically  !
 ! D27   D(10,8,11,14)        -173.0488         calculate D2E/DX2 analytically  !
 --------------------------------------------------------------------------------
 Trust Radius=3.00D-01 FncErr=1.00D-07 GrdErr=1.00D-07 EigMax=2.50D+02 EigMin=1.00D-04
 Number of steps in this run=      2 maximum allowed number of steps=      2.
 GradGradGradGradGradGradGradGradGradGradGradGradGradGradGradGradGradGrad

 Leave Link  103 at Sat Aug 15 12:20:54 2026, MaxMem=   134217728 cpu:               0.0 elap:               0.0
 (Enter /home/emanuele/chem_software/gaussian//gdv/l202.exe)
                          Input orientation:                          
 ---------------------------------------------------------------------
 Center     Atomic      Atomic             Coordinates (Angstroms)
 Number     Number       Type             X           Y           Z
 ---------------------------------------------------------------------
      1          6    90000001       -0.586838    1.436978   -0.566964
      2          1    20001037       -1.380948    2.181498   -0.480955
      3          1    20001037       -0.741117    0.896584   -1.502852
      4          1    20001037        0.366163    1.968936   -0.639975
      5          6    90000001       -0.586838    0.491947    0.635348
      6          1    20001037       -1.526348   -0.071004    0.657687
      7          1    20001037       -0.554528    1.082342    1.555793
      8          6    90000001        0.586838   -0.491947    0.635348
      9          1    20001037        1.526348    0.071004    0.657687
     10          1    20001037        0.554528   -1.082342    1.555793
     11          6    90000001        0.586838   -1.436978   -0.566964
     12          1    20001037        1.380948   -2.181498   -0.480955
     13          1    20001037       -0.366163   -1.968936   -0.639975
     14          1    20001037        0.741117   -0.896584   -1.502852
 ---------------------------------------------------------------------
                    Distance matrix (angstroms):
                    1          2          3          4          5
     1  C    0.000000
     2  H    1.091933   0.000000
     3  H    1.091657   1.762005   0.000000
     4  H    1.093856   1.767163   1.766512   0.000000
     5  C    1.529261   2.175161   2.181612   2.171671   0.000000
     6  H    2.157883   2.528124   2.494142   3.070322   1.095487
     7  H    2.152419   2.457531   3.069956   2.540692   1.093997
     8  C    2.558089   3.502231   2.874610   2.780484   1.531523
     9  H    2.798430   3.768695   3.238967   2.575287   2.154820
    10  H    3.486515   4.306630   3.866543   3.763931   2.151353
    11  C    3.104374   4.119824   2.843389   3.413836   2.558089
    12  H    4.119824   5.163701   3.875825   4.275649   3.502231
    13  H    3.413836   4.275649   3.016016   4.005389   2.780484
    14  H    2.843389   3.875825   2.326471   3.016016   2.874610
                    6          7          8          9         10
     6  H    0.000000
     7  H    1.755345   0.000000
     8  C    2.154820   2.151353   0.000000
     9  H    3.055997   2.481823   1.095487   0.000000
    10  H    2.481823   2.432255   1.093997   1.755345   0.000000
    11  C    2.798430   3.486515   1.529261   2.157883   2.152419
    12  H    3.768695   4.306630   2.175161   2.528124   2.457531
    13  H    2.575287   3.763931   2.171671   3.070322   2.540692
    14  H    3.238967   3.866543   2.181612   2.494142   3.069956
                   11         12         13         14
    11  C    0.000000
    12  H    1.091933   0.000000
    13  H    1.093856   1.767163   0.000000
    14  H    1.091657   1.762005   1.766512   0.000000
 Symmetry turned off by external request.
 Stoichiometry    C4H10
 Framework group  C2[X(C4H10)]
 Deg. of freedom    19
 Full point group                 C2      NOp   2
 Rotational constants (GHZ):          13.0604814           4.8673063           4.1051409
 Leave Link  202 at Sat Aug 15 12:20:54 2026, MaxMem=   134217728 cpu:               0.0 elap:               0.0
 (Enter /home/emanuele/chem_software/gaussian//gdv/l301.exe)
 Standard basis: Dummy (5D, 7F)
    14 basis functions,    14 primitive gaussians,    14 cartesian basis functions
     9 alpha electrons        9 beta electrons
       nuclear repulsion energy        37.1103129954 Hartrees.
 IExCor=       0 DFT=F Ex=HF Corr=None N6=None ScaHFX=  1.000000
 ScaDFX=  1.000000  1.000000  1.000000  1.000000  1.000000  0.000000
 ScaDFX=  0.000000  0.000000  0.000000  0.000000  0.000000  0.000000
 IRadAn=      5 IRanWt=     -1 IRanGd=            0 ICorTp=0 IEmpDi=  4
 NAtoms=   14 NActive=   14 NUniq=   14 SFac= 1.00D+00 NAtFMM=   60 NAOKFM=F Big=F
 Integral buffers will be    131072 words long.
 Raffenetti 1 integral format.
 Two-electron integral symmetry is turned off.
 Leave Link  301 at Sat Aug 15 12:20:54 2026, MaxMem=   134217728 cpu:               0.0 elap:               0.0
 (Enter /home/emanuele/chem_software/gaussian//gdv/l402.exe)
 AMBER calculation of energy, first and second derivatives.
 ****************************
 MOLECULAR MECHANICS FUNCTION
 ****************************
 Atomic parameters:
 Center  VDW
      1 1.9080 0.1094000
      2 1.4870 0.0157000
      3 1.4870 0.0157000
      4 1.4870 0.0157000
      5 1.9080 0.1094000
      6 1.4870 0.0157000
      7 1.4870 0.0157000
      8 1.9080 0.1094000
      9 1.4870 0.0157000
     10 1.4870 0.0157000
     11 1.9080 0.1094000
     12 1.4870 0.0157000
     13 1.4870 0.0157000
     14 1.4870 0.0157000
 Molecular mechanics terms:
 NBDir 3 1      0      0
 HrmStr1  1- 2    0.00 1.0930
 HrmStr1  1- 3    0.00 1.0930
 HrmStr1  1- 4    0.00 1.0930
 HrmStr1  1- 5    0.00 1.5300
 HrmStr1  5- 6    0.00 1.0930
 HrmStr1  5- 7    0.00 1.0930
 HrmStr1  5- 8    0.00 1.5300
 HrmStr1  8- 9    0.00 1.0930
 HrmStr1  8-10    0.00 1.0930
 HrmStr1  8-11    0.00 1.5300
 HrmStr1 11-12    0.00 1.0930
 HrmStr1 11-13    0.00 1.0930
 HrmStr1 11-14    0.00 1.0930
 HrmBnd1  1- 5- 6   0.00 110.00
 HrmBnd1  1- 5- 7   0.00 110.00
 HrmBnd1  1- 5- 8   0.00 113.39
 HrmBnd1  2- 1- 3   0.00 107.48
 HrmBnd1  2- 1- 4   0.00 107.48
 HrmBnd1  5- 1- 2   0.00 110.00
 HrmBnd1  3- 1- 4   0.00 107.48
 HrmBnd1  5- 1- 3   0.00 110.00
 HrmBnd1  5- 1- 4   0.00 110.00
 HrmBnd1  5- 8- 9   0.00 110.00
 HrmBnd1  5- 8-10   0.00 110.00
 HrmBnd1  5- 8-11   0.00 113.39
 HrmBnd1  6- 5- 7   0.00 107.48
 HrmBnd1  8- 5- 6   0.00 110.00
 HrmBnd1  8- 5- 7   0.00 110.00
 HrmBnd1  8-11-12   0.00 110.00
 HrmBnd1  8-11-13   0.00 110.00
 HrmBnd1  8-11-14   0.00 110.00
 HrmBnd1  9- 8-10   0.00 107.48
 HrmBnd1 11- 8- 9   0.00 110.00
 HrmBnd1 11- 8-10   0.00 110.00
 HrmBnd1 12-11-13   0.00 107.48
 HrmBnd1 12-11-14   0.00 107.48
 HrmBnd1 13-11-14   0.00 107.48
 AmbTrs  2- 1- 5- 6   0   0   0   0  0.0000  0.0000  0.0000  0.0000  9.0
 AmbTrs  2- 1- 5- 7   0   0   0   0  0.0000  0.0000  0.0000  0.0000  9.0
 AmbTrs  8- 5- 1- 2   0   0   0   0  0.0000  0.0000  0.0000  0.0000  9.0
 AmbTrs  3- 1- 5- 6   0   0   0   0  0.0000  0.0000  0.0000  0.0000  9.0
 AmbTrs  3- 1- 5- 7   0   0   0   0  0.0000  0.0000  0.0000  0.0000  9.0
 AmbTrs  8- 5- 1- 3   0   0   0   0  0.0000  0.0000  0.0000  0.0000  9.0
 AmbTrs  4- 1- 5- 6   0   0   0   0  0.0000  0.0000  0.0000  0.0000  9.0
 AmbTrs  4- 1- 5- 7   0   0   0   0  0.0000  0.0000  0.0000  0.0000  9.0
 AmbTrs  8- 5- 1- 4   0   0   0   0  0.0000  0.0000  0.0000  0.0000  9.0
 AmbTrs  1- 5- 8- 9   0   0   0   0  0.0000  0.0000  0.0000  0.0000  9.0
 AmbTrs  1- 5- 8-10   0   0   0   0  0.0000  0.0000  0.0000  0.0000  9.0
 AmbTrs  1- 5- 8-11   0   0   0   0  0.0000  0.0000  0.0000  0.0000  9.0
 AmbTrs  6- 5- 8- 9   0   0   0   0  0.0000  0.0000  0.0000  0.0000  9.0
 AmbTrs  6- 5- 8-10   0   0   0   0  0.0000  0.0000  0.0000  0.0000  9.0
 AmbTrs 11- 8- 5- 6   0   0   0   0  0.0000  0.0000  0.0000  0.0000  9.0
 AmbTrs  7- 5- 8- 9   0   0   0   0  0.0000  0.0000  0.0000  0.0000  9.0
 AmbTrs  7- 5- 8-10   0   0   0   0  0.0000  0.0000  0.0000  0.0000  9.0
 AmbTrs 11- 8- 5- 7   0   0   0   0  0.0000  0.0000  0.0000  0.0000  9.0
 AmbTrs  5- 8-11-12   0   0   0   0  0.0000  0.0000  0.0000  0.0000  9.0
 AmbTrs  5- 8-11-13   0   0   0   0  0.0000  0.0000  0.0000  0.0000  9.0
 AmbTrs  5- 8-11-14   0   0   0   0  0.0000  0.0000  0.0000  0.0000  9.0
 AmbTrs  9- 8-11-12   0   0   0   0  0.0000  0.0000  0.0000  0.0000  9.0
 AmbTrs  9- 8-11-13   0   0   0   0  0.0000  0.0000  0.0000  0.0000  9.0
 AmbTrs  9- 8-11-14   0   0   0   0  0.0000  0.0000  0.0000  0.0000  9.0
 AmbTrs 10- 8-11-12   0   0   0   0  0.0000  0.0000  0.0000  0.0000  9.0
 AmbTrs 10- 8-11-13   0   0   0   0  0.0000  0.0000  0.0000  0.0000  9.0
 AmbTrs 10- 8-11-14   0   0   0   0  0.0000  0.0000  0.0000  0.0000  9.0
 NBPair  2- 1 3 1      0      0 -1.000 -1.000
 NBPair  3- 2 3 1      0      0 -1.000 -1.000
 NBPair  4- 2 3 1      0      0 -1.000 -1.000
 NBPair  5- 2 3 1      0      0 -1.000 -1.000
 NBPair  3- 1 3 1      0      0 -1.000 -1.000
 NBPair  4- 3 3 1      0      0 -1.000 -1.000
 NBPair  5- 3 3 1      0      0 -1.000 -1.000
 NBPair  4- 1 3 1      0      0 -1.000 -1.000
 NBPair  5- 4 3 1      0      0 -1.000 -1.000
 NBPair  5- 1 3 1      0      0 -1.000 -1.000
 NBPair  6- 2 3 1      0      0 -0.500 -0.167
 NBPair  7- 2 3 1      0      0 -0.500 -0.167
 NBPair  8- 2 3 1      0      0 -0.500 -0.167
 NBPair  6- 3 3 1      0      0 -0.500 -0.167
 NBPair  7- 3 3 1      0      0 -0.500 -0.167
 NBPair  8- 3 3 1      0      0 -0.500 -0.167
 NBPair  6- 4 3 1      0      0 -0.500 -0.167
 NBPair  7- 4 3 1      0      0 -0.500 -0.167
 NBPair  8- 4 3 1      0      0 -0.500 -0.167
 NBPair  6- 1 3 1      0      0 -1.000 -1.000
 NBPair  7- 1 3 1      0      0 -1.000 -1.000
 NBPair  8- 1 3 1      0      0 -1.000 -1.000
 NBPair  6- 5 3 1      0      0 -1.000 -1.000
 NBPair  7- 6 3 1      0      0 -1.000 -1.000
 NBPair  8- 6 3 1      0      0 -1.000 -1.000
 NBPair  7- 5 3 1      0      0 -1.000 -1.000
 NBPair  8- 7 3 1      0      0 -1.000 -1.000
 NBPair  8- 5 3 1      0      0 -1.000 -1.000
 NBPair  9- 1 3 1      0      0 -0.500 -0.167
 NBPair 10- 1 3 1      0      0 -0.500 -0.167
 NBPair 11- 1 3 1      0      0 -0.500 -0.167
 NBPair  9- 6 3 1      0      0 -0.500 -0.167
 NBPair 10- 6 3 1      0      0 -0.500 -0.167
 NBPair 11- 6 3 1      0      0 -0.500 -0.167
 NBPair  9- 7 3 1      0      0 -0.500 -0.167
 NBPair 10- 7 3 1      0      0 -0.500 -0.167
 NBPair 11- 7 3 1      0      0 -0.500 -0.167
 NBPair  9- 5 3 1      0      0 -1.000 -1.000
 NBPair 10- 5 3 1      0      0 -1.000 -1.000
 NBPair 11- 5 3 1      0      0 -1.000 -1.000
 NBPair  9- 8 3 1      0      0 -1.000 -1.000
 NBPair 10- 9 3 1      0      0 -1.000 -1.000
 NBPair 11- 9 3 1      0      0 -1.000 -1.000
 NBPair 10- 8 3 1      0      0 -1.000 -1.000
 NBPair 11-10 3 1      0      0 -1.000 -1.000
 NBPair 11- 8 3 1      0      0 -1.000 -1.000
 NBPair 12- 5 3 1      0      0 -0.500 -0.167
 NBPair 13- 5 3 1      0      0 -0.500 -0.167
 NBPair 14- 5 3 1      0      0 -0.500 -0.167
 NBPair 12- 9 3 1      0      0 -0.500 -0.167
 NBPair 13- 9 3 1      0      0 -0.500 -0.167
 NBPair 14- 9 3 1      0      0 -0.500 -0.167
 NBPair 12-10 3 1      0      0 -0.500 -0.167
 NBPair 13-10 3 1      0      0 -0.500 -0.167
 NBPair 14-10 3 1      0      0 -0.500 -0.167
 NBPair 12- 8 3 1      0      0 -1.000 -1.000
 NBPair 13- 8 3 1      0      0 -1.000 -1.000
 NBPair 14- 8 3 1      0      0 -1.000 -1.000
 NBPair 12-11 3 1      0      0 -1.000 -1.000
 NBPair 13-12 3 1      0      0 -1.000 -1.000
 NBPair 14-12 3 1      0      0 -1.000 -1.000
 NBPair 13-11 3 1      0      0 -1.000 -1.000
 NBPair 14-13 3 1      0      0 -1.000 -1.000
 NBPair 14-11 3 1      0      0 -1.000 -1.000
 Energy per function type:
 Direct Coulomb + vdW (small)                           0.274417357
 Direct Coulomb (large)                                -0.679585627
 Direct vdW (large)                                   559.685202134
 Non-direct Coulomb + vdW (small)                       0.005630738
 Non-direct Coulomb (large)                             0.437902179
 Non-direct vdW (large)                              -559.685202134
 Energy per function class:
        Coulomb               0.036850473
    Vanderwaals               0.001514175
 Energy=    3.836464796E-02 NIter=   0.
 Dipole moment=      -0.000019      -0.000000       0.070952
 Leave Link  402 at Sat Aug 15 12:20:54 2026, MaxMem=   134217728 cpu:               0.0 elap:               0.0
 (Enter /home/emanuele/chem_software/gaussian//gdv/l716.exe)
 Dipole        =-1.87357010D-05-2.21991797D-07 7.09518370D-02
 Full mass-weighted force constant matrix:
 Low frequencies --- -212.4348 -211.8344 -203.6310 -188.2581 -177.8826 -175.7188
 Low frequencies --- -156.9241 -156.1156 -122.4455
 ******   13 imaginary frequencies (negative Signs) ****** 
 Diagonal vibrational polarizability:
     3944.3928205    3637.4229088     977.8906287
 Harmonic frequencies (cm**-1), IR intensities (KM/Mole), Raman scattering
 activities (A**4/AMU), depolarization ratios for plane and unpolarized
 incident light, reduced masses (AMU), force constants (mDyne/A),
 and normal coordinates:
                      1                      2                      3
                      A                      A                      A
 Frequencies --   -211.4959              -208.2907              -185.1075
 Red. masses --      1.0257                 1.0797                 1.1645
 Frc consts  --      0.0270                 0.0276                 0.0235
 IR Inten    --      2.0907                 4.9018                 0.0797
  Atom  AN      X      Y      Z        X      Y      Z        X      Y      Z
     1   6    -0.03  -0.01  -0.01     0.00   0.00   0.05    -0.07  -0.04   0.00
     2   1    -0.08  -0.09   0.03     0.04  -0.12  -0.10     0.10   0.12  -0.00
     3   1     0.01   0.02   0.03     0.06  -0.02  -0.01     0.49   0.39   0.08
     4   1    -0.03  -0.10  -0.11     0.03  -0.12  -0.10     0.20  -0.06  -0.01
     5   6    -0.00  -0.00  -0.00     0.00  -0.01   0.01    -0.03  -0.02   0.00
     6   1    -0.04   0.04  -0.02    -0.25  -0.12  -0.18    -0.02   0.15  -0.04
     7   1     0.53   0.39   0.16     0.06   0.53   0.21    -0.02  -0.03  -0.04
     8   6     0.00   0.00  -0.00     0.00  -0.01  -0.01     0.03   0.02   0.00
     9   1     0.04  -0.04  -0.02    -0.25  -0.12   0.18     0.02  -0.15  -0.04
    10   1    -0.53  -0.39   0.16     0.06   0.53  -0.21     0.02   0.03  -0.04
    11   6     0.03   0.01  -0.01     0.00   0.00  -0.05     0.07   0.04   0.00
    12   1     0.08   0.09   0.03     0.04  -0.12   0.10    -0.10  -0.12  -0.00
    13   1     0.03   0.10  -0.11     0.03  -0.12   0.10    -0.20   0.06  -0.01
    14   1    -0.01  -0.02   0.03     0.06  -0.02   0.01    -0.49  -0.39   0.08
                      4                      5                      6
                      A                      A                      A
 Frequencies --   -177.6915              -174.7909              -156.0597
 Red. masses --      1.2138                 1.0531                 1.0193
 Frc consts  --      0.0226                 0.0190                 0.0146
 IR Inten    --      5.8293                 0.0921                 1.9791
  Atom  AN      X      Y      Z        X      Y      Z        X      Y      Z
     1   6     0.02  -0.00  -0.08    -0.04  -0.02   0.00     0.01  -0.01   0.00
     2   1     0.04  -0.20   0.13     0.05  -0.08  -0.23     0.43  -0.37  -0.25
     3   1    -0.04   0.18   0.34    -0.16  -0.14  -0.04     0.05   0.06   0.11
     4   1    -0.07   0.10   0.23     0.30  -0.09  -0.01    -0.17  -0.08  -0.01
     5   6    -0.04   0.01  -0.04    -0.01   0.00  -0.00     0.01  -0.01  -0.01
     6   1    -0.01  -0.21   0.17     0.20   0.32   0.36    -0.12  -0.14   0.09
     7   1     0.25   0.03   0.29    -0.06   0.10  -0.06    -0.07   0.01   0.15
     8   6    -0.04   0.01   0.04     0.01  -0.00  -0.00    -0.01   0.01  -0.01
     9   1    -0.01  -0.21  -0.17    -0.20  -0.32   0.36     0.12   0.14   0.09
    10   1     0.25   0.03  -0.29     0.06  -0.10  -0.06     0.07  -0.01   0.15
    11   6     0.02  -0.00   0.08     0.04   0.02   0.00    -0.01   0.01   0.00
    12   1     0.04  -0.20  -0.13    -0.05   0.08  -0.23    -0.42   0.36  -0.25
    13   1    -0.07   0.10  -0.23    -0.30   0.09  -0.01     0.17   0.08  -0.01
    14   1    -0.04   0.18  -0.34     0.16   0.14  -0.04    -0.05  -0.06   0.11
                      7                      8                      9
                      A                      A                      A
 Frequencies --   -155.9473              -153.2957              -119.1129
 Red. masses --      1.1136                 1.4064                 1.1066
 Frc consts  --      0.0160                 0.0195                 0.0093
 IR Inten    --     49.8285                15.6673                 0.3781
  Atom  AN      X      Y      Z        X      Y      Z        X      Y      Z
     1   6    -0.05   0.01   0.00    -0.06  -0.06  -0.05     0.05   0.01   0.01
     2   1     0.56  -0.19  -0.20    -0.06   0.24   0.23    -0.43  -0.17  -0.07
     3   1    -0.00  -0.01   0.06     0.02   0.13   0.07     0.16   0.15   0.12
     4   1    -0.07  -0.02   0.04     0.24   0.09   0.16    -0.11  -0.26  -0.24
     5   6     0.03   0.02   0.03     0.08   0.05   0.01     0.02   0.04  -0.00
     6   1    -0.12  -0.02   0.03    -0.27  -0.23  -0.31     0.07  -0.08   0.21
     7   1    -0.19  -0.17   0.06    -0.17  -0.05  -0.01    -0.14  -0.00  -0.05
     8   6     0.03   0.02  -0.03     0.08   0.05  -0.01    -0.02  -0.04  -0.00
     9   1    -0.12  -0.02  -0.03    -0.27  -0.23   0.31    -0.07   0.08   0.21
    10   1    -0.19  -0.17  -0.06    -0.17  -0.05   0.01     0.14   0.00  -0.05
    11   6    -0.05   0.01  -0.00    -0.06  -0.06   0.05    -0.05  -0.01   0.01
    12   1     0.57  -0.20   0.21    -0.06   0.24  -0.23     0.43   0.17  -0.07
    13   1    -0.07  -0.02  -0.04     0.24   0.09  -0.16     0.11   0.26  -0.24
    14   1    -0.00  -0.01  -0.07     0.02   0.13  -0.07    -0.16  -0.15   0.12
                     10                     11                     12
                      A                      A                      A
 Frequencies --   -115.6798              -107.9248               -88.2342
 Red. masses --      1.2497                 1.0870                 1.0793
 Frc consts  --      0.0099                 0.0075                 0.0050
 IR Inten    --    152.5541                52.3985                 1.3677
  Atom  AN      X      Y      Z        X      Y      Z        X      Y      Z
     1   6     0.03  -0.09   0.05     0.03  -0.04  -0.00    -0.03  -0.03  -0.01
     2   1    -0.01  -0.00  -0.16     0.24   0.37   0.29     0.23   0.30   0.22
     3   1    -0.16  -0.05  -0.11     0.03  -0.08  -0.09    -0.11  -0.08  -0.00
     4   1     0.09   0.48   0.25    -0.32  -0.05  -0.08    -0.18  -0.39  -0.27
     5   6    -0.01   0.02   0.00    -0.02   0.01  -0.02     0.00   0.04  -0.00
     6   1    -0.05   0.19   0.19    -0.08   0.16   0.01    -0.07   0.04   0.10
     7   1    -0.11   0.16   0.07     0.01   0.02   0.24    -0.05  -0.07   0.03
     8   6    -0.01   0.02  -0.00    -0.02   0.01   0.02    -0.00  -0.04  -0.00
     9   1    -0.05   0.19  -0.19    -0.08   0.16  -0.01     0.07  -0.04   0.10
    10   1    -0.11   0.16  -0.07     0.01   0.02  -0.24     0.05   0.07   0.03
    11   6     0.03  -0.09  -0.05     0.03  -0.04   0.00     0.03   0.03  -0.01
    12   1    -0.01  -0.00   0.16     0.24   0.37  -0.29    -0.23  -0.30   0.22
    13   1     0.09   0.48  -0.25    -0.32  -0.05   0.08     0.18   0.39  -0.27
    14   1    -0.16  -0.05   0.11     0.03  -0.08   0.09     0.11   0.08  -0.00
                     13                     14                     15
                      A                      A                      A
 Frequencies --    -22.3964                24.4282                26.8750
 Red. masses --      1.2722                 2.3788                 8.5567
 Frc consts  --      0.0004                 0.0008                 0.0036
 IR Inten    --     25.6289               104.4612                 2.9075
  Atom  AN      X      Y      Z        X      Y      Z        X      Y      Z
     1   6     0.02  -0.07   0.04     0.06  -0.09   0.08    -0.05  -0.02   0.10
     2   1    -0.25  -0.12  -0.12     0.16  -0.13   0.15    -0.05   0.13   0.22
     3   1     0.42   0.19   0.19    -0.09  -0.13  -0.14     0.04   0.04   0.06
     4   1    -0.34  -0.02  -0.06     0.24  -0.14  -0.08    -0.05   0.02  -0.06
     5   6     0.01   0.06   0.04    -0.12   0.16   0.06     0.48  -0.28  -0.14
     6   1    -0.03   0.06   0.03     0.14  -0.27  -0.15     0.20   0.11   0.15
     7   1    -0.14  -0.07  -0.01     0.29  -0.19  -0.10    -0.03  -0.01   0.05
     8   6     0.01   0.06  -0.04    -0.12   0.16  -0.06    -0.48   0.28  -0.14
     9   1    -0.03   0.06  -0.03     0.14  -0.27   0.15    -0.20  -0.11   0.15
    10   1    -0.14  -0.07   0.01     0.29  -0.19   0.10     0.03   0.01   0.05
    11   6     0.02  -0.07  -0.04     0.06  -0.09  -0.08     0.05   0.02   0.10
    12   1    -0.25  -0.12   0.12     0.16  -0.13  -0.15     0.05  -0.12   0.22
    13   1    -0.34  -0.02   0.06     0.24  -0.14   0.08     0.05  -0.02  -0.06
    14   1     0.42   0.19  -0.19    -0.09  -0.13   0.14    -0.04  -0.04   0.06
                     16                     17                     18
                      A                      A                      A
 Frequencies --     36.8409                42.2216                53.1122
 Red. masses --      8.8409                 7.1466                 8.9673
 Frc consts  --      0.0071                 0.0075                 0.0149
 IR Inten    --      6.7759                 0.3900                 1.3760
  Atom  AN      X      Y      Z        X      Y      Z        X      Y      Z
     1   6     0.11   0.05  -0.24    -0.19  -0.07  -0.10     0.05   0.03  -0.36
     2   1    -0.04   0.11   0.03    -0.06  -0.18  -0.18     0.01   0.03  -0.15
     3   1     0.14  -0.03  -0.12     0.04   0.02  -0.08     0.00   0.02  -0.10
     4   1     0.06   0.20   0.06    -0.01   0.18   0.25    -0.07  -0.16  -0.21
     5   6    -0.11  -0.10   0.51     0.27   0.38   0.11     0.07  -0.22   0.41
     6   1    -0.06   0.12  -0.02    -0.04  -0.07  -0.20     0.04   0.08  -0.02
     7   1    -0.02   0.15   0.07    -0.03  -0.03   0.00    -0.08   0.05  -0.10
     8   6    -0.11  -0.10  -0.51    -0.27  -0.38   0.11    -0.07   0.22   0.41
     9   1    -0.06   0.12   0.02     0.04   0.07  -0.20    -0.04  -0.08  -0.02
    10   1    -0.02   0.15  -0.07     0.03   0.03   0.00     0.08  -0.05  -0.10
    11   6     0.11   0.05   0.24     0.19   0.07  -0.10    -0.05  -0.03  -0.36
    12   1    -0.04   0.11  -0.03     0.06   0.18  -0.18    -0.01  -0.03  -0.15
    13   1     0.06   0.20  -0.06     0.01  -0.18   0.25     0.07   0.16  -0.21
    14   1     0.14  -0.03   0.12    -0.04  -0.02  -0.08    -0.00  -0.02  -0.10
                     19                     20                     21
                      A                      A                      A
 Frequencies --     92.3024               108.4961               133.7714
 Red. masses --      1.1024                 1.1235                 1.1242
 Frc consts  --      0.0055                 0.0078                 0.0119
 IR Inten    --     53.9355               178.9162               234.8502
  Atom  AN      X      Y      Z        X      Y      Z        X      Y      Z
     1   6    -0.05   0.02  -0.02     0.01  -0.04   0.05    -0.02   0.03  -0.06
     2   1    -0.06  -0.21   0.07    -0.03  -0.05  -0.19    -0.06  -0.12   0.31
     3   1     0.25  -0.16  -0.42    -0.09  -0.06  -0.01    -0.05  -0.05   0.23
     4   1    -0.15   0.12   0.23     0.20  -0.10  -0.16     0.37  -0.08   0.13
     5   6     0.03   0.01  -0.01     0.02  -0.02   0.02     0.00  -0.00  -0.02
     6   1     0.08  -0.04  -0.15    -0.41  -0.06  -0.13    -0.29  -0.15   0.17
     7   1     0.17  -0.06   0.16     0.14  -0.11  -0.39    -0.04  -0.07   0.17
     8   6     0.03   0.01   0.01    -0.02   0.02   0.02    -0.00   0.00  -0.02
     9   1     0.08  -0.04   0.15     0.41   0.06  -0.13     0.29   0.15   0.17
    10   1     0.17  -0.06  -0.16    -0.14   0.11  -0.39     0.04   0.07   0.17
    11   6    -0.05   0.02   0.02    -0.01   0.04   0.05     0.02  -0.03  -0.06
    12   1    -0.06  -0.21  -0.07     0.03   0.05  -0.19     0.06   0.12   0.31
    13   1    -0.15   0.12  -0.23    -0.20   0.10  -0.16    -0.37   0.08   0.13
    14   1     0.25  -0.16   0.42     0.09   0.06  -0.01     0.05   0.05   0.23
                     22                     23                     24
                      A                      A                      A
 Frequencies --    141.0771               171.5350               176.6597
 Red. masses --      1.1698                 1.6105                 1.6864
 Frc consts  --      0.0137                 0.0279                 0.0310
 IR Inten    --    407.3141                60.0996                 7.1906
  Atom  AN      X      Y      Z        X      Y      Z        X      Y      Z
     1   6    -0.07  -0.04   0.00    -0.07   0.14   0.03     0.06  -0.16   0.01
     2   1     0.24   0.19  -0.11     0.14  -0.02   0.00     0.06  -0.21   0.23
     3   1     0.23   0.27   0.07    -0.02  -0.00  -0.01    -0.03   0.01  -0.21
     4   1     0.05   0.17  -0.03     0.25   0.11  -0.45     0.31  -0.01  -0.21
     5   6    -0.02  -0.03  -0.00     0.00   0.01   0.02    -0.00   0.00   0.01
     6   1     0.26   0.06  -0.13     0.23  -0.32  -0.10     0.28  -0.20  -0.18
     7   1     0.29   0.15  -0.18    -0.05   0.08  -0.06    -0.07  -0.00   0.16
     8   6    -0.02  -0.03   0.00    -0.00  -0.01   0.02     0.00  -0.00   0.01
     9   1     0.26   0.06   0.13    -0.23   0.32  -0.10    -0.28   0.20  -0.18
    10   1     0.29   0.15   0.18     0.05  -0.08  -0.06     0.07   0.00   0.16
    11   6    -0.07  -0.04  -0.00     0.07  -0.14   0.03    -0.06   0.16   0.01
    12   1     0.24   0.19   0.11    -0.14   0.02   0.00    -0.06   0.21   0.23
    13   1     0.05   0.17   0.03    -0.25  -0.11  -0.45    -0.31   0.01  -0.21
    14   1     0.23   0.27  -0.07     0.02   0.00  -0.01     0.03  -0.01  -0.21
                     25                     26                     27
                      A                      A                      A
 Frequencies --    177.6825               182.7024               206.8737
 Red. masses --      1.0566                 1.0297                 1.1329
 Frc consts  --      0.0197                 0.0203                 0.0286
 IR Inten    --    128.2670                 8.1786                26.6718
  Atom  AN      X      Y      Z        X      Y      Z        X      Y      Z
     1   6    -0.04  -0.00   0.00     0.00  -0.02  -0.01     0.02  -0.07  -0.03
     2   1     0.01  -0.01   0.15    -0.03  -0.00  -0.08     0.08   0.19  -0.00
     3   1     0.31  -0.21   0.14    -0.22   0.23  -0.08    -0.04   0.00   0.44
     4   1     0.38  -0.10  -0.01    -0.03  -0.24   0.16    -0.05   0.34  -0.11
     5   6    -0.02   0.01  -0.00     0.01   0.01   0.01    -0.00   0.01  -0.00
     6   1     0.16   0.18   0.18     0.40   0.07  -0.17     0.08  -0.16   0.22
     7   1    -0.15   0.05   0.22    -0.22   0.08   0.23     0.07   0.08  -0.20
     8   6    -0.02   0.01   0.00     0.01   0.01  -0.01     0.00  -0.01  -0.00
     9   1     0.16   0.18  -0.18     0.40   0.07   0.17    -0.08   0.16   0.22
    10   1    -0.15   0.05  -0.22    -0.22   0.08  -0.23    -0.07  -0.08  -0.20
    11   6    -0.04  -0.00  -0.00     0.00  -0.02   0.01    -0.02   0.07  -0.03
    12   1     0.01  -0.01  -0.15    -0.03  -0.00   0.08    -0.08  -0.19  -0.00
    13   1     0.38  -0.10   0.01    -0.03  -0.24  -0.16     0.05  -0.34  -0.11
    14   1     0.31  -0.21  -0.14    -0.22   0.23   0.08     0.04  -0.00   0.44
                     28                     29                     30
                      A                      A                      A
 Frequencies --    217.1422               245.7425               268.2085
 Red. masses --      1.0181                 1.0193                 1.0099
 Frc consts  --      0.0283                 0.0363                 0.0428
 IR Inten    --     22.0032                 0.5358                 1.4950
  Atom  AN      X      Y      Z        X      Y      Z        X      Y      Z
     1   6    -0.00  -0.01  -0.01    -0.00   0.02  -0.01     0.00  -0.00  -0.01
     2   1    -0.02  -0.20   0.09     0.08  -0.27   0.30     0.11  -0.13   0.29
     3   1    -0.04   0.35  -0.19     0.09   0.04  -0.19     0.07   0.17  -0.21
     4   1     0.17   0.09  -0.33    -0.12   0.17  -0.09    -0.05   0.04  -0.07
     5   6    -0.00  -0.01  -0.01    -0.00   0.01   0.00    -0.00  -0.00  -0.00
     6   1    -0.15   0.22  -0.03     0.02   0.13   0.24     0.10  -0.24   0.26
     7   1     0.06  -0.17   0.19     0.22  -0.25  -0.21    -0.26   0.22  -0.22
     8   6    -0.00  -0.01   0.01     0.00  -0.01   0.00    -0.00  -0.00   0.00
     9   1    -0.15   0.22   0.03    -0.02  -0.13   0.24     0.10  -0.24  -0.26
    10   1     0.06  -0.17  -0.19    -0.22   0.25  -0.21    -0.26   0.22   0.22
    11   6    -0.00  -0.01   0.01     0.00  -0.02  -0.01     0.00  -0.00   0.01
    12   1    -0.02  -0.20  -0.09    -0.08   0.27   0.30     0.11  -0.13  -0.29
    13   1     0.17   0.09   0.33     0.12  -0.17  -0.09    -0.05   0.04   0.07
    14   1    -0.04   0.35   0.19    -0.09  -0.04  -0.19     0.07   0.17   0.21
                     31                     32                     33
                      A                      A                      A
 Frequencies --    294.3876               294.9323               341.8049
 Red. masses --      1.0092                 1.0130                 1.0131
 Frc consts  --      0.0515                 0.0519                 0.0697
 IR Inten    --      0.0558                 4.4750                 4.6260
  Atom  AN      X      Y      Z        X      Y      Z        X      Y      Z
     1   6     0.00  -0.01   0.00    -0.01  -0.01   0.00     0.00  -0.01  -0.00
     2   1     0.05   0.11   0.03    -0.03   0.23  -0.22     0.05  -0.18   0.20
     3   1     0.12   0.02  -0.33     0.09   0.19  -0.24    -0.03   0.06   0.03
     4   1     0.00  -0.07   0.21     0.11  -0.28   0.17     0.00  -0.24   0.30
     5   6     0.00  -0.00  -0.00    -0.00   0.01   0.00     0.00   0.00   0.00
     6   1    -0.05  -0.34   0.27    -0.17  -0.10   0.34    -0.16   0.38  -0.04
     7   1    -0.05   0.28  -0.19     0.13  -0.06   0.05     0.10   0.11  -0.28
     8   6    -0.00   0.00  -0.00    -0.00   0.01  -0.00     0.00   0.00  -0.00
     9   1     0.05   0.34   0.27    -0.17  -0.10  -0.34    -0.16   0.38   0.04
    10   1     0.05  -0.28  -0.19     0.13  -0.06  -0.06     0.10   0.11   0.28
    11   6    -0.00   0.01   0.00    -0.01  -0.01  -0.00     0.00  -0.01   0.00
    12   1    -0.05  -0.12   0.03    -0.03   0.23   0.22     0.05  -0.18  -0.20
    13   1    -0.00   0.07   0.21     0.11  -0.28  -0.17     0.00  -0.24  -0.30
    14   1    -0.12  -0.02  -0.33     0.09   0.19   0.24    -0.03   0.06  -0.03
                     34                     35                     36
                      A                      A                      A
 Frequencies --    347.2141               360.6031               510.9426
 Red. masses --      1.0095                 1.0139                 1.0082
 Frc consts  --      0.0717                 0.0777                 0.1551
 IR Inten    --      1.9140                 3.3022                 0.0000
  Atom  AN      X      Y      Z        X      Y      Z        X      Y      Z
     1   6     0.00   0.00   0.01     0.01  -0.01   0.01     0.00  -0.00  -0.00
     2   1     0.03  -0.17   0.23    -0.08   0.14  -0.12     0.01  -0.02  -0.00
     3   1    -0.00  -0.03   0.05     0.10  -0.06  -0.22     0.42  -0.55   0.08
     4   1    -0.06   0.10  -0.08     0.01   0.30  -0.28    -0.00  -0.05   0.00
     5   6    -0.00   0.00   0.00     0.00   0.00   0.00     0.00  -0.00   0.00
     6   1    -0.16   0.24  -0.13    -0.30   0.05   0.18     0.06  -0.01  -0.05
     7   1    -0.32   0.40  -0.16    -0.08  -0.01   0.32     0.02  -0.02  -0.03
     8   6     0.00  -0.00   0.00    -0.00  -0.00   0.00    -0.00   0.00   0.00
     9   1     0.16  -0.24  -0.13     0.30  -0.05   0.18    -0.06   0.01  -0.05
    10   1     0.32  -0.40  -0.16     0.08   0.01   0.32    -0.02   0.02  -0.03
    11   6    -0.00  -0.00   0.01    -0.01   0.01   0.01    -0.00   0.00  -0.00
    12   1    -0.03   0.17   0.23     0.08  -0.14  -0.12    -0.01   0.02  -0.00
    13   1     0.06  -0.10  -0.08    -0.01  -0.30  -0.28     0.00   0.05   0.00
    14   1     0.00   0.03   0.05    -0.10   0.06  -0.22    -0.42   0.55   0.08

 -------------------
 - Thermochemistry -
 -------------------
 Temperature   298.150 Kelvin.  Pressure      1.00000 Atm.
 Atom     1 has atomic number  6 and mass  12.00000
 Atom     2 has atomic number  1 and mass   1.00783
 Atom     3 has atomic number  1 and mass   1.00783
 Atom     4 has atomic number  1 and mass   1.00783
 Atom     5 has atomic number  6 and mass  12.00000
 Atom     6 has atomic number  1 and mass   1.00783
 Atom     7 has atomic number  1 and mass   1.00783
 Atom     8 has atomic number  6 and mass  12.00000
 Atom     9 has atomic number  1 and mass   1.00783
 Atom    10 has atomic number  1 and mass   1.00783
 Atom    11 has atomic number  6 and mass  12.00000
 Atom    12 has atomic number  1 and mass   1.00783
 Atom    13 has atomic number  1 and mass   1.00783
 Atom    14 has atomic number  1 and mass   1.00783
 Molecular mass:    58.07825 amu.
 Principal axes and moments of inertia in atomic units:
                                 1                 2                 3
     Eigenvalues --          138.183360        370.788504        439.629534
           X                  -0.453468          0.000000          0.891272
           Y                   0.891272          0.000000          0.453468
           Z                   0.000000          1.000000          0.000000
 This molecule is an asymmetric top.
 Rotational symmetry number  2.
 Rotational temperatures (Kelvin)      0.62680     0.23359     0.19702
 Rotational constants (GHZ):          13.06048     4.86731     4.10514
   13 imaginary frequencies ignored.
 Zero-point vibrational energy      26650.1 (Joules/Mol)
                                    6.36954 (Kcal/Mol)
 Warning -- explicit consideration of  23 degrees of freedom as
           vibrations may cause significant error
 Vibrational temperatures:     35.15    38.67    53.01    60.75    76.42
          (Kelvin)            132.80   156.10   192.47   202.98   246.80
                              254.17   255.65   262.87   297.65   312.42
                              353.57   385.89   423.56   424.34   491.78
                              499.56   518.83   735.13
 
 Zero-point correction=                           0.010151 (Hartree/Particle)
 Thermal correction to Energy=                    0.026681
 Thermal correction to Enthalpy=                  0.027625
 Thermal correction to Gibbs Free Energy=        -0.031944
 Sum of electronic and zero-point Energies=              0.048515
 Sum of electronic and thermal Energies=                 0.065045
 Sum of electronic and thermal Enthalpies=               0.065990
 Sum of electronic and thermal Free Energies=            0.006420
 
                     E (Thermal)             CV                S
                      KCal/Mol        Cal/Mol-Kelvin    Cal/Mol-Kelvin
 Total                   16.742             47.546            125.374
 Electronic               0.000              0.000              0.000
 Translational            0.889              2.981             38.098
 Rotational               0.889              2.981             23.247
 Vibrational             14.965             41.584             64.029
 Vibration     1          0.593              1.985              6.237
 Vibration     2          0.593              1.984              6.048
 Vibration     3          0.594              1.982              5.422
 Vibration     4          0.595              1.980              5.152
 Vibration     5          0.596              1.976              4.698
 Vibration     6          0.602              1.955              3.611
 Vibration     7          0.606              1.942              3.296
 Vibration     8          0.613              1.920              2.891
 Vibration     9          0.615              1.912              2.789
 Vibration    10          0.626              1.878              2.419
 Vibration    11          0.628              1.871              2.363
 Vibration    12          0.628              1.870              2.353
 Vibration    13          0.630              1.863              2.301
 Vibration    14          0.641              1.830              2.071
 Vibration    15          0.646              1.815              1.983
 Vibration    16          0.660              1.770              1.761
 Vibration    17          0.673              1.732              1.608
 Vibration    18          0.689              1.684              1.449
 Vibration    19          0.689              1.683              1.445
 Vibration    20          0.721              1.592              1.204
 Vibration    21          0.725              1.581              1.179
 Vibration    22          0.735              1.553              1.120
 Vibration    23          0.866              1.226              0.631
                       Q            Log10(Q)             Ln(Q)
 Total Bot       0.493651D+15         14.693420         33.832851
 Total V=0       0.230316D+20         19.362324         44.583398
 Vib (Bot)       0.105632D+04          3.023796          6.962548
 Vib (Bot)    1  0.847809D+01          0.928298          2.137485
 Vib (Bot)    2  0.770529D+01          0.886789          2.041908
 Vib (Bot)    3  0.561746D+01          0.749540          1.725879
 Vib (Bot)    4  0.489954D+01          0.690156          1.589142
 Vib (Bot)    5  0.389098D+01          0.590059          1.358661
 Vib (Bot)    6  0.222661D+01          0.347644          0.800480
 Vib (Bot)    7  0.188833D+01          0.276078          0.635693
 Vib (Bot)    8  0.152252D+01          0.182563          0.420367
 Vib (Bot)    9  0.144089D+01          0.158630          0.365259
 Vib (Bot)   10  0.117425D+01          0.069759          0.160627
 Vib (Bot)   11  0.113823D+01          0.056231          0.129477
 Vib (Bot)   12  0.113129D+01          0.053573          0.123357
 Vib (Bot)   13  0.109830D+01          0.040721          0.093763
 Vib (Bot)   14  0.961278D+00         -0.017151         -0.039491
 Vib (Bot)   15  0.912025D+00         -0.039993         -0.092088
 Vib (Bot)   16  0.795802D+00         -0.099195         -0.228405
 Vib (Bot)   17  0.721220D+00         -0.141932         -0.326812
 Vib (Bot)   18  0.648033D+00         -0.188403         -0.433813
 Vib (Bot)   19  0.646641D+00         -0.189337         -0.435963
 Vib (Bot)   20  0.542627D+00         -0.265498         -0.611333
 Vib (Bot)   21  0.532329D+00         -0.273820         -0.630494
 Vib (Bot)   22  0.508084D+00         -0.294064         -0.677108
 Vib (Bot)   23  0.318529D+00         -0.496851         -1.144042
 Vib (V=0)       0.492833D+08          7.692699         17.713095
 Vib (V=0)    1  0.899282D+01          0.953896          2.196426
 Vib (V=0)    2  0.822150D+01          0.914951          2.106753
 Vib (V=0)    3  0.613967D+01          0.788145          1.814770
 Vib (V=0)    4  0.542499D+01          0.734399          1.691016
 Vib (V=0)    5  0.442297D+01          0.645714          1.486812
 Vib (V=0)    6  0.278206D+01          0.444366          1.023191
 Vib (V=0)    7  0.245341D+01          0.389769          0.897477
 Vib (V=0)    8  0.210252D+01          0.322740          0.743137
 Vib (V=0)    9  0.202517D+01          0.306462          0.705656
 Vib (V=0)   10  0.177627D+01          0.249508          0.574513
 Vib (V=0)   11  0.174321D+01          0.241350          0.555729
 Vib (V=0)   12  0.173686D+01          0.239764          0.552077
 Vib (V=0)   13  0.170676D+01          0.232172          0.534595
 Vib (V=0)   14  0.158354D+01          0.199629          0.459662
 Vib (V=0)   15  0.154009D+01          0.187546          0.431842
 Vib (V=0)   16  0.143984D+01          0.158314          0.364532
 Vib (V=0)   17  0.137759D+01          0.139119          0.320333
 Vib (V=0)   18  0.131850D+01          0.120081          0.276497
 Vib (V=0)   19  0.131740D+01          0.119718          0.275661
 Vib (V=0)   20  0.123786D+01          0.092673          0.213388
 Vib (V=0)   21  0.123032D+01          0.090020          0.207278
 Vib (V=0)   22  0.121285D+01          0.083806          0.192970
 Vib (V=0)   23  0.109284D+01          0.038557          0.088781
 Electronic      0.100000D+01          0.000000          0.000000
 Translational   0.173970D+08          7.240474         16.671808
 Rotational      0.268627D+05          4.429150         10.198495
                           ----------------------------
                           ! Normal Mode     1        !
 --------------------------                            --------------------------
 ! Name  Definition              Value          Relative Weight (%)             !
 --------------------------------------------------------------------------------
 ! R2    R(1,3)                 -0.0503                  0.8                    !
 ! R3    R(1,4)                 -0.0419                  0.7                    !
 ! R6    R(5,7)                  0.3673                  5.9                    !
 ! R9    R(8,10)                 0.3673                  5.9                    !
 ! R12   R(11,13)               -0.0419                  0.7                    !
 ! R13   R(11,14)               -0.0503                  0.8                    !
 ! A2    A(2,1,4)                0.0869                  1.4                    !
 ! A4    A(3,1,4)               -0.0773                  1.3                    !
 ! A8    A(1,5,7)               -0.1158                  1.9                    !
 ! A10   A(6,5,7)                0.2708                  4.4                    !
 ! A12   A(7,5,8)               -0.1396                  2.3                    !
 ! A14   A(5,8,10)              -0.1396                  2.3                    !
 ! A16   A(9,8,10)               0.2708                  4.4                    !
 ! A18   A(10,8,11)             -0.1158                  1.9                    !
 ! A22   A(12,11,13)             0.0869                  1.4                    !
 ! A24   A(13,11,14)            -0.0772                  1.2                    !
 ! D1    D(2,1,5,6)             -0.0503                  0.8                    !
 ! D2    D(2,1,5,7)             -0.2933                  4.7                    !
 ! D5    D(3,1,5,7)             -0.2807                  4.5                    !
 ! D7    D(4,1,5,6)              0.0465                  0.8                    !
 ! D8    D(4,1,5,7)             -0.1965                  3.2                    !
 ! D9    D(4,1,5,8)              0.0633                  1.0                    !
 ! D11   D(1,5,8,10)             0.2598                  4.2                    !
 ! D14   D(6,5,8,10)             0.2449                  4.0                    !
 ! D16   D(7,5,8,9)              0.2449                  4.0                    !
 ! D17   D(7,5,8,10)             0.506                   8.2                    !
 ! D18   D(7,5,8,11)             0.2598                  4.2                    !
 ! D20   D(5,8,11,13)            0.0633                  1.0                    !
 ! D22   D(9,8,11,12)           -0.0503                  0.8                    !
 ! D23   D(9,8,11,13)            0.0465                  0.8                    !
 ! D25   D(10,8,11,12)          -0.2933                  4.7                    !
 ! D26   D(10,8,11,13)          -0.1965                  3.2                    !
 ! D27   D(10,8,11,14)          -0.2807                  4.5                    !
 --------------------------------------------------------------------------------
                           ----------------------------
                           ! Normal Mode     2        !
 --------------------------                            --------------------------
 ! Name  Definition              Value          Relative Weight (%)             !
 --------------------------------------------------------------------------------
 ! R1    R(1,2)                 -0.1184                  2.0                    !
 ! R2    R(1,3)                  0.0573                  1.0                    !
 ! R5    R(5,6)                  0.2696                  4.5                    !
 ! R6    R(5,7)                  0.4628                  7.7                    !
 ! R8    R(8,9)                 -0.2696                  4.5                    !
 ! R9    R(8,10)                -0.4628                  7.7                    !
 ! R11   R(11,12)                0.1184                  2.0                    !
 ! R13   R(11,14)               -0.0573                  1.0                    !
 ! A1    A(2,1,3)               -0.0563                  0.9                    !
 ! A2    A(2,1,4)                0.0929                  1.5                    !
 ! A3    A(2,1,5)                0.0539                  0.9                    !
 ! A4    A(3,1,4)               -0.1239                  2.1                    !
 ! A7    A(1,5,6)               -0.082                   1.4                    !
 ! A8    A(1,5,7)               -0.1813                  3.0                    !
 ! A10   A(6,5,7)                0.1744                  2.9                    !
 ! A12   A(7,5,8)                0.0857                  1.4                    !
 ! A14   A(5,8,10)              -0.0857                  1.4                    !
 ! A16   A(9,8,10)              -0.1744                  2.9                    !
 ! A17   A(9,8,11)               0.082                   1.4                    !
 ! A18   A(10,8,11)              0.1813                  3.0                    !
 ! A19   A(8,11,12)             -0.0539                  0.9                    !
 ! A22   A(12,11,13)            -0.0929                  1.5                    !
 ! A23   A(12,11,14)             0.0563                  0.9                    !
 ! A24   A(13,11,14)             0.1239                  2.1                    !
 ! D2    D(2,1,5,7)             -0.0918                  1.5                    !
 ! D3    D(2,1,5,8)             -0.0702                  1.2                    !
 ! D5    D(3,1,5,7)             -0.0543                  0.9                    !
 ! D7    D(4,1,5,6)              0.1429                  2.4                    !
 ! D8    D(4,1,5,7)              0.0824                  1.4                    !
 ! D9    D(4,1,5,8)              0.1041                  1.7                    !
 ! D10   D(1,5,8,9)              0.0937                  1.6                    !
 ! D11   D(1,5,8,10)            -0.1708                  2.8                    !
 ! D14   D(6,5,8,10)            -0.2646                  4.4                    !
 ! D15   D(6,5,8,11)            -0.0938                  1.6                    !
 ! D16   D(7,5,8,9)              0.2646                  4.4                    !
 ! D18   D(7,5,8,11)             0.1708                  2.8                    !
 ! D19   D(5,8,11,12)            0.0702                  1.2                    !
 ! D20   D(5,8,11,13)           -0.1041                  1.7                    !
 ! D23   D(9,8,11,13)           -0.1429                  2.4                    !
 ! D25   D(10,8,11,12)           0.0918                  1.5                    !
 ! D26   D(10,8,11,13)          -0.0824                  1.4                    !
 ! D27   D(10,8,11,14)           0.0543                  0.9                    !
 --------------------------------------------------------------------------------
                           ----------------------------
                           ! Normal Mode     3        !
 --------------------------                            --------------------------
 ! Name  Definition              Value          Relative Weight (%)             !
 --------------------------------------------------------------------------------
 ! R2    R(1,3)                 -0.3572                  5.7                    !
 ! R3    R(1,4)                  0.223                   3.6                    !
 ! R5    R(5,6)                 -0.0941                  1.5                    !
 ! R6    R(5,7)                 -0.04                    0.6                    !
 ! R8    R(8,9)                 -0.0941                  1.5                    !
 ! R9    R(8,10)                -0.04                    0.6                    !
 ! R12   R(11,13)                0.223                   3.6                    !
 ! R13   R(11,14)               -0.3572                  5.7                    !
 ! A1    A(2,1,3)                0.1657                  2.7                    !
 ! A2    A(2,1,4)               -0.0426                  0.7                    !
 ! A3    A(2,1,5)                0.0635                  1.0                    !
 ! A4    A(3,1,4)               -0.3214                  5.1                    !
 ! A5    A(3,1,5)                0.18                    2.9                    !
 ! A6    A(4,1,5)               -0.0571                  0.9                    !
 ! A7    A(1,5,6)               -0.0716                  1.1                    !
 ! A11   A(6,5,8)                0.0894                  1.4                    !
 ! A13   A(5,8,9)                0.0894                  1.4                    !
 ! A17   A(9,8,11)              -0.0716                  1.1                    !
 ! A19   A(8,11,12)              0.0635                  1.0                    !
 ! A20   A(8,11,13)             -0.0571                  0.9                    !
 ! A21   A(8,11,14)              0.18                    2.9                    !
 ! A22   A(12,11,13)            -0.0426                  0.7                    !
 ! A23   A(12,11,14)             0.1657                  2.7                    !
 ! A24   A(13,11,14)            -0.3214                  5.1                    !
 ! D1    D(2,1,5,6)              0.0635                  1.0                    !
 ! D2    D(2,1,5,7)              0.1143                  1.8                    !
 ! D3    D(2,1,5,8)              0.1252                  2.0                    !
 ! D4    D(3,1,5,6)             -0.3114                  5.0                    !
 ! D5    D(3,1,5,7)             -0.2606                  4.2                    !
 ! D6    D(3,1,5,8)             -0.2496                  4.0                    !
 ! D8    D(4,1,5,7)              0.0647                  1.0                    !
 ! D9    D(4,1,5,8)              0.0757                  1.2                    !
 ! D13   D(6,5,8,9)             -0.0437                  0.7                    !
 ! D19   D(5,8,11,12)            0.1252                  2.0                    !
 ! D20   D(5,8,11,13)            0.0757                  1.2                    !
 ! D21   D(5,8,11,14)           -0.2496                  4.0                    !
 ! D22   D(9,8,11,12)            0.0634                  1.0                    !
 ! D24   D(9,8,11,14)           -0.3114                  5.0                    !
 ! D25   D(10,8,11,12)           0.1142                  1.8                    !
 ! D26   D(10,8,11,13)           0.0647                  1.0                    !
 ! D27   D(10,8,11,14)          -0.2606                  4.2                    !
 --------------------------------------------------------------------------------
                           ----------------------------
                           ! Normal Mode     4        !
 --------------------------                            --------------------------
 ! Name  Definition              Value          Relative Weight (%)             !
 --------------------------------------------------------------------------------
 ! R1    R(1,2)                 -0.129                   1.9                    !
 ! R2    R(1,3)                 -0.4402                  6.6                    !
 ! R3    R(1,4)                 -0.0503                  0.8                    !
 ! R5    R(5,6)                  0.0945                  1.4                    !
 ! R6    R(5,7)                  0.2916                  4.4                    !
 ! R8    R(8,9)                 -0.0943                  1.4                    !
 ! R9    R(8,10)                -0.2916                  4.4                    !
 ! R11   R(11,12)                0.129                   1.9                    !
 ! R12   R(11,13)                0.0502                  0.8                    !
 ! R13   R(11,14)                0.4401                  6.6                    !
 ! A3    A(2,1,5)               -0.1488                  2.2                    !
 ! A4    A(3,1,4)                0.2236                  3.4                    !
 ! A6    A(4,1,5)               -0.0672                  1.0                    !
 ! A7    A(1,5,6)                0.1509                  2.3                    !
 ! A8    A(1,5,7)                0.0876                  1.3                    !
 ! A11   A(6,5,8)               -0.1001                  1.5                    !
 ! A12   A(7,5,8)               -0.1761                  2.6                    !
 ! A13   A(5,8,9)                0.1001                  1.5                    !
 ! A14   A(5,8,10)               0.1761                  2.6                    !
 ! A17   A(9,8,11)              -0.1509                  2.3                    !
 ! A18   A(10,8,11)             -0.0875                  1.3                    !
 ! A19   A(8,11,12)              0.1487                  2.2                    !
 ! A20   A(8,11,13)              0.0673                  1.0                    !
 ! A24   A(13,11,14)            -0.2236                  3.4                    !
 ! D2    D(2,1,5,7)             -0.1552                  2.3                    !
 ! D4    D(3,1,5,6)              0.1082                  1.6                    !
 ! D5    D(3,1,5,7)             -0.076                   1.1                    !
 ! D6    D(3,1,5,8)              0.088                   1.3                    !
 ! D7    D(4,1,5,6)             -0.1175                  1.8                    !
 ! D8    D(4,1,5,7)             -0.3016                  4.5                    !
 ! D9    D(4,1,5,8)             -0.1376                  2.1                    !
 ! D10   D(1,5,8,9)             -0.1194                  1.8                    !
 ! D14   D(6,5,8,10)             0.1029                  1.5                    !
 ! D15   D(6,5,8,11)             0.1193                  1.8                    !
 ! D16   D(7,5,8,9)             -0.103                   1.5                    !
 ! D20   D(5,8,11,13)            0.1376                  2.1                    !
 ! D21   D(5,8,11,14)           -0.0881                  1.3                    !
 ! D23   D(9,8,11,13)            0.1175                  1.8                    !
 ! D24   D(9,8,11,14)           -0.1081                  1.6                    !
 ! D25   D(10,8,11,12)           0.1552                  2.3                    !
 ! D26   D(10,8,11,13)           0.3016                  4.5                    !
 ! D27   D(10,8,11,14)           0.0759                  1.1                    !
 --------------------------------------------------------------------------------
                           ----------------------------
                           ! Normal Mode     5        !
 --------------------------                            --------------------------
 ! Name  Definition              Value          Relative Weight (%)             !
 --------------------------------------------------------------------------------
 ! R1    R(1,2)                 -0.1201                  1.8                    !
 ! R2    R(1,3)                  0.1075                  1.6                    !
 ! R3    R(1,4)                  0.2608                  3.9                    !
 ! R5    R(5,6)                 -0.3368                  5.1                    !
 ! R8    R(8,9)                 -0.3368                  5.1                    !
 ! R11   R(11,12)               -0.12                    1.8                    !
 ! R12   R(11,13)                0.2608                  3.9                    !
 ! R13   R(11,14)                0.1077                  1.6                    !
 ! A1    A(2,1,3)               -0.1118                  1.7                    !
 ! A2    A(2,1,4)                0.0955                  1.4                    !
 ! A3    A(2,1,5)                0.1051                  1.6                    !
 ! A6    A(4,1,5)               -0.078                   1.2                    !
 ! A7    A(1,5,6)                0.0913                  1.4                    !
 ! A8    A(1,5,7)               -0.0474                  0.7                    !
 ! A10   A(6,5,7)               -0.1931                  2.9                    !
 ! A11   A(6,5,8)                0.0832                  1.3                    !
 ! A12   A(7,5,8)                0.0486                  0.7                    !
 ! A13   A(5,8,9)                0.0832                  1.3                    !
 ! A14   A(5,8,10)               0.0487                  0.7                    !
 ! A16   A(9,8,10)              -0.1931                  2.9                    !
 ! A17   A(9,8,11)               0.0912                  1.4                    !
 ! A18   A(10,8,11)             -0.0474                  0.7                    !
 ! A19   A(8,11,12)              0.1051                  1.6                    !
 ! A20   A(8,11,13)             -0.078                   1.2                    !
 ! A22   A(12,11,13)             0.0954                  1.4                    !
 ! A23   A(12,11,14)            -0.1118                  1.7                    !
 ! D1    D(2,1,5,6)             -0.2232                  3.4                    !
 ! D3    D(2,1,5,8)             -0.0465                  0.7                    !
 ! D4    D(3,1,5,6)             -0.129                   1.9                    !
 ! D5    D(3,1,5,7)              0.0783                  1.2                    !
 ! D6    D(3,1,5,8)              0.0477                  0.7                    !
 ! D7    D(4,1,5,6)             -0.0858                  1.3                    !
 ! D8    D(4,1,5,7)              0.1215                  1.8                    !
 ! D9    D(4,1,5,8)              0.0908                  1.4                    !
 ! D10   D(1,5,8,9)              0.2                     3.0                    !
 ! D11   D(1,5,8,10)             0.0423                  0.6                    !
 ! D13   D(6,5,8,9)              0.3807                  5.8                    !
 ! D14   D(6,5,8,10)             0.2231                  3.4                    !
 ! D15   D(6,5,8,11)             0.2                     3.0                    !
 ! D16   D(7,5,8,9)              0.223                   3.4                    !
 ! D17   D(7,5,8,10)             0.0653                  1.0                    !
 ! D18   D(7,5,8,11)             0.0423                  0.6                    !
 ! D19   D(5,8,11,12)           -0.0465                  0.7                    !
 ! D20   D(5,8,11,13)            0.0909                  1.4                    !
 ! D21   D(5,8,11,14)            0.0476                  0.7                    !
 ! D22   D(9,8,11,12)           -0.2232                  3.4                    !
 ! D23   D(9,8,11,13)           -0.0858                  1.3                    !
 ! D24   D(9,8,11,14)           -0.129                   1.9                    !
 ! D26   D(10,8,11,13)           0.1216                  1.8                    !
 ! D27   D(10,8,11,14)           0.0784                  1.2                    !
 --------------------------------------------------------------------------------
                           ----------------------------
                           ! Normal Mode     6        !
 --------------------------                            --------------------------
 ! Name  Definition              Value          Relative Weight (%)             !
 --------------------------------------------------------------------------------
 ! R1    R(1,2)                 -0.5697                 13.5                    !
 ! R2    R(1,3)                 -0.1364                  3.2                    !
 ! R3    R(1,4)                 -0.1888                  4.5                    !
 ! R5    R(5,6)                  0.177                   4.2                    !
 ! R6    R(5,7)                  0.1457                  3.4                    !
 ! R7    R(5,8)                 -0.0316                  0.7                    !
 ! R8    R(8,9)                  0.1751                  4.1                    !
 ! R9    R(8,10)                 0.1469                  3.5                    !
 ! R11   R(11,12)               -0.5621                 13.3                    !
 ! R12   R(11,13)               -0.1883                  4.5                    !
 ! R13   R(11,14)               -0.1358                  3.2                    !
 ! A1    A(2,1,3)               -0.0729                  1.7                    !
 ! A2    A(2,1,4)               -0.0266                  0.6                    !
 ! A3    A(2,1,5)                0.0976                  2.3                    !
 ! A7    A(1,5,6)                0.0526                  1.2                    !
 ! A8    A(1,5,7)                0.03                    0.7                    !
 ! A10   A(6,5,7)               -0.0865                  2.0                    !
 ! A16   A(9,8,10)              -0.0848                  2.0                    !
 ! A17   A(9,8,11)               0.0532                  1.3                    !
 ! A18   A(10,8,11)              0.0288                  0.7                    !
 ! A19   A(8,11,12)              0.0958                  2.3                    !
 ! A23   A(12,11,14)            -0.0732                  1.7                    !
 ! D1    D(2,1,5,6)             -0.0544                  1.3                    !
 ! D3    D(2,1,5,8)             -0.0378                  0.9                    !
 ! D4    D(3,1,5,6)             -0.0273                  0.6                    !
 ! D5    D(3,1,5,7)              0.03                    0.7                    !
 ! D8    D(4,1,5,7)              0.0455                  1.1                    !
 ! D10   D(1,5,8,9)              0.0463                  1.1                    !
 ! D11   D(1,5,8,10)            -0.0573                  1.4                    !
 ! D13   D(6,5,8,9)              0.102                   2.4                    !
 ! D15   D(6,5,8,11)             0.0457                  1.1                    !
 ! D17   D(7,5,8,10)            -0.1068                  2.5                    !
 ! D18   D(7,5,8,11)            -0.0594                  1.4                    !
 ! D19   D(5,8,11,12)           -0.0387                  0.9                    !
 ! D22   D(9,8,11,12)           -0.0554                  1.3                    !
 ! D24   D(9,8,11,14)           -0.0268                  0.6                    !
 ! D26   D(10,8,11,13)           0.0439                  1.0                    !
 ! D27   D(10,8,11,14)           0.0288                  0.7                    !
 --------------------------------------------------------------------------------
                           ----------------------------
                           ! Normal Mode     7        !
 --------------------------                            --------------------------
 ! Name  Definition              Value          Relative Weight (%)             !
 --------------------------------------------------------------------------------
 ! R1    R(1,2)                 -0.5986                 11.1                    !
 ! R2    R(1,3)                 -0.0472                  0.9                    !
 ! R3    R(1,4)                 -0.0368                  0.7                    !
 ! R5    R(5,6)                  0.1477                  2.7                    !
 ! R6    R(5,7)                 -0.0898                  1.7                    !
 ! R8    R(8,9)                 -0.1501                  2.8                    !
 ! R9    R(8,10)                 0.0878                  1.6                    !
 ! R11   R(11,12)                0.6063                 11.2                    !
 ! R12   R(11,13)                0.0393                  0.7                    !
 ! R13   R(11,14)                0.0491                  0.9                    !
 ! A2    A(2,1,4)               -0.1232                  2.3                    !
 ! A3    A(2,1,5)                0.1428                  2.6                    !
 ! A6    A(4,1,5)               -0.0483                  0.9                    !
 ! A7    A(1,5,6)               -0.0435                  0.8                    !
 ! A8    A(1,5,7)                0.0972                  1.8                    !
 ! A10   A(6,5,7)               -0.1389                  2.6                    !
 ! A12   A(7,5,8)                0.0592                  1.1                    !
 ! A14   A(5,8,10)              -0.0594                  1.1                    !
 ! A16   A(9,8,10)               0.1401                  2.6                    !
 ! A17   A(9,8,11)               0.0428                  0.8                    !
 ! A18   A(10,8,11)             -0.0976                  1.8                    !
 ! A19   A(8,11,12)             -0.1441                  2.7                    !
 ! A20   A(8,11,13)              0.048                   0.9                    !
 ! A22   A(12,11,13)             0.1236                  2.3                    !
 ! D1    D(2,1,5,6)              0.0751                  1.4                    !
 ! D2    D(2,1,5,7)              0.2114                  3.9                    !
 ! D3    D(2,1,5,8)              0.0677                  1.3                    !
 ! D4    D(3,1,5,6)             -0.0451                  0.8                    !
 ! D5    D(3,1,5,7)              0.0911                  1.7                    !
 ! D6    D(3,1,5,8)             -0.0525                  1.0                    !
 ! D8    D(4,1,5,7)              0.1183                  2.2                    !
 ! D10   D(1,5,8,9)              0.0424                  0.8                    !
 ! D11   D(1,5,8,10)             0.1654                  3.1                    !
 ! D14   D(6,5,8,10)             0.1223                  2.3                    !
 ! D15   D(6,5,8,11)            -0.043                   0.8                    !
 ! D16   D(7,5,8,9)             -0.1223                  2.3                    !
 ! D18   D(7,5,8,11)            -0.1646                  3.0                    !
 ! D19   D(5,8,11,12)           -0.0672                  1.2                    !
 ! D21   D(5,8,11,14)            0.0527                  1.0                    !
 ! D22   D(9,8,11,12)           -0.0744                  1.4                    !
 ! D24   D(9,8,11,14)            0.0455                  0.8                    !
 ! D25   D(10,8,11,12)          -0.2114                  3.9                    !
 ! D26   D(10,8,11,13)          -0.1189                  2.2                    !
 ! D27   D(10,8,11,14)          -0.0915                  1.7                    !
 --------------------------------------------------------------------------------
                           ----------------------------
                           ! Normal Mode     8        !
 --------------------------                            --------------------------
 ! Name  Definition              Value          Relative Weight (%)             !
 --------------------------------------------------------------------------------
 ! R1    R(1,2)                  0.2303                  2.8                    !
 ! R2    R(1,3)                 -0.2043                  2.5                    !
 ! R3    R(1,4)                  0.3197                  3.9                    !
 ! R5    R(5,6)                  0.4341                  5.3                    !
 ! R6    R(5,7)                 -0.0809                  1.0                    !
 ! R8    R(8,9)                 -0.4341                  5.3                    !
 ! R9    R(8,10)                 0.0809                  1.0                    !
 ! R11   R(11,12)               -0.2303                  2.8                    !
 ! R12   R(11,13)               -0.3197                  3.9                    !
 ! R13   R(11,14)                0.2044                  2.5                    !
 ! A1    A(2,1,3)                0.1505                  1.8                    !
 ! A2    A(2,1,4)               -0.1011                  1.2                    !
 ! A4    A(3,1,4)                0.0556                  0.7                    !
 ! A5    A(3,1,5)                0.1006                  1.2                    !
 ! A6    A(4,1,5)               -0.1521                  1.9                    !
 ! A7    A(1,5,6)               -0.1802                  2.2                    !
 ! A8    A(1,5,7)                0.0786                  1.0                    !
 ! A12   A(7,5,8)                0.0888                  1.1                    !
 ! A14   A(5,8,10)              -0.0888                  1.1                    !
 ! A17   A(9,8,11)               0.1802                  2.2                    !
 ! A18   A(10,8,11)             -0.0786                  1.0                    !
 ! A20   A(8,11,13)              0.1521                  1.9                    !
 ! A21   A(8,11,14)             -0.1006                  1.2                    !
 ! A22   A(12,11,13)             0.1012                  1.2                    !
 ! A23   A(12,11,14)            -0.1505                  1.8                    !
 ! A24   A(13,11,14)            -0.0555                  0.7                    !
 ! D1    D(2,1,5,6)              0.3143                  3.8                    !
 ! D2    D(2,1,5,7)              0.3316                  4.0                    !
 ! D3    D(2,1,5,8)              0.1552                  1.9                    !
 ! D4    D(3,1,5,6)              0.089                   1.1                    !
 ! D5    D(3,1,5,7)              0.1063                  1.3                    !
 ! D6    D(3,1,5,8)             -0.0701                  0.9                    !
 ! D7    D(4,1,5,6)              0.0546                  0.7                    !
 ! D8    D(4,1,5,7)              0.0719                  0.9                    !
 ! D9    D(4,1,5,8)             -0.1044                  1.3                    !
 ! D10   D(1,5,8,9)              0.2445                  3.0                    !
 ! D11   D(1,5,8,10)             0.1704                  2.1                    !
 ! D14   D(6,5,8,10)            -0.0741                  0.9                    !
 ! D15   D(6,5,8,11)            -0.2445                  3.0                    !
 ! D16   D(7,5,8,9)              0.0741                  0.9                    !
 ! D18   D(7,5,8,11)            -0.1704                  2.1                    !
 ! D19   D(5,8,11,12)           -0.1553                  1.9                    !
 ! D20   D(5,8,11,13)            0.1045                  1.3                    !
 ! D21   D(5,8,11,14)            0.0701                  0.9                    !
 ! D22   D(9,8,11,12)           -0.3144                  3.8                    !
 ! D23   D(9,8,11,13)           -0.0547                  0.7                    !
 ! D24   D(9,8,11,14)           -0.089                   1.1                    !
 ! D25   D(10,8,11,12)          -0.3316                  4.0                    !
 ! D26   D(10,8,11,13)          -0.0719                  0.9                    !
 ! D27   D(10,8,11,14)          -0.1062                  1.3                    !
 --------------------------------------------------------------------------------
                           ----------------------------
                           ! Normal Mode     9        !
 --------------------------                            --------------------------
 ! Name  Definition              Value          Relative Weight (%)             !
 --------------------------------------------------------------------------------
 ! R1    R(1,2)                  0.2172                  2.9                    !
 ! R2    R(1,3)                 -0.1833                  2.5                    !
 ! R3    R(1,4)                 -0.255                   3.5                    !
 ! R6    R(5,7)                 -0.0653                  0.9                    !
 ! R9    R(8,10)                -0.0653                  0.9                    !
 ! R11   R(11,12)                0.2172                  2.9                    !
 ! R12   R(11,13)               -0.255                   3.5                    !
 ! R13   R(11,14)               -0.1832                  2.5                    !
 ! A1    A(2,1,3)               -0.1331                  1.8                    !
 ! A2    A(2,1,4)                0.3046                  4.1                    !
 ! A3    A(2,1,5)               -0.0787                  1.1                    !
 ! A4    A(3,1,4)               -0.1986                  2.7                    !
 ! A6    A(4,1,5)                0.0727                  1.0                    !
 ! A7    A(1,5,6)                0.13                    1.8                    !
 ! A10   A(6,5,7)               -0.1315                  1.8                    !
 ! A11   A(6,5,8)               -0.0884                  1.2                    !
 ! A12   A(7,5,8)                0.0705                  1.0                    !
 ! A13   A(5,8,9)               -0.0884                  1.2                    !
 ! A14   A(5,8,10)               0.0705                  1.0                    !
 ! A16   A(9,8,10)              -0.1315                  1.8                    !
 ! A17   A(9,8,11)               0.13                    1.8                    !
 ! A19   A(8,11,12)             -0.0787                  1.1                    !
 ! A20   A(8,11,13)              0.0727                  1.0                    !
 ! A22   A(12,11,13)             0.3046                  4.1                    !
 ! A23   A(12,11,14)            -0.1331                  1.8                    !
 ! A24   A(13,11,14)            -0.1986                  2.7                    !
 ! D1    D(2,1,5,6)             -0.2403                  3.3                    !
 ! D2    D(2,1,5,7)             -0.161                   2.2                    !
 ! D3    D(2,1,5,8)             -0.2586                  3.5                    !
 ! D6    D(3,1,5,8)             -0.059                   0.8                    !
 ! D7    D(4,1,5,6)              0.1388                  1.9                    !
 ! D8    D(4,1,5,7)              0.2181                  3.0                    !
 ! D9    D(4,1,5,8)              0.1204                  1.6                    !
 ! D10   D(1,5,8,9)              0.1149                  1.6                    !
 ! D11   D(1,5,8,10)            -0.0515                  0.7                    !
 ! D13   D(6,5,8,9)              0.2179                  2.9                    !
 ! D14   D(6,5,8,10)             0.0514                  0.7                    !
 ! D15   D(6,5,8,11)             0.1149                  1.6                    !
 ! D16   D(7,5,8,9)              0.0514                  0.7                    !
 ! D17   D(7,5,8,10)            -0.1151                  1.6                    !
 ! D18   D(7,5,8,11)            -0.0515                  0.7                    !
 ! D19   D(5,8,11,12)           -0.2587                  3.5                    !
 ! D20   D(5,8,11,13)            0.1204                  1.6                    !
 ! D21   D(5,8,11,14)           -0.059                   0.8                    !
 ! D22   D(9,8,11,12)           -0.2403                  3.3                    !
 ! D23   D(9,8,11,13)            0.1388                  1.9                    !
 ! D25   D(10,8,11,12)          -0.161                   2.2                    !
 ! D26   D(10,8,11,13)           0.2181                  3.0                    !
 --------------------------------------------------------------------------------
                           ----------------------------
                           ! Normal Mode    10        !
 --------------------------                            --------------------------
 ! Name  Definition              Value          Relative Weight (%)             !
 --------------------------------------------------------------------------------
 ! R1    R(1,2)                  0.0685                  1.0                    !
 ! R2    R(1,3)                  0.1474                  2.1                    !
 ! R3    R(1,4)                  0.3198                  4.5                    !
 ! R4    R(1,5)                 -0.1028                  1.4                    !
 ! R6    R(5,7)                  0.1284                  1.8                    !
 ! R9    R(8,10)                -0.1284                  1.8                    !
 ! R10   R(8,11)                 0.1028                  1.4                    !
 ! R11   R(11,12)               -0.0685                  1.0                    !
 ! R12   R(11,13)               -0.3199                  4.5                    !
 ! R13   R(11,14)               -0.1474                  2.1                    !
 ! A1    A(2,1,3)               -0.1791                  2.5                    !
 ! A2    A(2,1,4)               -0.2532                  3.5                    !
 ! A3    A(2,1,5)                0.0767                  1.1                    !
 ! A4    A(3,1,4)                0.2342                  3.3                    !
 ! A5    A(3,1,5)                0.0663                  0.9                    !
 ! A10   A(6,5,7)               -0.1498                  2.1                    !
 ! A11   A(6,5,8)                0.0808                  1.1                    !
 ! A12   A(7,5,8)                0.0651                  0.9                    !
 ! A13   A(5,8,9)               -0.0808                  1.1                    !
 ! A14   A(5,8,10)              -0.0651                  0.9                    !
 ! A16   A(9,8,10)               0.1498                  2.1                    !
 ! A19   A(8,11,12)             -0.0767                  1.1                    !
 ! A21   A(8,11,14)             -0.0663                  0.9                    !
 ! A22   A(12,11,13)             0.2533                  3.5                    !
 ! A23   A(12,11,14)             0.1791                  2.5                    !
 ! A24   A(13,11,14)            -0.2342                  3.3                    !
 ! D1    D(2,1,5,6)             -0.1514                  2.1                    !
 ! D5    D(3,1,5,7)              0.1495                  2.1                    !
 ! D6    D(3,1,5,8)              0.0927                  1.3                    !
 ! D7    D(4,1,5,6)             -0.3907                  5.4                    !
 ! D8    D(4,1,5,7)             -0.2202                  3.1                    !
 ! D9    D(4,1,5,8)             -0.277                   3.9                    !
 ! D10   D(1,5,8,9)             -0.0873                  1.2                    !
 ! D14   D(6,5,8,10)             0.0983                  1.4                    !
 ! D15   D(6,5,8,11)             0.0873                  1.2                    !
 ! D16   D(7,5,8,9)             -0.0983                  1.4                    !
 ! D20   D(5,8,11,13)            0.277                   3.9                    !
 ! D21   D(5,8,11,14)           -0.0927                  1.3                    !
 ! D22   D(9,8,11,12)            0.1514                  2.1                    !
 ! D23   D(9,8,11,13)            0.3907                  5.4                    !
 ! D26   D(10,8,11,13)           0.2202                  3.1                    !
 ! D27   D(10,8,11,14)          -0.1495                  2.1                    !
 --------------------------------------------------------------------------------
                           ----------------------------
                           ! Normal Mode    11        !
 --------------------------                            --------------------------
 ! Name  Definition              Value          Relative Weight (%)             !
 --------------------------------------------------------------------------------
 ! R1    R(1,2)                  0.1496                  2.5                    !
 ! R2    R(1,3)                  0.0898                  1.5                    !
 ! R3    R(1,4)                 -0.3048                  5.0                    !
 ! R4    R(1,5)                 -0.0421                  0.7                    !
 ! R6    R(5,7)                  0.227                   3.8                    !
 ! R9    R(8,10)                -0.227                   3.8                    !
 ! R10   R(8,11)                 0.0421                  0.7                    !
 ! R11   R(11,12)               -0.1496                  2.5                    !
 ! R12   R(11,13)                0.3048                  5.0                    !
 ! R13   R(11,14)               -0.0898                  1.5                    !
 ! A1    A(2,1,3)                0.2274                  3.8                    !
 ! A2    A(2,1,4)               -0.2866                  4.7                    !
 ! A6    A(4,1,5)                0.0991                  1.6                    !
 ! A8    A(1,5,7)                0.0704                  1.2                    !
 ! A10   A(6,5,7)               -0.07                    1.2                    !
 ! A11   A(6,5,8)                0.0793                  1.3                    !
 ! A12   A(7,5,8)               -0.0536                  0.9                    !
 ! A13   A(5,8,9)               -0.0793                  1.3                    !
 ! A14   A(5,8,10)               0.0536                  0.9                    !
 ! A16   A(9,8,10)               0.07                    1.2                    !
 ! A18   A(10,8,11)             -0.0704                  1.2                    !
 ! A20   A(8,11,13)             -0.0991                  1.6                    !
 ! A22   A(12,11,13)             0.2866                  4.7                    !
 ! A23   A(12,11,14)            -0.2274                  3.8                    !
 ! D1    D(2,1,5,6)              0.1982                  3.3                    !
 ! D2    D(2,1,5,7)              0.2541                  4.2                    !
 ! D3    D(2,1,5,8)              0.2785                  4.6                    !
 ! D4    D(3,1,5,6)             -0.0732                  1.2                    !
 ! D7    D(4,1,5,6)             -0.1212                  2.0                    !
 ! D8    D(4,1,5,7)             -0.0653                  1.1                    !
 ! D9    D(4,1,5,8)             -0.0409                  0.7                    !
 ! D11   D(1,5,8,10)             0.0449                  0.7                    !
 ! D14   D(6,5,8,10)             0.0694                  1.1                    !
 ! D16   D(7,5,8,9)             -0.0694                  1.1                    !
 ! D18   D(7,5,8,11)            -0.0449                  0.7                    !
 ! D19   D(5,8,11,12)           -0.2785                  4.6                    !
 ! D20   D(5,8,11,13)            0.0409                  0.7                    !
 ! D22   D(9,8,11,12)           -0.1982                  3.3                    !
 ! D23   D(9,8,11,13)            0.1212                  2.0                    !
 ! D24   D(9,8,11,14)            0.0732                  1.2                    !
 ! D25   D(10,8,11,12)          -0.2541                  4.2                    !
 ! D26   D(10,8,11,13)           0.0653                  1.1                    !
 --------------------------------------------------------------------------------
                           ----------------------------
                           ! Normal Mode    12        !
 --------------------------                            --------------------------
 ! Name  Definition              Value          Relative Weight (%)             !
 --------------------------------------------------------------------------------
 ! R1    R(1,2)                  0.0486                  0.9                    !
 ! R3    R(1,4)                 -0.2909                  5.4                    !
 ! R4    R(1,5)                 -0.0361                  0.7                    !
 ! R5    R(5,6)                  0.0576                  1.1                    !
 ! R6    R(5,7)                 -0.035                   0.6                    !
 ! R7    R(5,8)                  0.0448                  0.8                    !
 ! R8    R(8,9)                  0.0576                  1.1                    !
 ! R9    R(8,10)                -0.035                   0.6                    !
 ! R10   R(8,11)                -0.0361                  0.7                    !
 ! R11   R(11,12)                0.0485                  0.9                    !
 ! R12   R(11,13)               -0.2909                  5.4                    !
 ! A1    A(2,1,3)                0.1761                  3.3                    !
 ! A2    A(2,1,4)               -0.0727                  1.3                    !
 ! A4    A(3,1,4)               -0.1289                  2.4                    !
 ! A8    A(1,5,7)                0.0683                  1.3                    !
 ! A10   A(6,5,7)               -0.0942                  1.7                    !
 ! A16   A(9,8,10)              -0.0942                  1.7                    !
 ! A18   A(10,8,11)              0.0683                  1.3                    !
 ! A22   A(12,11,13)            -0.0726                  1.3                    !
 ! A23   A(12,11,14)             0.1761                  3.3                    !
 ! A24   A(13,11,14)            -0.1289                  2.4                    !
 ! D1    D(2,1,5,6)              0.2155                  4.0                    !
 ! D2    D(2,1,5,7)              0.2846                  5.3                    !
 ! D3    D(2,1,5,8)              0.229                   4.2                    !
 ! D5    D(3,1,5,7)              0.0634                  1.2                    !
 ! D7    D(4,1,5,6)              0.1418                  2.6                    !
 ! D8    D(4,1,5,7)              0.2109                  3.9                    !
 ! D9    D(4,1,5,8)              0.1553                  2.9                    !
 ! D10   D(1,5,8,9)              0.0808                  1.5                    !
 ! D12   D(1,5,8,11)             0.0621                  1.2                    !
 ! D13   D(6,5,8,9)              0.0994                  1.8                    !
 ! D15   D(6,5,8,11)             0.0808                  1.5                    !
 ! D17   D(7,5,8,10)            -0.1254                  2.3                    !
 ! D19   D(5,8,11,12)            0.229                   4.2                    !
 ! D20   D(5,8,11,13)            0.1554                  2.9                    !
 ! D22   D(9,8,11,12)            0.2154                  4.0                    !
 ! D23   D(9,8,11,13)            0.1418                  2.6                    !
 ! D25   D(10,8,11,12)           0.2846                  5.3                    !
 ! D26   D(10,8,11,13)           0.2109                  3.9                    !
 ! D27   D(10,8,11,14)           0.0634                  1.2                    !
 --------------------------------------------------------------------------------
                           ----------------------------
                           ! Normal Mode    13        !
 --------------------------                            --------------------------
 ! Name  Definition              Value          Relative Weight (%)             !
 --------------------------------------------------------------------------------
 ! R1    R(1,2)                  0.145                   2.5                    !
 ! R2    R(1,3)                 -0.3143                  5.3                    !
 ! R3    R(1,4)                 -0.2808                  4.8                    !
 ! R4    R(1,5)                 -0.0834                  1.4                    !
 ! R5    R(5,6)                  0.0409                  0.7                    !
 ! R6    R(5,7)                 -0.1193                  2.0                    !
 ! R8    R(8,9)                 -0.0408                  0.7                    !
 ! R9    R(8,10)                 0.1194                  2.0                    !
 ! R10   R(8,11)                 0.0833                  1.4                    !
 ! R11   R(11,12)               -0.1449                  2.5                    !
 ! R12   R(11,13)                0.2808                  4.8                    !
 ! R13   R(11,14)                0.3143                  5.3                    !
 ! A4    A(3,1,4)               -0.2006                  3.4                    !
 ! A5    A(3,1,5)                0.1148                  2.0                    !
 ! A6    A(4,1,5)                0.0924                  1.6                    !
 ! A8    A(1,5,7)                0.0799                  1.4                    !
 ! A9    A(1,5,8)               -0.0425                  0.7                    !
 ! A10   A(6,5,7)               -0.0858                  1.5                    !
 ! A12   A(7,5,8)                0.0582                  1.0                    !
 ! A14   A(5,8,10)              -0.0582                  1.0                    !
 ! A15   A(5,8,11)               0.0425                  0.7                    !
 ! A16   A(9,8,10)               0.0857                  1.5                    !
 ! A18   A(10,8,11)             -0.0799                  1.4                    !
 ! A20   A(8,11,13)             -0.0924                  1.6                    !
 ! A21   A(8,11,14)             -0.1149                  2.0                    !
 ! A24   A(13,11,14)             0.2006                  3.4                    !
 ! D1    D(2,1,5,6)             -0.1254                  2.1                    !
 ! D2    D(2,1,5,7)             -0.0548                  0.9                    !
 ! D3    D(2,1,5,8)             -0.1583                  2.7                    !
 ! D4    D(3,1,5,6)             -0.1761                  3.0                    !
 ! D5    D(3,1,5,7)             -0.1055                  1.8                    !
 ! D6    D(3,1,5,8)             -0.2091                  3.6                    !
 ! D7    D(4,1,5,6)             -0.0613                  1.0                    !
 ! D9    D(4,1,5,8)             -0.0942                  1.6                    !
 ! D10   D(1,5,8,9)              0.0509                  0.9                    !
 ! D11   D(1,5,8,10)             0.1156                  2.0                    !
 ! D14   D(6,5,8,10)             0.0647                  1.1                    !
 ! D15   D(6,5,8,11)            -0.0509                  0.9                    !
 ! D16   D(7,5,8,9)             -0.0647                  1.1                    !
 ! D18   D(7,5,8,11)            -0.1156                  2.0                    !
 ! D19   D(5,8,11,12)            0.1583                  2.7                    !
 ! D20   D(5,8,11,13)            0.0943                  1.6                    !
 ! D21   D(5,8,11,14)            0.2091                  3.6                    !
 ! D22   D(9,8,11,12)            0.1253                  2.1                    !
 ! D23   D(9,8,11,13)            0.0612                  1.0                    !
 ! D24   D(9,8,11,14)            0.176                   3.0                    !
 ! D25   D(10,8,11,12)           0.0549                  0.9                    !
 ! D27   D(10,8,11,14)           0.1056                  1.8                    !
 --------------------------------------------------------------------------------
                           ----------------------------
                           ! Normal Mode    14        !
 --------------------------                            --------------------------
 ! Name  Definition              Value          Relative Weight (%)             !
 --------------------------------------------------------------------------------
 ! R1    R(1,2)                 -0.0954                  1.1                    !
 ! R2    R(1,3)                  0.2299                  2.5                    !
 ! R3    R(1,4)                  0.1444                  1.6                    !
 ! R4    R(1,5)                 -0.1771                  2.0                    !
 ! R6    R(5,7)                 -0.3074                  3.4                    !
 ! R9    R(8,10)                 0.3077                  3.4                    !
 ! R10   R(8,11)                 0.1771                  2.0                    !
 ! R11   R(11,12)                0.0955                  1.1                    !
 ! R12   R(11,13)               -0.1443                  1.6                    !
 ! R13   R(11,14)               -0.2299                  2.5                    !
 ! A3    A(2,1,5)               -0.11                    1.2                    !
 ! A4    A(3,1,4)               -0.062                   0.7                    !
 ! A5    A(3,1,5)                0.0872                  1.0                    !
 ! A7    A(1,5,6)                0.0836                  0.9                    !
 ! A8    A(1,5,7)                0.1606                  1.8                    !
 ! A9    A(1,5,8)               -0.1196                  1.3                    !
 ! A10   A(6,5,7)                0.3345                  3.7                    !
 ! A11   A(6,5,8)               -0.2444                  2.7                    !
 ! A12   A(7,5,8)               -0.1864                  2.1                    !
 ! A13   A(5,8,9)                0.2445                  2.7                    !
 ! A14   A(5,8,10)               0.1866                  2.1                    !
 ! A15   A(5,8,11)               0.1198                  1.3                    !
 ! A16   A(9,8,10)              -0.3349                  3.7                    !
 ! A17   A(9,8,11)              -0.0836                  0.9                    !
 ! A18   A(10,8,11)             -0.1608                  1.8                    !
 ! A19   A(8,11,12)              0.1101                  1.2                    !
 ! A21   A(8,11,14)             -0.0873                  1.0                    !
 ! A24   A(13,11,14)             0.062                   0.7                    !
 ! D1    D(2,1,5,6)              0.349                   3.8                    !
 ! D2    D(2,1,5,7)             -0.1907                  2.1                    !
 ! D4    D(3,1,5,6)              0.3949                  4.4                    !
 ! D5    D(3,1,5,7)             -0.1447                  1.6                    !
 ! D6    D(3,1,5,8)              0.0588                  0.6                    !
 ! D7    D(4,1,5,6)              0.3772                  4.2                    !
 ! D8    D(4,1,5,7)             -0.1625                  1.8                    !
 ! D10   D(1,5,8,9)              0.1529                  1.7                    !
 ! D14   D(6,5,8,10)            -0.1618                  1.8                    !
 ! D15   D(6,5,8,11)            -0.1528                  1.7                    !
 ! D16   D(7,5,8,9)              0.1619                  1.8                    !
 ! D21   D(5,8,11,14)           -0.0589                  0.6                    !
 ! D22   D(9,8,11,12)           -0.3492                  3.9                    !
 ! D23   D(9,8,11,13)           -0.3774                  4.2                    !
 ! D24   D(9,8,11,14)           -0.3954                  4.4                    !
 ! D25   D(10,8,11,12)           0.191                   2.1                    !
 ! D26   D(10,8,11,13)           0.1628                  1.8                    !
 ! D27   D(10,8,11,14)           0.1449                  1.6                    !
 --------------------------------------------------------------------------------
                           ----------------------------
                           ! Normal Mode    15        !
 --------------------------                            --------------------------
 ! Name  Definition              Value          Relative Weight (%)             !
 --------------------------------------------------------------------------------
 ! R1    R(1,2)                  0.1074                  0.9                    !
 ! R6    R(5,7)                  0.2898                  2.4                    !
 ! R7    R(5,8)                 -1.0991                  9.2                    !
 ! R9    R(8,10)                 0.2888                  2.4                    !
 ! R11   R(11,12)                0.1071                  0.9                    !
 ! A1    A(2,1,3)                0.0857                  0.7                    !
 ! A3    A(2,1,5)                0.1978                  1.7                    !
 ! A4    A(3,1,4)               -0.1174                  1.0                    !
 ! A7    A(1,5,6)               -0.1323                  1.1                    !
 ! A8    A(1,5,7)               -0.1757                  1.5                    !
 ! A9    A(1,5,8)                0.2548                  2.1                    !
 ! A10   A(6,5,7)               -0.4254                  3.6                    !
 ! A11   A(6,5,8)                0.166                   1.4                    !
 ! A12   A(7,5,8)                0.2711                  2.3                    !
 ! A13   A(5,8,9)                0.1652                  1.4                    !
 ! A14   A(5,8,10)               0.2705                  2.3                    !
 ! A15   A(5,8,11)               0.2544                  2.1                    !
 ! A16   A(9,8,10)              -0.4245                  3.6                    !
 ! A17   A(9,8,11)              -0.1321                  1.1                    !
 ! A18   A(10,8,11)             -0.1751                  1.5                    !
 ! A19   A(8,11,12)              0.1975                  1.7                    !
 ! A23   A(12,11,14)             0.0856                  0.7                    !
 ! A24   A(13,11,14)            -0.1179                  1.0                    !
 ! D1    D(2,1,5,6)             -0.268                   2.3                    !
 ! D2    D(2,1,5,7)              0.4167                  3.5                    !
 ! D4    D(3,1,5,6)             -0.4754                  4.0                    !
 ! D5    D(3,1,5,7)              0.2092                  1.8                    !
 ! D6    D(3,1,5,8)             -0.183                   1.5                    !
 ! D7    D(4,1,5,6)             -0.254                   2.1                    !
 ! D8    D(4,1,5,7)              0.4307                  3.6                    !
 ! D10   D(1,5,8,9)              0.1718                  1.4                    !
 ! D11   D(1,5,8,10)            -0.0943                  0.8                    !
 ! D13   D(6,5,8,9)              0.2968                  2.5                    !
 ! D15   D(6,5,8,11)             0.1722                  1.4                    !
 ! D17   D(7,5,8,10)            -0.2356                  2.0                    !
 ! D18   D(7,5,8,11)            -0.0942                  0.8                    !
 ! D21   D(5,8,11,14)           -0.183                   1.5                    !
 ! D22   D(9,8,11,12)           -0.2671                  2.2                    !
 ! D23   D(9,8,11,13)           -0.2529                  2.1                    !
 ! D24   D(9,8,11,14)           -0.4745                  4.0                    !
 ! D25   D(10,8,11,12)           0.416                   3.5                    !
 ! D26   D(10,8,11,13)           0.4302                  3.6                    !
 ! D27   D(10,8,11,14)           0.2087                  1.8                    !
 --------------------------------------------------------------------------------
                           ----------------------------
                           ! Normal Mode    16        !
 --------------------------                            --------------------------
 ! Name  Definition              Value          Relative Weight (%)             !
 --------------------------------------------------------------------------------
 ! R1    R(1,2)                  0.1728                  1.3                    !
 ! R4    R(1,5)                  0.6816                  5.2                    !
 ! R5    R(5,6)                 -0.1673                  1.3                    !
 ! R6    R(5,7)                 -0.2348                  1.8                    !
 ! R8    R(8,9)                  0.167                   1.3                    !
 ! R9    R(8,10)                 0.2348                  1.8                    !
 ! R10   R(8,11)                -0.6814                  5.2                    !
 ! R11   R(11,12)               -0.1727                  1.3                    !
 ! A1    A(2,1,3)                0.141                   1.1                    !
 ! A3    A(2,1,5)               -0.2575                  2.0                    !
 ! A4    A(3,1,4)                0.1817                  1.4                    !
 ! A7    A(1,5,6)               -0.2368                  1.8                    !
 ! A8    A(1,5,7)               -0.0979                  0.7                    !
 ! A9    A(1,5,8)               -0.4339                  3.3                    !
 ! A10   A(6,5,7)                0.3367                  2.6                    !
 ! A11   A(6,5,8)                0.0849                  0.6                    !
 ! A12   A(7,5,8)                0.3983                  3.0                    !
 ! A13   A(5,8,9)               -0.0847                  0.6                    !
 ! A14   A(5,8,10)              -0.3985                  3.0                    !
 ! A15   A(5,8,11)               0.4338                  3.3                    !
 ! A16   A(9,8,10)              -0.3366                  2.6                    !
 ! A17   A(9,8,11)               0.237                   1.8                    !
 ! A18   A(10,8,11)              0.0977                  0.7                    !
 ! A19   A(8,11,12)              0.2574                  2.0                    !
 ! A23   A(12,11,14)            -0.1411                  1.1                    !
 ! A24   A(13,11,14)            -0.1817                  1.4                    !
 ! D1    D(2,1,5,6)              0.1943                  1.5                    !
 ! D3    D(2,1,5,8)             -0.1686                  1.3                    !
 ! D4    D(3,1,5,6)              0.1584                  1.2                    !
 ! D6    D(3,1,5,8)             -0.2044                  1.6                    !
 ! D8    D(4,1,5,7)             -0.2854                  2.2                    !
 ! D9    D(4,1,5,8)             -0.4327                  3.3                    !
 ! D10   D(1,5,8,9)              0.5389                  4.1                    !
 ! D11   D(1,5,8,10)            -0.1289                  1.0                    !
 ! D14   D(6,5,8,10)            -0.6678                  5.1                    !
 ! D15   D(6,5,8,11)            -0.5391                  4.1                    !
 ! D16   D(7,5,8,9)              0.668                   5.1                    !
 ! D18   D(7,5,8,11)             0.1289                  1.0                    !
 ! D19   D(5,8,11,12)            0.1687                  1.3                    !
 ! D20   D(5,8,11,13)            0.433                   3.3                    !
 ! D21   D(5,8,11,14)            0.2048                  1.6                    !
 ! D22   D(9,8,11,12)           -0.1944                  1.5                    !
 ! D24   D(9,8,11,14)           -0.1584                  1.2                    !
 ! D26   D(10,8,11,13)           0.2853                  2.2                    !
 --------------------------------------------------------------------------------
                           ----------------------------
                           ! Normal Mode    17        !
 --------------------------                            --------------------------
 ! Name  Definition              Value          Relative Weight (%)             !
 --------------------------------------------------------------------------------
 ! R1    R(1,2)                 -0.1759                  1.2                    !
 ! R3    R(1,4)                  0.2546                  1.7                    !
 ! R4    R(1,5)                 -0.1114                  0.8                    !
 ! R5    R(5,6)                  0.4936                  3.3                    !
 ! R6    R(5,7)                 -0.3205                  2.2                    !
 ! R8    R(8,9)                  0.4937                  3.3                    !
 ! R9    R(8,10)                -0.3202                  2.2                    !
 ! R10   R(8,11)                -0.1116                  0.8                    !
 ! R11   R(11,12)               -0.1759                  1.2                    !
 ! R12   R(11,13)                0.2546                  1.7                    !
 ! A5    A(3,1,5)                0.2248                  1.5                    !
 ! A6    A(4,1,5)               -0.3187                  2.2                    !
 ! A7    A(1,5,6)               -0.2833                  1.9                    !
 ! A8    A(1,5,7)                0.3081                  2.1                    !
 ! A9    A(1,5,8)                0.2071                  1.4                    !
 ! A11   A(6,5,8)               -0.4269                  2.9                    !
 ! A12   A(7,5,8)                0.1841                  1.2                    !
 ! A13   A(5,8,9)               -0.4268                  2.9                    !
 ! A14   A(5,8,10)               0.184                   1.2                    !
 ! A15   A(5,8,11)               0.2073                  1.4                    !
 ! A17   A(9,8,11)              -0.2832                  1.9                    !
 ! A18   A(10,8,11)              0.3081                  2.1                    !
 ! A20   A(8,11,13)             -0.3187                  2.2                    !
 ! A21   A(8,11,14)              0.2248                  1.5                    !
 ! D1    D(2,1,5,6)              0.2906                  2.0                    !
 ! D2    D(2,1,5,7)              0.2731                  1.8                    !
 ! D3    D(2,1,5,8)             -0.3245                  2.2                    !
 ! D6    D(3,1,5,8)             -0.5627                  3.8                    !
 ! D9    D(4,1,5,8)             -0.5965                  4.0                    !
 ! D10   D(1,5,8,9)              0.1964                  1.3                    !
 ! D12   D(1,5,8,11)             0.7308                  4.9                    !
 ! D13   D(6,5,8,9)             -0.3383                  2.3                    !
 ! D14   D(6,5,8,10)            -0.4695                  3.2                    !
 ! D15   D(6,5,8,11)             0.1961                  1.3                    !
 ! D16   D(7,5,8,9)             -0.4691                  3.2                    !
 ! D17   D(7,5,8,10)            -0.6004                  4.1                    !
 ! D19   D(5,8,11,12)           -0.3244                  2.2                    !
 ! D20   D(5,8,11,13)           -0.5963                  4.0                    !
 ! D21   D(5,8,11,14)           -0.5626                  3.8                    !
 ! D22   D(9,8,11,12)            0.2904                  2.0                    !
 ! D25   D(10,8,11,12)           0.2732                  1.8                    !
 --------------------------------------------------------------------------------
                           ----------------------------
                           ! Normal Mode    18        !
 --------------------------                            --------------------------
 ! Name  Definition              Value          Relative Weight (%)             !
 --------------------------------------------------------------------------------
 ! R2    R(1,3)                 -0.2141                  2.1                    !
 ! R3    R(1,4)                 -0.2054                  2.0                    !
 ! R4    R(1,5)                  0.7653                  7.4                    !
 ! R5    R(5,6)                 -0.1382                  1.3                    !
 ! R6    R(5,7)                 -0.2918                  2.8                    !
 ! R7    R(5,8)                 -0.401                   3.9                    !
 ! R8    R(8,9)                 -0.1382                  1.3                    !
 ! R9    R(8,10)                -0.2918                  2.8                    !
 ! R10   R(8,11)                 0.7654                  7.4                    !
 ! R12   R(11,13)               -0.2054                  2.0                    !
 ! R13   R(11,14)               -0.2141                  2.1                    !
 ! A1    A(2,1,3)                0.0887                  0.9                    !
 ! A2    A(2,1,4)                0.0663                  0.6                    !
 ! A3    A(2,1,5)               -0.1532                  1.5                    !
 ! A4    A(3,1,4)                0.1064                  1.0                    !
 ! A6    A(4,1,5)               -0.1267                  1.2                    !
 ! A7    A(1,5,6)               -0.2924                  2.8                    !
 ! A8    A(1,5,7)               -0.1473                  1.4                    !
 ! A9    A(1,5,8)               -0.0924                  0.9                    !
 ! A10   A(6,5,7)                0.1726                  1.7                    !
 ! A11   A(6,5,8)                0.2202                  2.1                    !
 ! A12   A(7,5,8)                0.1585                  1.5                    !
 ! A13   A(5,8,9)                0.2202                  2.1                    !
 ! A14   A(5,8,10)               0.1585                  1.5                    !
 ! A15   A(5,8,11)              -0.0924                  0.9                    !
 ! A16   A(9,8,10)               0.1726                  1.7                    !
 ! A17   A(9,8,11)              -0.2924                  2.8                    !
 ! A18   A(10,8,11)             -0.1473                  1.4                    !
 ! A19   A(8,11,12)             -0.1532                  1.5                    !
 ! A20   A(8,11,13)             -0.1267                  1.2                    !
 ! A22   A(12,11,13)             0.0663                  0.6                    !
 ! A23   A(12,11,14)             0.0887                  0.9                    !
 ! A24   A(13,11,14)             0.1065                  1.0                    !
 ! D1    D(2,1,5,6)              0.1091                  1.1                    !
 ! D2    D(2,1,5,7)              0.1498                  1.5                    !
 ! D3    D(2,1,5,8)              0.1152                  1.1                    !
 ! D4    D(3,1,5,6)              0.0789                  0.8                    !
 ! D5    D(3,1,5,7)              0.1195                  1.2                    !
 ! D6    D(3,1,5,8)              0.085                   0.8                    !
 ! D10   D(1,5,8,9)             -0.1552                  1.5                    !
 ! D11   D(1,5,8,10)             0.2592                  2.5                    !
 ! D12   D(1,5,8,11)             0.123                   1.2                    !
 ! D13   D(6,5,8,9)             -0.4334                  4.2                    !
 ! D15   D(6,5,8,11)            -0.1552                  1.5                    !
 ! D17   D(7,5,8,10)             0.3953                  3.8                    !
 ! D18   D(7,5,8,11)             0.2591                  2.5                    !
 ! D19   D(5,8,11,12)            0.1152                  1.1                    !
 ! D21   D(5,8,11,14)            0.085                   0.8                    !
 ! D22   D(9,8,11,12)            0.1091                  1.1                    !
 ! D24   D(9,8,11,14)            0.0789                  0.8                    !
 ! D25   D(10,8,11,12)           0.1498                  1.5                    !
 ! D27   D(10,8,11,14)           0.1195                  1.2                    !
 --------------------------------------------------------------------------------
                           ----------------------------
                           ! Normal Mode    19        !
 --------------------------                            --------------------------
 ! Name  Definition              Value          Relative Weight (%)             !
 --------------------------------------------------------------------------------
 ! R1    R(1,2)                 -0.1475                  2.6                    !
 ! R2    R(1,3)                  0.3949                  7.0                    !
 ! R3    R(1,4)                 -0.0575                  1.0                    !
 ! R6    R(5,7)                  0.1035                  1.8                    !
 ! R9    R(8,10)                -0.1035                  1.8                    !
 ! R11   R(11,12)                0.1475                  2.6                    !
 ! R12   R(11,13)                0.0575                  1.0                    !
 ! R13   R(11,14)               -0.3949                  7.0                    !
 ! A1    A(2,1,3)                0.1304                  2.3                    !
 ! A3    A(2,1,5)               -0.0594                  1.1                    !
 ! A6    A(4,1,5)               -0.0858                  1.5                    !
 ! A7    A(1,5,6)               -0.0612                  1.1                    !
 ! A8    A(1,5,7)                0.0693                  1.2                    !
 ! A10   A(6,5,7)                0.1026                  1.8                    !
 ! A12   A(7,5,8)               -0.0991                  1.8                    !
 ! A14   A(5,8,10)               0.0991                  1.8                    !
 ! A16   A(9,8,10)              -0.1026                  1.8                    !
 ! A17   A(9,8,11)               0.0612                  1.1                    !
 ! A18   A(10,8,11)             -0.0693                  1.2                    !
 ! A19   A(8,11,12)              0.0594                  1.1                    !
 ! A20   A(8,11,13)              0.0858                  1.5                    !
 ! A23   A(12,11,14)            -0.1304                  2.3                    !
 ! D2    D(2,1,5,7)             -0.1092                  1.9                    !
 ! D3    D(2,1,5,8)             -0.051                   0.9                    !
 ! D4    D(3,1,5,6)             -0.1296                  2.3                    !
 ! D5    D(3,1,5,7)             -0.2576                  4.6                    !
 ! D6    D(3,1,5,8)             -0.1994                  3.6                    !
 ! D7    D(4,1,5,6)             -0.059                   1.1                    !
 ! D8    D(4,1,5,7)             -0.187                   3.3                    !
 ! D9    D(4,1,5,8)             -0.1287                  2.3                    !
 ! D10   D(1,5,8,9)              0.0847                  1.5                    !
 ! D11   D(1,5,8,10)             0.0359                  0.6                    !
 ! D14   D(6,5,8,10)            -0.0488                  0.9                    !
 ! D15   D(6,5,8,11)            -0.0847                  1.5                    !
 ! D16   D(7,5,8,9)              0.0488                  0.9                    !
 ! D18   D(7,5,8,11)            -0.0359                  0.6                    !
 ! D19   D(5,8,11,12)            0.051                   0.9                    !
 ! D20   D(5,8,11,13)            0.1288                  2.3                    !
 ! D21   D(5,8,11,14)            0.1994                  3.6                    !
 ! D23   D(9,8,11,13)            0.059                   1.1                    !
 ! D24   D(9,8,11,14)            0.1296                  2.3                    !
 ! D25   D(10,8,11,12)           0.1092                  1.9                    !
 ! D26   D(10,8,11,13)           0.187                   3.3                    !
 ! D27   D(10,8,11,14)           0.2576                  4.6                    !
 --------------------------------------------------------------------------------
                           ----------------------------
                           ! Normal Mode    20        !
 --------------------------                            --------------------------
 ! Name  Definition              Value          Relative Weight (%)             !
 --------------------------------------------------------------------------------
 ! R2    R(1,3)                  0.0764                  1.3                    !
 ! R3    R(1,4)                  0.1499                  2.5                    !
 ! R4    R(1,5)                 -0.0374                  0.6                    !
 ! R5    R(5,6)                  0.3828                  6.4                    !
 ! R6    R(5,7)                 -0.3944                  6.6                    !
 ! R7    R(5,8)                 -0.0469                  0.8                    !
 ! R8    R(8,9)                  0.3828                  6.4                    !
 ! R9    R(8,10)                -0.3943                  6.6                    !
 ! R10   R(8,11)                -0.0374                  0.6                    !
 ! R12   R(11,13)                0.1499                  2.5                    !
 ! R13   R(11,14)                0.0764                  1.3                    !
 ! A1    A(2,1,3)               -0.148                   2.5                    !
 ! A2    A(2,1,4)                0.0871                  1.5                    !
 ! A3    A(2,1,5)                0.0982                  1.7                    !
 ! A4    A(3,1,4)               -0.0817                  1.4                    !
 ! A7    A(1,5,6)               -0.1192                  2.0                    !
 ! A8    A(1,5,7)               -0.0688                  1.2                    !
 ! A10   A(6,5,7)                0.1162                  2.0                    !
 ! A11   A(6,5,8)                0.0904                  1.5                    !
 ! A13   A(5,8,9)                0.0904                  1.5                    !
 ! A16   A(9,8,10)               0.1162                  2.0                    !
 ! A17   A(9,8,11)              -0.1192                  2.0                    !
 ! A18   A(10,8,11)             -0.0688                  1.2                    !
 ! A19   A(8,11,12)              0.0982                  1.7                    !
 ! A22   A(12,11,13)             0.0871                  1.5                    !
 ! A23   A(12,11,14)            -0.1479                  2.5                    !
 ! A24   A(13,11,14)            -0.0817                  1.4                    !
 ! D1    D(2,1,5,6)             -0.1054                  1.8                    !
 ! D2    D(2,1,5,7)             -0.1389                  2.3                    !
 ! D3    D(2,1,5,8)             -0.0742                  1.2                    !
 ! D6    D(3,1,5,8)              0.044                   0.7                    !
 ! D7    D(4,1,5,6)              0.0906                  1.5                    !
 ! D8    D(4,1,5,7)              0.0571                  1.0                    !
 ! D9    D(4,1,5,8)              0.1218                  2.0                    !
 ! D10   D(1,5,8,9)             -0.0816                  1.4                    !
 ! D11   D(1,5,8,10)             0.0993                  1.7                    !
 ! D13   D(6,5,8,9)             -0.1669                  2.8                    !
 ! D15   D(6,5,8,11)            -0.0816                  1.4                    !
 ! D17   D(7,5,8,10)             0.195                   3.3                    !
 ! D18   D(7,5,8,11)             0.0993                  1.7                    !
 ! D19   D(5,8,11,12)           -0.0742                  1.2                    !
 ! D20   D(5,8,11,13)            0.1218                  2.0                    !
 ! D21   D(5,8,11,14)            0.044                   0.7                    !
 ! D22   D(9,8,11,12)           -0.1054                  1.8                    !
 ! D23   D(9,8,11,13)            0.0906                  1.5                    !
 ! D25   D(10,8,11,12)          -0.1389                  2.3                    !
 ! D26   D(10,8,11,13)           0.0571                  1.0                    !
 --------------------------------------------------------------------------------
                           ----------------------------
                           ! Normal Mode    21        !
 --------------------------                            --------------------------
 ! Name  Definition              Value          Relative Weight (%)             !
 --------------------------------------------------------------------------------
 ! R2    R(1,3)                 -0.2038                  3.4                    !
 ! R3    R(1,4)                  0.267                   4.4                    !
 ! R4    R(1,5)                  0.0484                  0.8                    !
 ! R5    R(5,6)                  0.3274                  5.4                    !
 ! R6    R(5,7)                  0.1218                  2.0                    !
 ! R8    R(8,9)                  0.3274                  5.4                    !
 ! R9    R(8,10)                 0.1218                  2.0                    !
 ! R10   R(8,11)                 0.0484                  0.8                    !
 ! R12   R(11,13)                0.267                   4.4                    !
 ! R13   R(11,14)               -0.2038                  3.4                    !
 ! A1    A(2,1,3)                0.1602                  2.6                    !
 ! A2    A(2,1,4)                0.2037                  3.3                    !
 ! A3    A(2,1,5)               -0.183                   3.0                    !
 ! A4    A(3,1,4)                0.1173                  1.9                    !
 ! A5    A(3,1,5)               -0.1043                  1.7                    !
 ! A6    A(4,1,5)               -0.1672                  2.7                    !
 ! A7    A(1,5,6)                0.0632                  1.0                    !
 ! A8    A(1,5,7)                0.0777                  1.3                    !
 ! A10   A(6,5,7)               -0.1429                  2.3                    !
 ! A16   A(9,8,10)              -0.1428                  2.3                    !
 ! A17   A(9,8,11)               0.0632                  1.0                    !
 ! A18   A(10,8,11)              0.0777                  1.3                    !
 ! A19   A(8,11,12)             -0.183                   3.0                    !
 ! A20   A(8,11,13)             -0.1672                  2.7                    !
 ! A21   A(8,11,14)             -0.1043                  1.7                    !
 ! A22   A(12,11,13)             0.2037                  3.4                    !
 ! A23   A(12,11,14)             0.1602                  2.6                    !
 ! A24   A(13,11,14)             0.1173                  1.9                    !
 ! D2    D(2,1,5,7)              0.057                   0.9                    !
 ! D4    D(3,1,5,6)             -0.0435                  0.7                    !
 ! D5    D(3,1,5,7)              0.0485                  0.8                    !
 ! D8    D(4,1,5,7)              0.0826                  1.4                    !
 ! D9    D(4,1,5,8)              0.0576                  0.9                    !
 ! D10   D(1,5,8,9)              0.1009                  1.7                    !
 ! D11   D(1,5,8,10)            -0.0772                  1.3                    !
 ! D13   D(6,5,8,9)              0.1955                  3.2                    !
 ! D15   D(6,5,8,11)             0.1009                  1.7                    !
 ! D17   D(7,5,8,10)            -0.1608                  2.6                    !
 ! D18   D(7,5,8,11)            -0.0772                  1.3                    !
 ! D20   D(5,8,11,13)            0.0576                  0.9                    !
 ! D24   D(9,8,11,14)           -0.0435                  0.7                    !
 ! D25   D(10,8,11,12)           0.057                   0.9                    !
 ! D26   D(10,8,11,13)           0.0826                  1.4                    !
 ! D27   D(10,8,11,14)           0.0484                  0.8                    !
 --------------------------------------------------------------------------------
                           ----------------------------
                           ! Normal Mode    22        !
 --------------------------                            --------------------------
 ! Name  Definition              Value          Relative Weight (%)             !
 --------------------------------------------------------------------------------
 ! R1    R(1,2)                 -0.0793                  1.0                    !
 ! R2    R(1,3)                 -0.2467                  3.2                    !
 ! R3    R(1,4)                  0.2053                  2.7                    !
 ! R5    R(5,6)                 -0.2931                  3.9                    !
 ! R8    R(8,9)                  0.2931                  3.9                    !
 ! R11   R(11,12)                0.0793                  1.0                    !
 ! R12   R(11,13)               -0.2052                  2.7                    !
 ! R13   R(11,14)                0.2467                  3.2                    !
 ! A1    A(2,1,3)                0.0789                  1.0                    !
 ! A2    A(2,1,4)               -0.2449                  3.2                    !
 ! A3    A(2,1,5)                0.1473                  1.9                    !
 ! A4    A(3,1,4)               -0.1501                  2.0                    !
 ! A5    A(3,1,5)                0.1208                  1.6                    !
 ! A8    A(1,5,7)               -0.1207                  1.6                    !
 ! A10   A(6,5,7)                0.2557                  3.4                    !
 ! A12   A(7,5,8)               -0.0574                  0.8                    !
 ! A14   A(5,8,10)               0.0574                  0.8                    !
 ! A16   A(9,8,10)              -0.2557                  3.4                    !
 ! A18   A(10,8,11)              0.1207                  1.6                    !
 ! A19   A(8,11,12)             -0.1473                  1.9                    !
 ! A21   A(8,11,14)             -0.1208                  1.6                    !
 ! A22   A(12,11,13)             0.2449                  3.2                    !
 ! A23   A(12,11,14)            -0.0789                  1.0                    !
 ! A24   A(13,11,14)             0.1501                  2.0                    !
 ! D1    D(2,1,5,6)              0.2066                  2.7                    !
 ! D3    D(2,1,5,8)              0.1439                  1.9                    !
 ! D4    D(3,1,5,6)             -0.0751                  1.0                    !
 ! D5    D(3,1,5,7)             -0.2891                  3.8                    !
 ! D6    D(3,1,5,8)             -0.1378                  1.8                    !
 ! D8    D(4,1,5,7)             -0.1993                  2.6                    !
 ! D9    D(4,1,5,8)             -0.048                   0.6                    !
 ! D10   D(1,5,8,9)              0.0696                  0.9                    !
 ! D11   D(1,5,8,10)            -0.1865                  2.5                    !
 ! D14   D(6,5,8,10)            -0.2561                  3.4                    !
 ! D15   D(6,5,8,11)            -0.0696                  0.9                    !
 ! D16   D(7,5,8,9)              0.2561                  3.4                    !
 ! D18   D(7,5,8,11)             0.1865                  2.5                    !
 ! D19   D(5,8,11,12)           -0.1439                  1.9                    !
 ! D20   D(5,8,11,13)            0.048                   0.6                    !
 ! D21   D(5,8,11,14)            0.1378                  1.8                    !
 ! D22   D(9,8,11,12)           -0.2066                  2.7                    !
 ! D24   D(9,8,11,14)            0.0751                  1.0                    !
 ! D26   D(10,8,11,13)           0.1994                  2.6                    !
 ! D27   D(10,8,11,14)           0.2891                  3.8                    !
 --------------------------------------------------------------------------------
                           ----------------------------
                           ! Normal Mode    23        !
 --------------------------                            --------------------------
 ! Name  Definition              Value          Relative Weight (%)             !
 --------------------------------------------------------------------------------
 ! R1    R(1,2)                 -0.2707                  3.7                    !
 ! R2    R(1,3)                  0.1026                  1.4                    !
 ! R3    R(1,4)                  0.2968                  4.1                    !
 ! R4    R(1,5)                  0.0745                  1.0                    !
 ! R10   R(8,11)                 0.0745                  1.0                    !
 ! R11   R(11,12)               -0.2707                  3.7                    !
 ! R12   R(11,13)                0.297                   4.1                    !
 ! R13   R(11,14)                0.1026                  1.4                    !
 ! A1    A(2,1,3)                0.0592                  0.8                    !
 ! A2    A(2,1,4)                0.0904                  1.2                    !
 ! A3    A(2,1,5)                0.0548                  0.8                    !
 ! A4    A(3,1,4)               -0.245                   3.4                    !
 ! A5    A(3,1,5)               -0.0833                  1.1                    !
 ! A6    A(4,1,5)                0.1194                  1.6                    !
 ! A7    A(1,5,6)                0.0558                  0.8                    !
 ! A8    A(1,5,7)               -0.0908                  1.2                    !
 ! A9    A(1,5,8)                0.0455                  0.6                    !
 ! A10   A(6,5,7)                0.141                   1.9                    !
 ! A11   A(6,5,8)               -0.1959                  2.7                    !
 ! A12   A(7,5,8)                0.0514                  0.7                    !
 ! A13   A(5,8,9)               -0.1959                  2.7                    !
 ! A14   A(5,8,10)               0.0514                  0.7                    !
 ! A15   A(5,8,11)               0.0455                  0.6                    !
 ! A16   A(9,8,10)               0.1409                  1.9                    !
 ! A17   A(9,8,11)               0.0558                  0.8                    !
 ! A18   A(10,8,11)             -0.0907                  1.2                    !
 ! A19   A(8,11,12)              0.0548                  0.8                    !
 ! A20   A(8,11,13)              0.1193                  1.6                    !
 ! A21   A(8,11,14)             -0.0834                  1.1                    !
 ! A22   A(12,11,13)             0.0905                  1.2                    !
 ! A23   A(12,11,14)             0.0594                  0.8                    !
 ! A24   A(13,11,14)            -0.2451                  3.4                    !
 ! D1    D(2,1,5,6)              0.1908                  2.6                    !
 ! D4    D(3,1,5,6)              0.1345                  1.9                    !
 ! D6    D(3,1,5,8)             -0.0458                  0.6                    !
 ! D7    D(4,1,5,6)              0.4192                  5.8                    !
 ! D8    D(4,1,5,7)              0.2699                  3.7                    !
 ! D9    D(4,1,5,8)              0.2388                  3.3                    !
 ! D10   D(1,5,8,9)             -0.0795                  1.1                    !
 ! D13   D(6,5,8,9)             -0.1199                  1.6                    !
 ! D15   D(6,5,8,11)            -0.0796                  1.1                    !
 ! D17   D(7,5,8,10)             0.0577                  0.8                    !
 ! D20   D(5,8,11,13)            0.2389                  3.3                    !
 ! D21   D(5,8,11,14)           -0.046                   0.6                    !
 ! D22   D(9,8,11,12)            0.1908                  2.6                    !
 ! D23   D(9,8,11,13)            0.4192                  5.8                    !
 ! D24   D(9,8,11,14)            0.1343                  1.8                    !
 ! D26   D(10,8,11,13)           0.27                    3.7                    !
 --------------------------------------------------------------------------------
                           ----------------------------
                           ! Normal Mode    24        !
 --------------------------                            --------------------------
 ! Name  Definition              Value          Relative Weight (%)             !
 --------------------------------------------------------------------------------
 ! R2    R(1,3)                  0.1168                  1.8                    !
 ! R3    R(1,4)                  0.3014                  4.6                    !
 ! R4    R(1,5)                 -0.1                     1.5                    !
 ! R5    R(5,6)                 -0.1391                  2.1                    !
 ! R6    R(5,7)                  0.1171                  1.8                    !
 ! R8    R(8,9)                 -0.1401                  2.1                    !
 ! R9    R(8,10)                 0.118                   1.8                    !
 ! R10   R(8,11)                -0.1                     1.5                    !
 ! R12   R(11,13)                0.3028                  4.6                    !
 ! R13   R(11,14)                0.1165                  1.8                    !
 ! A3    A(2,1,5)               -0.149                   2.3                    !
 ! A4    A(3,1,4)               -0.1112                  1.7                    !
 ! A5    A(3,1,5)                0.1654                  2.5                    !
 ! A6    A(4,1,5)                0.087                   1.3                    !
 ! A8    A(1,5,7)                0.0873                  1.3                    !
 ! A9    A(1,5,8)               -0.0431                  0.7                    !
 ! A10   A(6,5,7)                0.1044                  1.6                    !
 ! A11   A(6,5,8)               -0.157                   2.4                    !
 ! A13   A(5,8,9)               -0.1569                  2.4                    !
 ! A15   A(5,8,11)              -0.0431                  0.7                    !
 ! A16   A(9,8,10)               0.1036                  1.6                    !
 ! A18   A(10,8,11)              0.0875                  1.3                    !
 ! A19   A(8,11,12)             -0.1492                  2.3                    !
 ! A20   A(8,11,13)              0.0866                  1.3                    !
 ! A21   A(8,11,14)              0.1649                  2.5                    !
 ! A24   A(13,11,14)            -0.1118                  1.7                    !
 ! D1    D(2,1,5,6)              0.2575                  3.9                    !
 ! D2    D(2,1,5,7)              0.0756                  1.2                    !
 ! D4    D(3,1,5,6)              0.2698                  4.1                    !
 ! D5    D(3,1,5,7)              0.0879                  1.3                    !
 ! D6    D(3,1,5,8)              0.0471                  0.7                    !
 ! D7    D(4,1,5,6)              0.2414                  3.7                    !
 ! D8    D(4,1,5,7)              0.0595                  0.9                    !
 ! D10   D(1,5,8,9)             -0.0691                  1.1                    !
 ! D12   D(1,5,8,11)             0.0583                  0.9                    !
 ! D13   D(6,5,8,9)             -0.1969                  3.0                    !
 ! D14   D(6,5,8,10)            -0.1565                  2.4                    !
 ! D15   D(6,5,8,11)            -0.0695                  1.1                    !
 ! D16   D(7,5,8,9)             -0.1558                  2.4                    !
 ! D17   D(7,5,8,10)            -0.1154                  1.8                    !
 ! D21   D(5,8,11,14)            0.0462                  0.7                    !
 ! D22   D(9,8,11,12)            0.2574                  3.9                    !
 ! D23   D(9,8,11,13)            0.2416                  3.7                    !
 ! D24   D(9,8,11,14)            0.2687                  4.1                    !
 ! D25   D(10,8,11,12)           0.0761                  1.2                    !
 ! D26   D(10,8,11,13)           0.0604                  0.9                    !
 ! D27   D(10,8,11,14)           0.0874                  1.3                    !
 --------------------------------------------------------------------------------
                           ----------------------------
                           ! Normal Mode    25        !
 --------------------------                            --------------------------
 ! Name  Definition              Value          Relative Weight (%)             !
 --------------------------------------------------------------------------------
 ! R2    R(1,3)                 -0.0666                  1.0                    !
 ! R3    R(1,4)                  0.3236                  4.6                    !
 ! R5    R(5,6)                 -0.234                   3.3                    !
 ! R6    R(5,7)                  0.2061                  2.9                    !
 ! R8    R(8,9)                  0.2336                  3.3                    !
 ! R9    R(8,10)                -0.2058                  2.9                    !
 ! R12   R(11,13)               -0.3226                  4.6                    !
 ! R13   R(11,14)                0.0669                  1.0                    !
 ! A1    A(2,1,3)                0.2764                  4.0                    !
 ! A2    A(2,1,4)                0.1292                  1.8                    !
 ! A3    A(2,1,5)               -0.0516                  0.7                    !
 ! A4    A(3,1,4)               -0.1425                  2.0                    !
 ! A5    A(3,1,5)               -0.1054                  1.5                    !
 ! A6    A(4,1,5)               -0.0919                  1.3                    !
 ! A7    A(1,5,6)                0.0511                  0.7                    !
 ! A8    A(1,5,7)                0.0471                  0.7                    !
 ! A10   A(6,5,7)               -0.1718                  2.5                    !
 ! A16   A(9,8,10)               0.1722                  2.5                    !
 ! A17   A(9,8,11)              -0.051                   0.7                    !
 ! A18   A(10,8,11)             -0.0469                  0.7                    !
 ! A19   A(8,11,12)              0.0512                  0.7                    !
 ! A20   A(8,11,13)              0.0922                  1.3                    !
 ! A21   A(8,11,14)              0.1058                  1.5                    !
 ! A22   A(12,11,13)            -0.1292                  1.8                    !
 ! A23   A(12,11,14)            -0.2765                  4.0                    !
 ! A24   A(13,11,14)             0.1421                  2.0                    !
 ! D2    D(2,1,5,7)              0.126                   1.8                    !
 ! D3    D(2,1,5,8)              0.0507                  0.7                    !
 ! D4    D(3,1,5,6)             -0.2697                  3.9                    !
 ! D5    D(3,1,5,7)             -0.1188                  1.7                    !
 ! D6    D(3,1,5,8)             -0.1941                  2.8                    !
 ! D8    D(4,1,5,7)              0.1939                  2.8                    !
 ! D9    D(4,1,5,8)              0.1186                  1.7                    !
 ! D10   D(1,5,8,9)             -0.0901                  1.3                    !
 ! D11   D(1,5,8,10)             0.0858                  1.2                    !
 ! D14   D(6,5,8,10)             0.1756                  2.5                    !
 ! D15   D(6,5,8,11)             0.0899                  1.3                    !
 ! D16   D(7,5,8,9)             -0.1761                  2.5                    !
 ! D18   D(7,5,8,11)            -0.0859                  1.2                    !
 ! D19   D(5,8,11,12)           -0.0506                  0.7                    !
 ! D20   D(5,8,11,13)           -0.1184                  1.7                    !
 ! D21   D(5,8,11,14)            0.1942                  2.8                    !
 ! D24   D(9,8,11,14)            0.2705                  3.9                    !
 ! D25   D(10,8,11,12)          -0.1257                  1.8                    !
 ! D26   D(10,8,11,13)          -0.1936                  2.8                    !
 ! D27   D(10,8,11,14)           0.119                   1.7                    !
 --------------------------------------------------------------------------------
                           ----------------------------
                           ! Normal Mode    26        !
 --------------------------                            --------------------------
 ! Name  Definition              Value          Relative Weight (%)             !
 --------------------------------------------------------------------------------
 ! R3    R(1,4)                 -0.1468                  2.4                    !
 ! R5    R(5,6)                 -0.3644                  6.0                    !
 ! R6    R(5,7)                  0.2158                  3.6                    !
 ! R8    R(8,9)                  0.3644                  6.0                    !
 ! R9    R(8,10)                -0.2158                  3.6                    !
 ! R12   R(11,13)                0.1468                  2.4                    !
 ! A1    A(2,1,3)               -0.1939                  3.2                    !
 ! A2    A(2,1,4)                0.0808                  1.3                    !
 ! A4    A(3,1,4)                0.0767                  1.3                    !
 ! A5    A(3,1,5)                0.1326                  2.2                    !
 ! A6    A(4,1,5)               -0.119                   2.0                    !
 ! A8    A(1,5,7)                0.0429                  0.7                    !
 ! A11   A(6,5,8)               -0.0735                  1.2                    !
 ! A12   A(7,5,8)                0.0822                  1.4                    !
 ! A13   A(5,8,9)                0.0735                  1.2                    !
 ! A14   A(5,8,10)              -0.0822                  1.4                    !
 ! A18   A(10,8,11)             -0.0429                  0.7                    !
 ! A20   A(8,11,13)              0.119                   2.0                    !
 ! A21   A(8,11,14)             -0.1326                  2.2                    !
 ! A22   A(12,11,13)            -0.0808                  1.3                    !
 ! A23   A(12,11,14)             0.1939                  3.2                    !
 ! A24   A(13,11,14)            -0.0767                  1.3                    !
 ! D1    D(2,1,5,6)              0.1044                  1.7                    !
 ! D2    D(2,1,5,7)              0.1037                  1.7                    !
 ! D4    D(3,1,5,6)              0.2465                  4.1                    !
 ! D5    D(3,1,5,7)              0.2457                  4.1                    !
 ! D6    D(3,1,5,8)              0.1172                  1.9                    !
 ! D7    D(4,1,5,6)              0.1416                  2.3                    !
 ! D8    D(4,1,5,7)              0.1409                  2.3                    !
 ! D10   D(1,5,8,9)              0.1081                  1.8                    !
 ! D11   D(1,5,8,10)             0.1063                  1.8                    !
 ! D15   D(6,5,8,11)            -0.1082                  1.8                    !
 ! D18   D(7,5,8,11)            -0.1063                  1.8                    !
 ! D21   D(5,8,11,14)           -0.1172                  1.9                    !
 ! D22   D(9,8,11,12)           -0.1045                  1.7                    !
 ! D23   D(9,8,11,13)           -0.1416                  2.3                    !
 ! D24   D(9,8,11,14)           -0.2465                  4.1                    !
 ! D25   D(10,8,11,12)          -0.1037                  1.7                    !
 ! D26   D(10,8,11,13)          -0.1409                  2.3                    !
 ! D27   D(10,8,11,14)          -0.2457                  4.1                    !
 --------------------------------------------------------------------------------
                           ----------------------------
                           ! Normal Mode    27        !
 --------------------------                            --------------------------
 ! Name  Definition              Value          Relative Weight (%)             !
 --------------------------------------------------------------------------------
 ! R1    R(1,2)                  0.1316                  1.9                    !
 ! R2    R(1,3)                 -0.4237                  6.0                    !
 ! R3    R(1,4)                  0.1387                  2.0                    !
 ! R6    R(5,7)                 -0.1268                  1.8                    !
 ! R9    R(8,10)                -0.1268                  1.8                    !
 ! R11   R(11,12)                0.1316                  1.9                    !
 ! R12   R(11,13)                0.1387                  2.0                    !
 ! R13   R(11,14)               -0.4237                  6.0                    !
 ! A1    A(2,1,3)                0.0576                  0.8                    !
 ! A2    A(2,1,4)               -0.2926                  4.1                    !
 ! A4    A(3,1,4)                0.1265                  1.8                    !
 ! A5    A(3,1,5)               -0.0604                  0.9                    !
 ! A6    A(4,1,5)                0.1363                  1.9                    !
 ! A7    A(1,5,6)                0.1355                  1.9                    !
 ! A8    A(1,5,7)               -0.0556                  0.8                    !
 ! A11   A(6,5,8)               -0.0989                  1.4                    !
 ! A13   A(5,8,9)               -0.0989                  1.4                    !
 ! A17   A(9,8,11)               0.1355                  1.9                    !
 ! A18   A(10,8,11)             -0.0556                  0.8                    !
 ! A20   A(8,11,13)              0.1363                  1.9                    !
 ! A21   A(8,11,14)             -0.0605                  0.9                    !
 ! A22   A(12,11,13)            -0.2927                  4.1                    !
 ! A23   A(12,11,14)             0.0576                  0.8                    !
 ! A24   A(13,11,14)             0.1265                  1.8                    !
 ! D1    D(2,1,5,6)              0.1386                  2.0                    !
 ! D2    D(2,1,5,7)              0.0675                  1.0                    !
 ! D3    D(2,1,5,8)              0.0977                  1.4                    !
 ! D4    D(3,1,5,6)              0.0893                  1.3                    !
 ! D6    D(3,1,5,8)              0.0484                  0.7                    !
 ! D7    D(4,1,5,6)             -0.1227                  1.7                    !
 ! D8    D(4,1,5,7)             -0.1937                  2.7                    !
 ! D9    D(4,1,5,8)             -0.1636                  2.3                    !
 ! D10   D(1,5,8,9)              0.1326                  1.9                    !
 ! D11   D(1,5,8,10)             0.114                   1.6                    !
 ! D13   D(6,5,8,9)              0.2221                  3.1                    !
 ! D14   D(6,5,8,10)             0.2035                  2.9                    !
 ! D15   D(6,5,8,11)             0.1326                  1.9                    !
 ! D16   D(7,5,8,9)              0.2035                  2.9                    !
 ! D17   D(7,5,8,10)             0.1849                  2.6                    !
 ! D18   D(7,5,8,11)             0.114                   1.6                    !
 ! D19   D(5,8,11,12)            0.0977                  1.4                    !
 ! D20   D(5,8,11,13)           -0.1636                  2.3                    !
 ! D21   D(5,8,11,14)            0.0484                  0.7                    !
 ! D22   D(9,8,11,12)            0.1386                  2.0                    !
 ! D23   D(9,8,11,13)           -0.1227                  1.7                    !
 ! D24   D(9,8,11,14)            0.0893                  1.3                    !
 ! D25   D(10,8,11,12)           0.0675                  1.0                    !
 ! D26   D(10,8,11,13)          -0.1938                  2.7                    !
 --------------------------------------------------------------------------------
                           ----------------------------
                           ! Normal Mode    28        !
 --------------------------                            --------------------------
 ! Name  Definition              Value          Relative Weight (%)             !
 --------------------------------------------------------------------------------
 ! R1    R(1,2)                 -0.11                    2.2                    !
 ! R3    R(1,4)                  0.2193                  4.4                    !
 ! R6    R(5,7)                  0.0854                  1.7                    !
 ! R9    R(8,10)                -0.0854                  1.7                    !
 ! R11   R(11,12)                0.1099                  2.2                    !
 ! R12   R(11,13)               -0.2193                  4.4                    !
 ! A1    A(2,1,3)               -0.1205                  2.4                    !
 ! A2    A(2,1,4)                0.0822                  1.6                    !
 ! A3    A(2,1,5)               -0.0823                  1.7                    !
 ! A4    A(3,1,4)               -0.2111                  4.2                    !
 ! A5    A(3,1,5)                0.1953                  3.9                    !
 ! A6    A(4,1,5)                0.1234                  2.5                    !
 ! A7    A(1,5,6)               -0.0842                  1.7                    !
 ! A8    A(1,5,7)                0.1145                  2.3                    !
 ! A10   A(6,5,7)               -0.0826                  1.7                    !
 ! A11   A(6,5,8)                0.1344                  2.7                    !
 ! A12   A(7,5,8)               -0.0933                  1.9                    !
 ! A13   A(5,8,9)               -0.1344                  2.7                    !
 ! A14   A(5,8,10)               0.0933                  1.9                    !
 ! A16   A(9,8,10)               0.0826                  1.7                    !
 ! A17   A(9,8,11)               0.0842                  1.7                    !
 ! A18   A(10,8,11)             -0.1145                  2.3                    !
 ! A19   A(8,11,12)              0.0823                  1.7                    !
 ! A20   A(8,11,13)             -0.1234                  2.5                    !
 ! A21   A(8,11,14)             -0.1953                  3.9                    !
 ! A22   A(12,11,13)            -0.0822                  1.6                    !
 ! A23   A(12,11,14)             0.1205                  2.4                    !
 ! A24   A(13,11,14)             0.2111                  4.2                    !
 ! D1    D(2,1,5,6)             -0.153                   3.1                    !
 ! D2    D(2,1,5,7)             -0.0713                  1.4                    !
 ! D4    D(3,1,5,6)             -0.0756                  1.5                    !
 ! D9    D(4,1,5,8)              0.0929                  1.9                    !
 ! D11   D(1,5,8,10)             0.0827                  1.7                    !
 ! D14   D(6,5,8,10)             0.0761                  1.5                    !
 ! D16   D(7,5,8,9)             -0.0761                  1.5                    !
 ! D18   D(7,5,8,11)            -0.0827                  1.7                    !
 ! D20   D(5,8,11,13)           -0.0929                  1.9                    !
 ! D22   D(9,8,11,12)            0.1529                  3.1                    !
 ! D24   D(9,8,11,14)            0.0756                  1.5                    !
 ! D25   D(10,8,11,12)           0.0713                  1.4                    !
 --------------------------------------------------------------------------------
                           ----------------------------
                           ! Normal Mode    29        !
 --------------------------                            --------------------------
 ! Name  Definition              Value          Relative Weight (%)             !
 --------------------------------------------------------------------------------
 ! R1    R(1,2)                 -0.2383                  3.8                    !
 ! R2    R(1,3)                  0.1338                  2.2                    !
 ! R5    R(5,6)                 -0.0779                  1.3                    !
 ! R6    R(5,7)                 -0.3186                  5.1                    !
 ! R8    R(8,9)                 -0.0779                  1.3                    !
 ! R9    R(8,10)                -0.3186                  5.1                    !
 ! R11   R(11,12)               -0.2383                  3.9                    !
 ! R13   R(11,14)                0.1338                  2.2                    !
 ! A1    A(2,1,3)                0.116                   1.9                    !
 ! A3    A(2,1,5)               -0.1737                  2.8                    !
 ! A4    A(3,1,4)               -0.0758                  1.2                    !
 ! A5    A(3,1,5)                0.056                   0.9                    !
 ! A6    A(4,1,5)                0.0862                  1.4                    !
 ! A7    A(1,5,6)                0.0675                  1.1                    !
 ! A8    A(1,5,7)                0.049                   0.8                    !
 ! A10   A(6,5,7)               -0.0448                  0.7                    !
 ! A11   A(6,5,8)                0.0424                  0.7                    !
 ! A12   A(7,5,8)               -0.1198                  1.9                    !
 ! A13   A(5,8,9)                0.0424                  0.7                    !
 ! A14   A(5,8,10)              -0.1198                  1.9                    !
 ! A16   A(9,8,10)              -0.0448                  0.7                    !
 ! A17   A(9,8,11)               0.0675                  1.1                    !
 ! A18   A(10,8,11)              0.049                   0.8                    !
 ! A19   A(8,11,12)             -0.1737                  2.8                    !
 ! A20   A(8,11,13)              0.0862                  1.4                    !
 ! A21   A(8,11,14)              0.056                   0.9                    !
 ! A23   A(12,11,14)             0.116                   1.9                    !
 ! A24   A(13,11,14)            -0.0758                  1.2                    !
 ! D1    D(2,1,5,6)             -0.0962                  1.6                    !
 ! D2    D(2,1,5,7)             -0.1082                  1.7                    !
 ! D4    D(3,1,5,6)             -0.1629                  2.6                    !
 ! D5    D(3,1,5,7)             -0.1749                  2.8                    !
 ! D6    D(3,1,5,8)             -0.0578                  0.9                    !
 ! D7    D(4,1,5,6)             -0.1627                  2.6                    !
 ! D8    D(4,1,5,7)             -0.1747                  2.8                    !
 ! D9    D(4,1,5,8)             -0.0575                  0.9                    !
 ! D10   D(1,5,8,9)              0.122                   2.0                    !
 ! D13   D(6,5,8,9)              0.2408                  3.9                    !
 ! D14   D(6,5,8,10)             0.1447                  2.3                    !
 ! D15   D(6,5,8,11)             0.122                   2.0                    !
 ! D16   D(7,5,8,9)              0.1447                  2.3                    !
 ! D17   D(7,5,8,10)             0.0485                  0.8                    !
 ! D20   D(5,8,11,13)           -0.0575                  0.9                    !
 ! D21   D(5,8,11,14)           -0.0578                  0.9                    !
 ! D22   D(9,8,11,12)           -0.0962                  1.6                    !
 ! D23   D(9,8,11,13)           -0.1627                  2.6                    !
 ! D24   D(9,8,11,14)           -0.1629                  2.6                    !
 ! D25   D(10,8,11,12)          -0.1082                  1.7                    !
 ! D26   D(10,8,11,13)          -0.1747                  2.8                    !
 ! D27   D(10,8,11,14)          -0.1749                  2.8                    !
 --------------------------------------------------------------------------------
                           ----------------------------
                           ! Normal Mode    30        !
 --------------------------                            --------------------------
 ! Name  Definition              Value          Relative Weight (%)             !
 --------------------------------------------------------------------------------
 ! R1    R(1,2)                 -0.1356                  2.7                    !
 ! R2    R(1,3)                  0.0756                  1.5                    !
 ! R6    R(5,7)                 -0.0669                  1.3                    !
 ! R9    R(8,10)                 0.0669                  1.3                    !
 ! R11   R(11,12)                0.1356                  2.7                    !
 ! R13   R(11,14)               -0.0757                  1.5                    !
 ! A1    A(2,1,3)                0.0869                  1.7                    !
 ! A3    A(2,1,5)               -0.1378                  2.7                    !
 ! A4    A(3,1,4)               -0.1089                  2.2                    !
 ! A5    A(3,1,5)                0.1239                  2.5                    !
 ! A7    A(1,5,6)                0.1764                  3.5                    !
 ! A8    A(1,5,7)               -0.1475                  2.9                    !
 ! A10   A(6,5,7)               -0.0965                  1.9                    !
 ! A11   A(6,5,8)               -0.1237                  2.5                    !
 ! A12   A(7,5,8)                0.1827                  3.6                    !
 ! A13   A(5,8,9)                0.1237                  2.5                    !
 ! A14   A(5,8,10)              -0.1827                  3.6                    !
 ! A16   A(9,8,10)               0.0965                  1.9                    !
 ! A17   A(9,8,11)              -0.1764                  3.5                    !
 ! A18   A(10,8,11)              0.1475                  2.9                    !
 ! A19   A(8,11,12)              0.1377                  2.7                    !
 ! A21   A(8,11,14)             -0.1239                  2.5                    !
 ! A23   A(12,11,14)            -0.0869                  1.7                    !
 ! A24   A(13,11,14)             0.1089                  2.2                    !
 ! D1    D(2,1,5,6)              0.0995                  2.0                    !
 ! D2    D(2,1,5,7)              0.1997                  4.0                    !
 ! D3    D(2,1,5,8)              0.0706                  1.4                    !
 ! D5    D(3,1,5,7)              0.0997                  2.0                    !
 ! D8    D(4,1,5,7)              0.1241                  2.5                    !
 ! D10   D(1,5,8,9)             -0.1379                  2.7                    !
 ! D14   D(6,5,8,10)             0.0822                  1.6                    !
 ! D15   D(6,5,8,11)             0.1379                  2.7                    !
 ! D16   D(7,5,8,9)             -0.0823                  1.6                    !
 ! D19   D(5,8,11,12)           -0.0706                  1.4                    !
 ! D22   D(9,8,11,12)           -0.0995                  2.0                    !
 ! D25   D(10,8,11,12)          -0.1997                  4.0                    !
 ! D26   D(10,8,11,13)          -0.1241                  2.5                    !
 ! D27   D(10,8,11,14)          -0.0997                  2.0                    !
 --------------------------------------------------------------------------------
                           ----------------------------
                           ! Normal Mode    31        !
 --------------------------                            --------------------------
 ! Name  Definition              Value          Relative Weight (%)             !
 --------------------------------------------------------------------------------
 ! R1    R(1,2)                  0.0522                  0.9                    !
 ! R2    R(1,3)                  0.2567                  4.7                    !
 ! R3    R(1,4)                 -0.045                   0.8                    !
 ! R5    R(5,6)                  0.2261                  4.1                    !
 ! R8    R(8,9)                  0.2271                  4.1                    !
 ! R11   R(11,12)                0.0529                  1.0                    !
 ! R12   R(11,13)               -0.0452                  0.8                    !
 ! R13   R(11,14)                0.2572                  4.7                    !
 ! A1    A(2,1,3)                0.0442                  0.8                    !
 ! A2    A(2,1,4)               -0.0378                  0.7                    !
 ! A5    A(3,1,5)                0.0982                  1.8                    !
 ! A6    A(4,1,5)               -0.0959                  1.7                    !
 ! A7    A(1,5,6)                0.176                   3.2                    !
 ! A8    A(1,5,7)               -0.1651                  3.0                    !
 ! A11   A(6,5,8)               -0.1259                  2.3                    !
 ! A12   A(7,5,8)                0.1139                  2.1                    !
 ! A13   A(5,8,9)               -0.1259                  2.3                    !
 ! A14   A(5,8,10)               0.1136                  2.1                    !
 ! A17   A(9,8,11)               0.1766                  3.2                    !
 ! A18   A(10,8,11)             -0.1648                  3.0                    !
 ! A20   A(8,11,13)             -0.0966                  1.8                    !
 ! A21   A(8,11,14)              0.099                   1.8                    !
 ! A22   A(12,11,13)            -0.0376                  0.7                    !
 ! A23   A(12,11,14)             0.0437                  0.8                    !
 ! D1    D(2,1,5,6)              0.0939                  1.7                    !
 ! D2    D(2,1,5,7)              0.0868                  1.6                    !
 ! D3    D(2,1,5,8)              0.0603                  1.1                    !
 ! D4    D(3,1,5,6)             -0.0405                  0.7                    !
 ! D5    D(3,1,5,7)             -0.0475                  0.9                    !
 ! D6    D(3,1,5,8)             -0.0741                  1.3                    !
 ! D9    D(4,1,5,8)             -0.039                   0.7                    !
 ! D10   D(1,5,8,9)              0.135                   2.4                    !
 ! D11   D(1,5,8,10)             0.1295                  2.3                    !
 ! D13   D(6,5,8,9)              0.2691                  4.9                    !
 ! D14   D(6,5,8,10)             0.2636                  4.8                    !
 ! D15   D(6,5,8,11)             0.1342                  2.4                    !
 ! D16   D(7,5,8,9)              0.2644                  4.8                    !
 ! D17   D(7,5,8,10)             0.2588                  4.7                    !
 ! D18   D(7,5,8,11)             0.1295                  2.3                    !
 ! D19   D(5,8,11,12)            0.0603                  1.1                    !
 ! D20   D(5,8,11,13)           -0.0386                  0.7                    !
 ! D21   D(5,8,11,14)           -0.0743                  1.3                    !
 ! D22   D(9,8,11,12)            0.0935                  1.7                    !
 ! D24   D(9,8,11,14)           -0.0412                  0.7                    !
 ! D25   D(10,8,11,12)           0.0866                  1.6                    !
 ! D27   D(10,8,11,14)          -0.0481                  0.9                    !
 --------------------------------------------------------------------------------
                           ----------------------------
                           ! Normal Mode    32        !
 --------------------------                            --------------------------
 ! Name  Definition              Value          Relative Weight (%)             !
 --------------------------------------------------------------------------------
 ! R1    R(1,2)                  0.1548                  3.2                    !
 ! R2    R(1,3)                  0.0957                  2.0                    !
 ! R3    R(1,4)                 -0.0381                  0.8                    !
 ! R5    R(5,6)                  0.2106                  4.3                    !
 ! R8    R(8,9)                 -0.2095                  4.3                    !
 ! R11   R(11,12)               -0.1546                  3.2                    !
 ! R12   R(11,13)                0.0378                  0.8                    !
 ! R13   R(11,14)               -0.0945                  1.9                    !
 ! A1    A(2,1,3)               -0.096                   2.0                    !
 ! A2    A(2,1,4)                0.0557                  1.1                    !
 ! A3    A(2,1,5)                0.1341                  2.7                    !
 ! A4    A(3,1,4)               -0.0956                  2.0                    !
 ! A5    A(3,1,5)                0.1493                  3.1                    !
 ! A6    A(4,1,5)               -0.1544                  3.2                    !
 ! A7    A(1,5,6)                0.1293                  2.6                    !
 ! A8    A(1,5,7)                0.0447                  0.9                    !
 ! A10   A(6,5,7)               -0.1056                  2.2                    !
 ! A12   A(7,5,8)               -0.0712                  1.5                    !
 ! A14   A(5,8,10)               0.0718                  1.5                    !
 ! A16   A(9,8,10)               0.1056                  2.2                    !
 ! A17   A(9,8,11)              -0.1284                  2.6                    !
 ! A18   A(10,8,11)             -0.0455                  0.9                    !
 ! A19   A(8,11,12)             -0.134                   2.7                    !
 ! A20   A(8,11,13)              0.154                   3.1                    !
 ! A21   A(8,11,14)             -0.1488                  3.0                    !
 ! A22   A(12,11,13)            -0.0559                  1.1                    !
 ! A23   A(12,11,14)             0.0962                  2.0                    !
 ! A24   A(13,11,14)             0.0955                  2.0                    !
 ! D1    D(2,1,5,6)             -0.0767                  1.6                    !
 ! D2    D(2,1,5,7)             -0.0479                  1.0                    !
 ! D4    D(3,1,5,6)             -0.1467                  3.0                    !
 ! D5    D(3,1,5,7)             -0.1179                  2.4                    !
 ! D6    D(3,1,5,8)             -0.0571                  1.2                    !
 ! D9    D(4,1,5,8)              0.0689                  1.4                    !
 ! D10   D(1,5,8,9)             -0.162                   3.3                    !
 ! D14   D(6,5,8,10)             0.1673                  3.4                    !
 ! D15   D(6,5,8,11)             0.1626                  3.3                    !
 ! D16   D(7,5,8,9)             -0.166                   3.4                    !
 ! D20   D(5,8,11,13)           -0.0691                  1.4                    !
 ! D21   D(5,8,11,14)            0.0568                  1.2                    !
 ! D22   D(9,8,11,12)            0.0771                  1.6                    !
 ! D24   D(9,8,11,14)            0.1465                  3.0                    !
 ! D25   D(10,8,11,12)           0.0483                  1.0                    !
 ! D27   D(10,8,11,14)           0.1177                  2.4                    !
 --------------------------------------------------------------------------------
                           ----------------------------
                           ! Normal Mode    33        !
 --------------------------                            --------------------------
 ! Name  Definition              Value          Relative Weight (%)             !
 --------------------------------------------------------------------------------
 ! R1    R(1,2)                 -0.1367                  2.7                    !
 ! R2    R(1,3)                 -0.0636                  1.2                    !
 ! R3    R(1,4)                 -0.1252                  2.4                    !
 ! R5    R(5,6)                 -0.0541                  1.1                    !
 ! R6    R(5,7)                 -0.1789                  3.5                    !
 ! R8    R(8,9)                  0.0541                  1.1                    !
 ! R9    R(8,10)                 0.1789                  3.5                    !
 ! R11   R(11,12)                0.1367                  2.7                    !
 ! R12   R(11,13)                0.1252                  2.4                    !
 ! R13   R(11,14)                0.0636                  1.2                    !
 ! A1    A(2,1,3)                0.045                   0.9                    !
 ! A2    A(2,1,4)                0.1332                  2.6                    !
 ! A3    A(2,1,5)               -0.1178                  2.3                    !
 ! A4    A(3,1,4)                0.0998                  1.9                    !
 ! A6    A(4,1,5)               -0.1712                  3.3                    !
 ! A7    A(1,5,6)               -0.129                   2.5                    !
 ! A8    A(1,5,7)               -0.1096                  2.1                    !
 ! A11   A(6,5,8)                0.1973                  3.8                    !
 ! A13   A(5,8,9)               -0.1973                  3.8                    !
 ! A17   A(9,8,11)               0.129                   2.5                    !
 ! A18   A(10,8,11)              0.1096                  2.1                    !
 ! A19   A(8,11,12)              0.1178                  2.3                    !
 ! A20   A(8,11,13)              0.1712                  3.3                    !
 ! A22   A(12,11,13)            -0.1332                  2.6                    !
 ! A23   A(12,11,14)            -0.045                   0.9                    !
 ! A24   A(13,11,14)            -0.0998                  1.9                    !
 ! D1    D(2,1,5,6)             -0.1433                  2.8                    !
 ! D2    D(2,1,5,7)             -0.0363                  0.7                    !
 ! D4    D(3,1,5,6)             -0.1382                  2.7                    !
 ! D7    D(4,1,5,6)             -0.1663                  3.2                    !
 ! D8    D(4,1,5,7)             -0.0593                  1.2                    !
 ! D11   D(1,5,8,10)            -0.125                   2.4                    !
 ! D14   D(6,5,8,10)            -0.1497                  2.9                    !
 ! D16   D(7,5,8,9)              0.1497                  2.9                    !
 ! D18   D(7,5,8,11)             0.125                   2.4                    !
 ! D22   D(9,8,11,12)            0.1433                  2.8                    !
 ! D23   D(9,8,11,13)            0.1663                  3.2                    !
 ! D24   D(9,8,11,14)            0.1382                  2.7                    !
 ! D25   D(10,8,11,12)           0.0363                  0.7                    !
 ! D26   D(10,8,11,13)           0.0592                  1.2                    !
 --------------------------------------------------------------------------------
                           ----------------------------
                           ! Normal Mode    34        !
 --------------------------                            --------------------------
 ! Name  Definition              Value          Relative Weight (%)             !
 --------------------------------------------------------------------------------
 ! R1    R(1,2)                 -0.1179                  2.4                    !
 ! R6    R(5,7)                  0.0716                  1.5                    !
 ! R9    R(8,10)                 0.0716                  1.5                    !
 ! R11   R(11,12)               -0.1179                  2.4                    !
 ! A1    A(2,1,3)                0.0878                  1.8                    !
 ! A3    A(2,1,5)               -0.1257                  2.6                    !
 ! A6    A(4,1,5)                0.0697                  1.4                    !
 ! A7    A(1,5,6)               -0.1273                  2.6                    !
 ! A8    A(1,5,7)               -0.2035                  4.2                    !
 ! A11   A(6,5,8)                0.1354                  2.8                    !
 ! A12   A(7,5,8)                0.246                   5.1                    !
 ! A13   A(5,8,9)                0.1354                  2.8                    !
 ! A14   A(5,8,10)               0.246                   5.1                    !
 ! A17   A(9,8,11)              -0.1273                  2.6                    !
 ! A18   A(10,8,11)             -0.2035                  4.2                    !
 ! A19   A(8,11,12)             -0.1257                  2.6                    !
 ! A20   A(8,11,13)              0.0697                  1.4                    !
 ! A23   A(12,11,14)             0.0878                  1.8                    !
 ! D1    D(2,1,5,6)             -0.0712                  1.5                    !
 ! D2    D(2,1,5,7)              0.1792                  3.7                    !
 ! D4    D(3,1,5,6)             -0.0808                  1.7                    !
 ! D5    D(3,1,5,7)              0.1696                  3.5                    !
 ! D7    D(4,1,5,6)             -0.1071                  2.2                    !
 ! D8    D(4,1,5,7)              0.1433                  3.0                    !
 ! D10   D(1,5,8,9)             -0.0645                  1.3                    !
 ! D11   D(1,5,8,10)             0.0826                  1.7                    !
 ! D13   D(6,5,8,9)             -0.1289                  2.7                    !
 ! D15   D(6,5,8,11)            -0.0645                  1.3                    !
 ! D17   D(7,5,8,10)             0.1653                  3.4                    !
 ! D18   D(7,5,8,11)             0.0826                  1.7                    !
 ! D22   D(9,8,11,12)           -0.0712                  1.5                    !
 ! D23   D(9,8,11,13)           -0.1071                  2.2                    !
 ! D24   D(9,8,11,14)           -0.0808                  1.7                    !
 ! D25   D(10,8,11,12)           0.1792                  3.7                    !
 ! D26   D(10,8,11,13)           0.1433                  3.0                    !
 ! D27   D(10,8,11,14)           0.1696                  3.5                    !
 --------------------------------------------------------------------------------
                           ----------------------------
                           ! Normal Mode    35        !
 --------------------------                            --------------------------
 ! Name  Definition              Value          Relative Weight (%)             !
 --------------------------------------------------------------------------------
 ! R1    R(1,2)                  0.1561                  2.5                    !
 ! R2    R(1,3)                  0.1996                  3.2                    !
 ! R3    R(1,4)                  0.1757                  2.8                    !
 ! R5    R(5,6)                  0.2348                  3.8                    !
 ! R6    R(5,7)                  0.2567                  4.1                    !
 ! R8    R(8,9)                  0.2348                  3.8                    !
 ! R9    R(8,10)                 0.2567                  4.1                    !
 ! R11   R(11,12)                0.1561                  2.5                    !
 ! R12   R(11,13)                0.1757                  2.8                    !
 ! R13   R(11,14)                0.1996                  3.2                    !
 ! A2    A(2,1,4)               -0.1525                  2.4                    !
 ! A3    A(2,1,5)                0.0673                  1.1                    !
 ! A4    A(3,1,4)               -0.1373                  2.2                    !
 ! A5    A(3,1,5)                0.0415                  0.7                    !
 ! A6    A(4,1,5)                0.1827                  2.9                    !
 ! A8    A(1,5,7)                0.0919                  1.5                    !
 ! A10   A(6,5,7)               -0.1986                  3.2                    !
 ! A11   A(6,5,8)                0.0919                  1.5                    !
 ! A13   A(5,8,9)                0.0919                  1.5                    !
 ! A16   A(9,8,10)              -0.1986                  3.2                    !
 ! A18   A(10,8,11)              0.0919                  1.5                    !
 ! A19   A(8,11,12)              0.0673                  1.1                    !
 ! A20   A(8,11,13)              0.1827                  2.9                    !
 ! A21   A(8,11,14)              0.0415                  0.7                    !
 ! A22   A(12,11,13)            -0.1525                  2.4                    !
 ! A24   A(13,11,14)            -0.1373                  2.2                    !
 ! D1    D(2,1,5,6)             -0.1417                  2.3                    !
 ! D4    D(3,1,5,6)             -0.191                   3.1                    !
 ! D6    D(3,1,5,8)             -0.0631                  1.0                    !
 ! D7    D(4,1,5,6)             -0.1686                  2.7                    !
 ! D9    D(4,1,5,8)             -0.0406                  0.6                    !
 ! D10   D(1,5,8,9)              0.0929                  1.5                    !
 ! D11   D(1,5,8,10)            -0.0998                  1.6                    !
 ! D13   D(6,5,8,9)              0.1778                  2.8                    !
 ! D15   D(6,5,8,11)             0.093                   1.5                    !
 ! D17   D(7,5,8,10)            -0.2077                  3.3                    !
 ! D18   D(7,5,8,11)            -0.0998                  1.6                    !
 ! D20   D(5,8,11,13)           -0.0406                  0.6                    !
 ! D21   D(5,8,11,14)           -0.0631                  1.0                    !
 ! D22   D(9,8,11,12)           -0.1417                  2.3                    !
 ! D23   D(9,8,11,13)           -0.1686                  2.7                    !
 ! D24   D(9,8,11,14)           -0.191                   3.1                    !
 --------------------------------------------------------------------------------
                           ----------------------------
                           ! Normal Mode    36        !
 --------------------------                            --------------------------
 ! Name  Definition              Value          Relative Weight (%)             !
 --------------------------------------------------------------------------------
 ! R2    R(1,3)                  0.1462                  3.8                    !
 ! R3    R(1,4)                 -0.0276                  0.7                    !
 ! R5    R(5,6)                 -0.0456                  1.2                    !
 ! R6    R(5,7)                 -0.0343                  0.9                    !
 ! R8    R(8,9)                 -0.0456                  1.2                    !
 ! R9    R(8,10)                -0.0343                  0.9                    !
 ! R12   R(11,13)               -0.0276                  0.7                    !
 ! R13   R(11,14)                0.1462                  3.8                    !
 ! A1    A(2,1,3)                0.3182                  8.3                    !
 ! A4    A(3,1,4)               -0.0768                  2.0                    !
 ! A5    A(3,1,5)               -0.2365                  6.1                    !
 ! A10   A(6,5,7)                0.038                   1.0                    !
 ! A16   A(9,8,10)               0.038                   1.0                    !
 ! A21   A(8,11,14)             -0.2365                  6.1                    !
 ! A23   A(12,11,14)             0.3182                  8.3                    !
 ! A24   A(13,11,14)            -0.0768                  2.0                    !
 ! D1    D(2,1,5,6)              0.0289                  0.7                    !
 ! D4    D(3,1,5,6)             -0.2146                  5.6                    !
 ! D5    D(3,1,5,7)             -0.2563                  6.6                    !
 ! D6    D(3,1,5,8)             -0.2459                  6.4                    !
 ! D7    D(4,1,5,6)              0.0478                  1.2                    !
 ! D10   D(1,5,8,9)             -0.0253                  0.7                    !
 ! D13   D(6,5,8,9)             -0.0506                  1.3                    !
 ! D15   D(6,5,8,11)            -0.0253                  0.7                    !
 ! D21   D(5,8,11,14)           -0.2459                  6.4                    !
 ! D22   D(9,8,11,12)            0.0289                  0.7                    !
 ! D23   D(9,8,11,13)            0.0478                  1.2                    !
 ! D24   D(9,8,11,14)           -0.2146                  5.6                    !
 ! D27   D(10,8,11,14)          -0.2563                  6.6                    !
 --------------------------------------------------------------------------------
 Max01P=     42 Av01P=   35.83 Stan. Dev.=    4.61
 Max05P=     10 Av05P=    1.81 Stan. Dev.=    1.92
 Max10P=      2 Av10P=    0.11 Stan. Dev.=    0.46
 MaxNDP=    101 AvNDP=   86.81 Stan. Dev.=   12.74
 
                                                                Title
                                                             IR Spectrum
 
                                                                                                                                     
     5                                     3  3 3         22      2    2       2 2     1111      1 1      1                          
     1                                     6  4 4         99      6    4       1 0     8777      4 3      0   9        5  43 22      
     1                                     1  7 2         54      8    6       7 7     3872      1 4      8   2        3  27 74      
 
                                           X  X X         XX      X    X       X X     XXXX      X X      X   X        X  XX XX      
                                                                                        X X      X X      X   X               X      
                                                                                        X X      X X      X   X               X      
                                                                                        X        X X      X                   X      
                                                                                        X        X X      X                   X      
                                                                                        X        X X      X                          
                                                                                                 X X      X                          
                                                                                                 X X      X                          
                                                                                                 X X      X                          
                                                                                                 X X                                 
                                                                                                 X X                                 
                                                                                                 X X                                 
                                                                                                 X                                   
                                                                                                 X                                   
                                                                                                 X                                   
                                                                                                 X                                   
                                                                                                 X                                   
                                                                                                 X                                   
                                                                                                 X                                   
                                                                                                 X                                   
 
 -------------------------------------------------------------------
 Center     Atomic                   Forces (Hartrees/Bohr)
 Number     Number              X              Y              Z
 -------------------------------------------------------------------
      1        6           0.002246189   -0.001331151    0.001829463
      2        1          -0.000364851    0.001875374   -0.002241416
      3        1          -0.000516604    0.001650174   -0.001878201
      4        1           0.000508889    0.001227167   -0.002159456
      5        6           0.002040176   -0.004052904   -0.002997604
      6        1          -0.003785567   -0.001711417    0.002728585
      7        1          -0.002137105    0.000863213    0.004719145
      8        6          -0.002040487    0.004053548   -0.002998124
      9        1           0.003785379    0.001711323    0.002728442
     10        1           0.002137102   -0.000863199    0.004719054
     11        6          -0.002245935    0.001330833    0.001829195
     12        1           0.000364917   -0.001875423   -0.002241431
     13        1          -0.000508851   -0.001227292   -0.002159460
     14        1           0.000516748   -0.001650245   -0.001878192
 -------------------------------------------------------------------
 Cartesian Forces:  Max     0.004719145 RMS     0.002326324
 FormGI is forming the generalized inverse of G from B-inverse, IUseBI=4.
 Leave Link  716 at Sat Aug 15 12:20:54 2026, MaxMem=   134217728 cpu:               0.1 elap:               0.0
 (Enter /home/emanuele/chem_software/gaussian//gdv/l103.exe)

 GradGradGradGradGradGradGradGradGradGradGradGradGradGradGradGradGradGrad
 Berny optimization.
 Internal  Forces:  Max     0.005613281 RMS     0.002067437
 Search for a local minimum.
 Step number   1 out of a maximum of    2
 All quantities printed in internal units (Hartrees-Bohrs-Radians)
 Second derivative matrix not updated -- analytic derivatives used.
 ITU=  0
     Eigenvalues ---   -0.00163  -0.00140  -0.00130  -0.00119  -0.00059
     Eigenvalues ---   -0.00045  -0.00011  -0.00008  -0.00003   0.00004
     Eigenvalues ---    0.00006   0.00014   0.00024   0.00044   0.00056
     Eigenvalues ---    0.00060   0.00093   0.00105   0.00128   0.00139
     Eigenvalues ---    0.00143   0.00176   0.00242   0.00261   0.00381
     Eigenvalues ---    0.00398   0.00480   0.00730   0.00865   0.00915
     Eigenvalues ---    0.00963   0.01286   0.01368   0.01557   0.02640
     Eigenvalues ---    0.18530
 Eigenvalue     1 is  -1.63D-03 should be greater than     0.000000 Eigenvector:
                          R6        R9        R5        R8        R1
   1                   -0.50676   0.50674  -0.34526   0.34523   0.22959
                          R11       R2        R13       R10       R4
   1                   -0.22955   0.16412  -0.16409  -0.12879   0.12878
 Eigenvalue     2 is  -1.40D-03 should be greater than     0.000000 Eigenvector:
                          R2        R13       R1        R11       R4
   1                   -0.35858   0.35852  -0.32418   0.32409   0.31399
                          R10       R3        R12       R9        R6
   1                   -0.31395  -0.25183   0.25179   0.16047  -0.16044
 Eigenvalue     3 is  -1.30D-03 should be greater than     0.000000 Eigenvector:
                          R11       R1        R13       R2        D12
   1                    0.35266   0.35258   0.33269   0.33258   0.23464
                          R12       R3        R10       R4        D11
   1                    0.20120   0.20114  -0.17981  -0.17976   0.17906
 Eigenvalue     4 is  -1.19D-03 should be greater than     0.000000 Eigenvector:
                          R9        R6        R5        R8        R11
   1                   -0.35295  -0.35292  -0.27953  -0.27953   0.24440
                          R1        D12       R7        D15       D10
   1                    0.24437  -0.24152   0.21856  -0.20426  -0.20424
 Eigenvalue     5 is  -5.93D-04 should be greater than     0.000000 Eigenvector:
                          A24       A4        D21       D6        D24
   1                   -0.30290  -0.30289  -0.28041  -0.28039  -0.25663
                          D4        R2        R13       D27       D5
   1                   -0.25663  -0.24748  -0.24743  -0.23875  -0.23874
 Eigenvalue     6 is  -4.48D-04 should be greater than     0.000000 Eigenvector:
                          R13       R2        R1        R11       R12
   1                    0.48119  -0.48117   0.37342  -0.37340  -0.18417
                          R3        R8        R5        R6        R9
   1                    0.18417  -0.18226   0.18226  -0.12702   0.12699
 Eigenvalue     7 is  -1.08D-04 should be greater than     0.000000 Eigenvector:
                          A2        A22       R3        R12       A24
   1                    0.29398  -0.29396  -0.24656   0.24648   0.23050
                          A4        D20       D9        D4        D24
   1                   -0.23041  -0.18834   0.18823  -0.18062   0.18060
 Eigenvalue     8 is  -7.57D-05 should be greater than     0.000000 Eigenvector:
                          R11       R1        D19       D3        R12
   1                   -0.35502  -0.35494   0.23059   0.23045   0.22769
                          R3        D22       D1        R8        R5
   1                    0.22759   0.22210   0.22196  -0.21555  -0.21552
 Eigenvalue     9 is  -2.60D-05 should be greater than     0.000000 Eigenvector:
                          R12       R3        R11       R1        D2
   1                   -0.35350   0.35346   0.28990  -0.28986  -0.25791
                          D25       D3        D19       D1        D22
   1                    0.25784  -0.23573   0.23565  -0.19861   0.19854
 Quadratic step=2.190D+01 exceeds max=3.000D-01 adjusted using Lamda=-4.514D-02.
 Angle between NR and scaled steps=  71.46 degrees.
 Angle between quadratic step and forces=   8.29 degrees.
 Linear search not attempted -- first point.
 Iteration  1 RMS(Cart)=  0.06495847 RMS(Int)=  0.00165650
 Iteration  2 RMS(Cart)=  0.00224449 RMS(Int)=  0.00035517
 Iteration  3 RMS(Cart)=  0.00000349 RMS(Int)=  0.00035517
 Iteration  4 RMS(Cart)=  0.00000000 RMS(Int)=  0.00035517
 ITry= 1 IFail=0 DXMaxC= 1.82D-01 DCOld= 1.00D+10 DXMaxT= 3.00D-01 DXLimC= 3.00D+00 Rises=F
 Variable       Old X    -DE/DX   Delta X   Delta X   Delta X     New X
                                 (Linear)    (Quad)   (Total)
    R1        2.06345   0.00137   0.00000   0.02492   0.02492   2.08838
    R2        2.06293   0.00087   0.00000   0.01041   0.01041   2.07334
    R3        2.06709   0.00118   0.00000   0.02135   0.02135   2.08843
    R4        2.88988   0.00561   0.00000   0.10135   0.10135   2.99123
    R5        2.07017   0.00418   0.00000   0.08126   0.08126   2.15143
    R6        2.06735   0.00437   0.00000   0.08546   0.08546   2.15281
    R7        2.89416   0.00059   0.00000   0.01343   0.01343   2.90759
    R8        2.07017   0.00418   0.00000   0.08125   0.08125   2.15142
    R9        2.06735   0.00437   0.00000   0.08546   0.08546   2.15281
   R10        2.88988   0.00561   0.00000   0.10136   0.10136   2.99124
   R11        2.06345   0.00137   0.00000   0.02492   0.02492   2.08838
   R12        2.06709   0.00118   0.00000   0.02135   0.02135   2.08844
   R13        2.06293   0.00087   0.00000   0.01041   0.01041   2.07334
    A1        1.87787  -0.00276   0.00000  -0.05227  -0.05295   1.82493
    A2        1.88312  -0.00226   0.00000  -0.03749  -0.03823   1.84489
    A3        1.93845   0.00271   0.00000   0.04320   0.04240   1.98085
    A4        1.88246  -0.00232   0.00000  -0.04128  -0.04198   1.84048
    A5        1.94778   0.00215   0.00000   0.04461   0.04384   1.99161
    A6        1.93157   0.00207   0.00000   0.03603   0.03520   1.96678
    A7        1.91091   0.00215   0.00000   0.03790   0.03806   1.94897
    A8        1.90497   0.00154   0.00000   0.01775   0.01767   1.92263
    A9        1.97904  -0.00363   0.00000  -0.04919  -0.04886   1.93018
   A10        1.86032  -0.00201   0.00000  -0.03679  -0.03704   1.82328
   A11        1.90403   0.00107   0.00000   0.01732   0.01780   1.92183
   A12        1.90082   0.00095   0.00000   0.01321   0.01333   1.91415
   A13        1.90403   0.00107   0.00000   0.01732   0.01780   1.92183
   A14        1.90082   0.00095   0.00000   0.01321   0.01332   1.91414
   A15        1.97904  -0.00363   0.00000  -0.04917  -0.04884   1.93020
   A16        1.86032  -0.00201   0.00000  -0.03679  -0.03704   1.82328
   A17        1.91091   0.00215   0.00000   0.03790   0.03805   1.94896
   A18        1.90497   0.00154   0.00000   0.01774   0.01766   1.92263
   A19        1.93845   0.00271   0.00000   0.04320   0.04240   1.98085
   A20        1.93157   0.00207   0.00000   0.03602   0.03520   1.96677
   A21        1.94778   0.00215   0.00000   0.04462   0.04384   1.99162
   A22        1.88312  -0.00226   0.00000  -0.03749  -0.03823   1.84489
   A23        1.87787  -0.00276   0.00000  -0.05227  -0.05295   1.82493
   A24        1.88246  -0.00232   0.00000  -0.04128  -0.04198   1.84048
    D1        1.10536  -0.00024   0.00000  -0.00802  -0.00785   1.09751
    D2       -0.92487   0.00009   0.00000   0.00478   0.00466  -0.92021
    D3       -3.04712   0.00021   0.00000   0.00819   0.00808  -3.03904
    D4       -0.99004  -0.00003   0.00000  -0.00113  -0.00094  -0.99098
    D5       -3.02027   0.00029   0.00000   0.01166   0.01157  -3.00870
    D6        1.14066   0.00042   0.00000   0.01507   0.01499   1.15565
    D7       -3.08660   0.00007   0.00000  -0.00300  -0.00280  -3.08940
    D8        1.16636   0.00040   0.00000   0.00979   0.00970   1.17607
    D9       -0.95590   0.00052   0.00000   0.01320   0.01313  -0.94277
   D10        1.05023   0.00029   0.00000   0.00113   0.00113   1.05136
   D11        3.07431  -0.00100   0.00000  -0.02593  -0.02592   3.04839
   D12       -1.08430  -0.00078   0.00000  -0.02668  -0.02665  -1.11096
   D13       -3.09843   0.00135   0.00000   0.02893   0.02892  -3.06951
   D14       -1.07435   0.00007   0.00000   0.00187   0.00186  -1.07249
   D15        1.05023   0.00029   0.00000   0.00113   0.00113   1.05136
   D16       -1.07435   0.00007   0.00000   0.00188   0.00187  -1.07248
   D17        0.94973  -0.00121   0.00000  -0.02518  -0.02519   0.92454
   D18        3.07431  -0.00099   0.00000  -0.02593  -0.02592   3.04839
   D19       -3.04712   0.00021   0.00000   0.00819   0.00808  -3.03904
   D20       -0.95590   0.00052   0.00000   0.01320   0.01313  -0.94277
   D21        1.14066   0.00042   0.00000   0.01507   0.01499   1.15565
   D22        1.10536  -0.00024   0.00000  -0.00802  -0.00785   1.09751
   D23       -3.08660   0.00007   0.00000  -0.00301  -0.00280  -3.08940
   D24       -0.99004  -0.00003   0.00000  -0.00114  -0.00094  -0.99098
   D25       -0.92487   0.00009   0.00000   0.00478   0.00466  -0.92021
   D26        1.16636   0.00040   0.00000   0.00979   0.00970   1.17607
   D27       -3.02027   0.00029   0.00000   0.01167   0.01157  -3.00870
         Item               Value     Threshold  Converged?
 Maximum Force            0.005613     0.000450     NO 
 RMS     Force            0.002067     0.000300     NO 
 Maximum Displacement     0.181938     0.001800     NO 
 RMS     Displacement     0.065372     0.001200     NO 
 Predicted change in Energy=-4.492875D-03
                           ----------------------------
                           ! Non-Optimized Parameters !
                           ! (Angstroms and Degrees)  !
 --------------------------                            --------------------------
 ! Name  Definition              Value          Derivative Info.                !
 --------------------------------------------------------------------------------
 ! R1    R(1,2)                  1.1051         -DE/DX =    0.0014              !
 ! R2    R(1,3)                  1.0972         -DE/DX =    0.0009              !
 ! R3    R(1,4)                  1.1052         -DE/DX =    0.0012              !
 ! R4    R(1,5)                  1.5829         -DE/DX =    0.0056              !
 ! R5    R(5,6)                  1.1385         -DE/DX =    0.0042              !
 ! R6    R(5,7)                  1.1392         -DE/DX =    0.0044              !
 ! R7    R(5,8)                  1.5386         -DE/DX =    0.0006              !
 ! R8    R(8,9)                  1.1385         -DE/DX =    0.0042              !
 ! R9    R(8,10)                 1.1392         -DE/DX =    0.0044              !
 ! R10   R(8,11)                 1.5829         -DE/DX =    0.0056              !
 ! R11   R(11,12)                1.1051         -DE/DX =    0.0014              !
 ! R12   R(11,13)                1.1052         -DE/DX =    0.0012              !
 ! R13   R(11,14)                1.0972         -DE/DX =    0.0009              !
 ! A1    A(2,1,3)              104.5606         -DE/DX =   -0.0028              !
 ! A2    A(2,1,4)              105.7045         -DE/DX =   -0.0023              !
 ! A3    A(2,1,5)              113.4942         -DE/DX =    0.0027              !
 ! A4    A(3,1,4)              105.4518         -DE/DX =   -0.0023              !
 ! A5    A(3,1,5)              114.1111         -DE/DX =    0.0021              !
 ! A6    A(4,1,5)              112.6879         -DE/DX =    0.0021              !
 ! A7    A(1,5,6)              111.6678         -DE/DX =    0.0022              !
 ! A8    A(1,5,7)              110.1589         -DE/DX =    0.0015              !
 ! A9    A(1,5,8)              110.5913         -DE/DX =   -0.0036              !
 ! A10   A(6,5,7)              104.4661         -DE/DX =   -0.002               !
 ! A11   A(6,5,8)              110.1129         -DE/DX =    0.0011              !
 ! A12   A(7,5,8)              109.6726         -DE/DX =    0.0009              !
 ! A13   A(5,8,9)              110.1126         -DE/DX =    0.0011              !
 ! A14   A(5,8,10)             109.6721         -DE/DX =    0.0009              !
 ! A15   A(5,8,11)             110.5926         -DE/DX =   -0.0036              !
 ! A16   A(9,8,10)             104.4663         -DE/DX =   -0.002               !
 ! A17   A(9,8,11)             111.6673         -DE/DX =    0.0022              !
 ! A18   A(10,8,11)            110.1585         -DE/DX =    0.0015              !
 ! A19   A(8,11,12)            113.4942         -DE/DX =    0.0027              !
 ! A20   A(8,11,13)            112.6878         -DE/DX =    0.0021              !
 ! A21   A(8,11,14)            114.1112         -DE/DX =    0.0021              !
 ! A22   A(12,11,13)           105.7046         -DE/DX =   -0.0023              !
 ! A23   A(12,11,14)           104.5605         -DE/DX =   -0.0028              !
 ! A24   A(13,11,14)           105.4518         -DE/DX =   -0.0023              !
 ! D1    D(2,1,5,6)             62.8828         -DE/DX =   -0.0002              !
 ! D2    D(2,1,5,7)            -52.7241         -DE/DX =    0.0001              !
 ! D3    D(2,1,5,8)           -174.1243         -DE/DX =    0.0002              !
 ! D4    D(3,1,5,6)            -56.779          -DE/DX =    0.0                 !
 ! D5    D(3,1,5,7)           -172.3859         -DE/DX =    0.0003              !
 ! D6    D(3,1,5,8)             66.2139         -DE/DX =    0.0004              !
 ! D7    D(4,1,5,6)           -177.0095         -DE/DX =    0.0001              !
 ! D8    D(4,1,5,7)             67.3836         -DE/DX =    0.0004              !
 ! D9    D(4,1,5,8)            -54.0166         -DE/DX =    0.0005              !
 ! D10   D(1,5,8,9)             60.2385         -DE/DX =    0.0003              !
 ! D11   D(1,5,8,10)           174.6596         -DE/DX =   -0.001               !
 ! D12   D(1,5,8,11)           -63.6531         -DE/DX =   -0.0008              !
 ! D13   D(6,5,8,9)           -175.87           -DE/DX =    0.0014              !
 ! D14   D(6,5,8,10)           -61.4489         -DE/DX =    0.0001              !
 ! D15   D(6,5,8,11)            60.2384         -DE/DX =    0.0003              !
 ! D16   D(7,5,8,9)            -61.4487         -DE/DX =    0.0001              !
 ! D17   D(7,5,8,10)            52.9724         -DE/DX =   -0.0012              !
 ! D18   D(7,5,8,11)           174.6597         -DE/DX =   -0.001               !
 ! D19   D(5,8,11,12)         -174.1242         -DE/DX =    0.0002              !
 ! D20   D(5,8,11,13)          -54.0166         -DE/DX =    0.0005              !
 ! D21   D(5,8,11,14)           66.214          -DE/DX =    0.0004              !
 ! D22   D(9,8,11,12)           62.8827         -DE/DX =   -0.0002              !
 ! D23   D(9,8,11,13)         -177.0097         -DE/DX =    0.0001              !
 ! D24   D(9,8,11,14)          -56.7791         -DE/DX =    0.0                 !
 ! D25   D(10,8,11,12)         -52.724          -DE/DX =    0.0001              !
 ! D26   D(10,8,11,13)          67.3836         -DE/DX =    0.0004              !
 ! D27   D(10,8,11,14)        -172.3858         -DE/DX =    0.0003              !
 --------------------------------------------------------------------------------
 GradGradGradGradGradGradGradGradGradGradGradGradGradGradGradGradGradGrad

 Leave Link  103 at Sat Aug 15 12:20:54 2026, MaxMem=   134217728 cpu:               0.0 elap:               0.0
 (Enter /home/emanuele/chem_software/gaussian//gdv/l9999.exe)
 Unable to Open any file for archive entry.
 1\1\GINC-EMANUELE-XPS-13-9343\Freq\AMBER\ZDO\C4H10\EMANUELE\15-Aug-202
 6\0\\#p Amber=(SoftOnly,Print) nosymm Freq=intmodes\\Title\\0,1\C,-0.5
 86838,1.436978,-0.566964\H,-1.380948,2.181498,-0.480955\H,-0.741117,0.
 896584,-1.502852\H,0.366163,1.968936,-0.639975\C,-0.586838,0.491947,0.
 635348\H,-1.526348,-0.071004,0.657687\H,-0.554528,1.082342,1.555793\C,
 0.586838,-0.491947,0.635348\H,1.526348,0.071004,0.657687\H,0.554528,-1
 .082342,1.555793\C,0.586838,-1.436978,-0.566964\H,1.380948,-2.181498,-
 0.480955\H,-0.366163,-1.968936,-0.639975\H,0.741117,-0.896584,-1.50285
 2\\Version=ES64L-GDVRevJ.14\HF=0.0383646\RMSD=0.000e+00\RMSF=2.326e-03
 \ZeroPoint=0.0101505\Thermal=0.0266808\ETot=0.0650454\HTot=0.0659896\G
 Tot=0.0064202\Dipole=-0.0000187,-0.0000002,0.0709518\DipoleDeriv=-0.64
 6624,0.,0.,0.,-0.646624,0.,0.,0.,-0.646624,0.210695,0.,0.,0.,0.210695,
 0.,0.,0.,0.210695,0.210038,0.,0.,0.,0.210038,0.,0.,0.,0.210038,0.21276
 ,0.,0.,0.,0.21276,0.,0.,0.,0.21276,-0.406786,0.,0.,0.,-0.406786,0.,0.,
 0.,-0.406786,0.211064,0.,0.,0.,0.211064,0.,0.,0.,0.211064,0.208865,0.,
 0.,0.,0.208865,0.,0.,0.,0.208865,-0.406821,0.,0.,0.,-0.406821,0.,0.,0.
 ,-0.406821,0.211063,0.,0.,0.,0.211063,0.,0.,0.,0.211063,0.20887,0.,0.,
 0.,0.20887,0.,0.,0.,0.20887,-0.646584,0.,0.,0.,-0.646584,0.,0.,0.,-0.6
 46584,0.210691,0.,0.,0.,0.210691,0.,0.,0.,0.210691,0.212749,0.,0.,0.,0
 .212749,0.,0.,0.,0.212749,0.210021,0.,0.,0.,0.210021,0.,0.,0.,0.210021
 \PG=C02 [X(C4H10)]\NImag=13\\0.00124535,-0.00230281,0.00578201,-0.0004
 4592,0.00062098,0.00005509,0.,0.,0.,-0.00047792,0.,0.,0.,-0.00003605,0
 .00060589,0.,0.,0.,0.00045280,-0.00122367,0.00095274,0.,0.,0.,0.,0.,0.
 ,0.00176475,0.,0.,0.,0.,0.,0.,-0.00265228,0.00339154,0.,0.,0.,0.,0.,0.
 ,-0.00007782,-0.00094632,0.00137827,0.,0.,0.,0.,0.,0.,0.,0.,0.,0.00020
 734,0.,0.,0.,0.,0.,0.,0.,0.,0.,-0.00025135,0.00115011,0.,0.,0.,0.,0.,0
 .,0.,0.,0.,-0.00018131,-0.00140304,0.00131715,0.,0.,0.,0.,0.,0.,0.,0.,
 0.,0.,0.,0.,0.00074269,0.,0.,0.,0.,0.,0.,0.,0.,0.,0.,0.,0.,0.00033530,
 0.00080778,0.,0.,0.,0.,0.,0.,0.,0.,0.,0.,0.,0.,0.00019760,-0.00012345,
 0.00088202,0.,0.,0.,0.00036357,-0.00007824,0.00003955,0.00022226,-0.00
 020576,0.00045944,-0.00003241,-0.00024076,0.00015316,0.,0.,0.,0.001122
 96,0.,0.,0.,-0.00007824,-0.00084341,0.00061268,-0.00020576,0.00013569,
 0.00056614,-0.00024076,-0.00006857,0.00016509,0.,0.,0.,-0.00070361,0.0
 0144786,0.,0.,0.,0.00003955,0.00061268,0.00005891,0.00045944,0.0005661
 4,-0.00087491,0.00015316,0.00016509,0.00008593,0.,0.,0.,-0.00070106,-0
 .00086461,0.00095279,0.,0.,0.,0.00019980,0.00028349,-0.00052531,0.0001
 8447,-0.00000211,-0.00003481,0.00016750,-0.00018628,0.00046134,0.,0.,0
 .,0.,0.,0.,0.00031701,0.,0.,0.,0.00028349,0.00003590,0.00069867,-0.000
 00211,0.00018449,-0.00003466,-0.00018628,0.00018156,0.00044425,0.,0.,0
 .,0.,0.,0.,-0.00140260,0.00062506,0.,0.,0.,-0.00052531,0.00069867,-0.0
 0088170,-0.00003481,-0.00003466,-0.00038405,0.00046134,0.00044425,-0.0
 0073931,0.,0.,0.,0.,0.,0.,-0.00035113,-0.00096404,0.00144628,0.,0.,0.,
 -0.00002289,-0.00030540,0.00012752,-0.00033061,-0.00005348,0.00008235,
 -0.00038929,0.00002349,-0.00001217,0.,0.,0.,0.,0.,0.,0.,0.,0.,0.000742
 79,0.,0.,0.,-0.00030540,0.00016724,-0.00017325,-0.00005348,-0.00032584
 ,-0.00008611,0.00002349,-0.00064909,0.00013573,0.,0.,0.,0.,0.,0.,0.,0.
 ,0.,0.00033539,0.00080769,0.,0.,0.,0.00012752,-0.00017325,-0.00017534,
 0.00008235,-0.00008611,-0.00024916,-0.00001217,0.00013573,-0.00045752,
 0.,0.,0.,0.,0.,0.,0.,0.,0.,-0.00019770,0.00012363,0.00088202,-0.000298
 37,-0.00024033,0.00021547,-0.00009384,0.00015670,-0.00008454,-0.000093
 75,0.00010382,-0.00027171,0.00003982,0.00063970,-0.00043738,0.,0.,0.,-
 0.00039967,-0.00002753,0.,-0.00083051,0.00059598,0.00052925,0.,0.,0.,0
 .00112295,-0.00024033,-0.00051482,-0.00013928,0.00015670,0.00000827,0.
 00006137,0.00010382,0.00015360,0.00009893,0.00063970,-0.00061562,0.000
 71550,0.,0.,0.,-0.00002753,0.00019089,0.,0.00059598,0.00010608,-0.0002
 5722,0.,0.,0.,-0.00070361,0.00144788,0.00021547,-0.00013928,-0.0005453
 0,-0.00008454,0.00006137,0.00008892,-0.00027171,0.00009893,-0.00006749
 ,-0.00043738,0.00071550,-0.00005835,0.,0.,0.,0.,0.,0.00019217,0.000529
 25,-0.00025722,0.00016731,0.,0.,0.,0.00070103,0.00086456,0.00095278,-0
 .00027144,-0.00027202,0.00022921,0.00003238,0.00008234,-0.00005138,0.0
 0007432,0.00005684,-0.00008786,0.00012149,0.00001476,-0.00001062,0.,0.
 ,0.,-0.00083052,0.00059599,-0.00052926,0.00000498,0.00082959,0.,0.,0.,
 0.,0.,0.,0.,0.00031704,-0.00027202,0.00020576,-0.00050592,0.00008234,-
 0.00005764,0.00008665,0.00005684,0.00002472,0.00013419,0.00001476,-0.0
 0011671,0.00017207,0.,0.,0.,0.00059599,0.00010609,0.00025723,0.0008295
 9,-0.00118921,0.,0.,0.,0.,0.,0.,0.,-0.00140260,0.00062506,0.00022921,-
 0.00050592,0.00003161,-0.00005138,0.00008665,0.00002714,-0.00008786,0.
 00013419,-0.00009587,-0.00001062,0.00017207,-0.00000142,0.,0.,0.,-0.00
 052926,0.00025723,0.00016732,0.,0.,0.00043001,0.,0.,0.,0.,0.,0.,0.0003
 5112,0.00096405,0.00144625,0.00063860,0.00329112,0.,-0.00009054,-0.000
 36955,-0.00000878,-0.00071661,-0.00001386,0.00000556,-0.00050698,-0.00
 009255,0.00000198,0.,0.,0.,-0.00029841,-0.00024028,-0.00021542,-0.0002
 7141,-0.00027200,-0.00022919,0.,0.,0.,0.,0.,0.,0.,0.,0.,0.00124536,0.0
 0329112,-0.00607625,0.,-0.00036955,0.00038804,0.00001615,-0.00001386,-
 0.00070015,-0.00000977,-0.00009255,0.00091539,-0.00003062,0.,0.,0.,-0.
 00024028,-0.00051481,0.00013925,-0.00027200,0.00020574,0.00050588,0.,0
 .,0.,0.,0.,0.,0.,0.,0.,-0.00230288,0.00578203,0.,0.,0.00198264,-0.0000
 0878,0.00001615,-0.00029113,0.00000556,-0.00000977,-0.00072058,0.00000
 198,-0.00003062,-0.00051232,0.,0.,0.,-0.00021542,0.00013925,-0.0005452
 8,-0.00022919,0.00050588,0.00003161,0.,0.,0.,0.,0.,0.,0.,0.,0.,0.00044
 585,-0.00062089,0.00005507,-0.00009055,-0.00036957,0.00000878,0.000006
 91,0.00006439,0.,0.00001219,0.00014437,-0.00004793,0.00007035,0.000057
 97,-0.00000222,-0.00002289,-0.00030537,-0.00012751,-0.00009384,0.00015
 670,0.00008454,0.00003238,0.00008233,0.00005138,0.,0.,0.,0.00036356,-0
 .00007824,-0.00003955,0.00019980,0.00028349,0.00052531,0.,0.,0.,-0.000
 47791,-0.00036957,0.00038806,-0.00001615,0.00006439,-0.00005405,0.,0.0
 0014437,-0.00009769,0.00006952,0.00005797,-0.00015257,0.00000908,-0.00
 030537,0.00016722,0.00017323,0.00015670,0.00000827,-0.00006137,0.00008
 233,-0.00005764,-0.00008664,0.,0.,0.,-0.00007824,-0.00084340,-0.000612
 67,0.00028349,0.00003590,-0.00069867,0.,0.,0.,-0.00003607,0.00060589,0
 .00000878,-0.00001615,-0.00029114,0.,0.,0.00004767,-0.00004793,0.00006
 952,0.00008864,-0.00000222,0.00000908,0.00008417,-0.00012751,0.0001732
 3,-0.00017532,0.00008454,-0.00006137,0.00008891,0.00005138,-0.00008664
 ,0.00002713,0.,0.,0.,-0.00003955,-0.00061267,0.00005890,0.00052531,-0.
 00069867,-0.00088171,0.,0.,0.,-0.00045281,0.00122367,0.00095274,-0.000
 50699,-0.00009255,-0.00000198,0.00007035,0.00005797,0.00000222,0.00022
 884,0.00009041,-0.00002723,0.00009335,-0.00005540,0.,-0.00038922,0.000
 02350,0.00001218,0.00003981,0.00063968,0.00043737,0.00012148,0.0000147
 6,0.00001062,0.,0.,0.,-0.00003241,-0.00024075,-0.00015315,0.00016749,-
 0.00018627,-0.00046133,0.,0.,0.,0.,0.,0.,0.00020730,-0.00009255,0.0009
 1541,0.00003062,0.00005797,-0.00015256,-0.00000908,0.00009041,-0.00045
 030,0.00020807,-0.00005540,-0.00019423,0.,0.00002350,-0.00064918,-0.00
 013581,0.00063968,-0.00061561,-0.00071548,0.00001476,-0.00011670,-0.00
 017206,0.,0.,0.,-0.00024075,-0.00006856,-0.00016508,-0.00018627,0.0001
 8155,-0.00044424,0.,0.,0.,0.,0.,0.,-0.00025136,0.00115019,-0.00000198,
 0.00003062,-0.00051233,0.00000222,-0.00000908,0.00008417,-0.00002723,0
 .00020807,0.00017802,0.,0.,0.00010365,0.00001218,-0.00013581,-0.000457
 50,0.00043737,-0.00071548,-0.00005835,0.00001062,-0.00017206,-0.000001
 42,0.,0.,0.,-0.00015315,-0.00016508,0.00008593,-0.00046133,-0.00044424
 ,-0.00073930,0.,0.,0.,0.,0.,0.,0.00018130,0.00140307,0.00131713,-0.000
 71661,-0.00001384,-0.00000555,0.00001219,0.00014436,0.00004793,-0.0013
 4586,0.00253204,0.,0.00022884,0.00009041,0.00002723,-0.00033059,-0.000
 05343,-0.00008227,-0.00009375,0.00010382,0.00027169,0.00007431,0.00005
 684,0.00008785,0.,0.,0.,0.00022223,-0.00020575,-0.00045942,0.00018446,
 -0.00000211,0.00003481,0.,0.,0.,0.,0.,0.,0.,0.,0.,0.00176476,-0.000013
 84,-0.00070016,0.00000975,0.00014436,-0.00009768,-0.00006952,0.0025320
 4,-0.00231607,0.,0.00009041,-0.00045029,-0.00020806,-0.00005343,-0.000
 32582,0.00008603,0.00010382,0.00015359,-0.00009892,0.00005684,0.000024
 72,-0.00013418,0.,0.,0.,-0.00020575,0.00013568,-0.00056611,-0.00000211
 ,0.00018448,0.00003465,0.,0.,0.,0.,0.,0.,0.,0.,0.,-0.00265234,0.003391
 56,-0.00000555,0.00000975,-0.00072057,0.00004793,-0.00006952,0.0000886
 3,0.,0.,0.00074713,0.00002723,-0.00020806,0.00017802,-0.00008227,0.000
 08603,-0.00024921,0.00027169,-0.00009892,-0.00006749,0.00008785,-0.000
 13418,-0.00009586,0.,0.,0.,-0.00045942,-0.00056611,-0.00087487,0.00003
 481,0.00003465,-0.00038403,0.,0.,0.,0.,0.,0.,0.,0.,0.,0.00007775,0.000
 94635,0.00137824\\-0.00224619,0.00133115,-0.00182946,0.00036485,-0.001
 87537,0.00224142,0.00051660,-0.00165017,0.00187820,-0.00050889,-0.0012
 2717,0.00215946,-0.00204018,0.00405290,0.00299760,0.00378557,0.0017114
 2,-0.00272858,0.00213711,-0.00086321,-0.00471914,0.00204049,-0.0040535
 5,0.00299812,-0.00378538,-0.00171132,-0.00272844,-0.00213710,0.0008632
 0,-0.00471905,0.00224593,-0.00133083,-0.00182920,-0.00036492,0.0018754
 2,0.00224143,0.00050885,0.00122729,0.00215946,-0.00051675,0.00165025,0
 .00187819\\\@
 The archive entry for this job was punched.


 KNOWLEDGE IS EXPERIMENT'S DAUGHTER.
 -- LEONARDO DA VINCI, IN "PENSIERI" CA. 1492
 Job cpu time:       0 days  0 hours  0 minutes  0.5 seconds.
 Elapsed time:       0 days  0 hours  0 minutes  0.5 seconds.
 File lengths (MBytes):  RWF=      6 Int=      0 D2E=      0 Chk=      1 Scr=      1
 Normal termination of Gaussian DV at Sat Aug 15 12:20:54 2026.
