 Entering Gaussian System, Link 0=/home/emanuele/chem_software/gaussian/g09/g09
 Input=hessfit4gau.gjf
 Output=hessfit4gau.log
 Initial command:
 /home/emanuele/chem_software/gaussian//gdv/l1.exe "/home/emanuele/chem_software/gaussian/scratch/Gau-10445.inp" -scrdir="/home/emanuele/chem_software/gaussian/scratch/"
 Entering Link 1 = /home/emanuele/chem_software/gaussian//gdv/l1.exe PID=     10447.
  
 Copyright (c) 1988-2020, Gaussian, Inc.  All Rights Reserved.
  
 This is the private, development version of
 the Gaussian(R) DV system of programs. It is based on
 the Gaussian(R) 16 system (copyright 2016, Gaussian, Inc.),
 the Gaussian(R) 09 system (copyright 2009, Gaussian, Inc.),
 the Gaussian(R) 03 system (copyright 2003, Gaussian, Inc.),
 the Gaussian(R) 98 system (copyright 1998, Gaussian, Inc.),
 the Gaussian(R) 94 system (copyright 1995, Gaussian, Inc.),
 the Gaussian 92(TM) system (copyright 1992, Gaussian, Inc.),
 the Gaussian 90(TM) system (copyright 1990, Gaussian, Inc.),
 the Gaussian 88(TM) system (copyright 1988, Gaussian, Inc.),
 the Gaussian 86(TM) system (copyright 1986, Carnegie Mellon
 University), and the Gaussian 82(TM) system (copyright 1983,
 Carnegie Mellon University). Gaussian is a federally registered
 trademark of Gaussian, Inc.
  
 This software contains proprietary and confidential information,
 including trade secrets, belonging to Gaussian, Inc.
  
 This software is provided under written license and may be
 used, copied, transmitted, or stored only in accord with that
 written license.
  
 The following legend is applicable only to US Government
 contracts under FAR:
  
                    RESTRICTED RIGHTS LEGEND
  
 Use, reproduction and disclosure by the US Government is
 subject to restrictions as set forth in subparagraphs (a)
 and (c) of the Commercial Computer Software - Restricted
 Rights clause in FAR 52.227-19.
  
 Gaussian, Inc.
 340 Quinnipiac St., Bldg. 40, Wallingford CT 06492
  
  
 ---------------------------------------------------------------
 Warning -- This program may not be used in any manner that
 competes with the business of Gaussian, Inc. or will provide
 assistance to any competitor of Gaussian, Inc.  The licensee
 of this program is prohibited from giving any competitor of
 Gaussian, Inc. access to this program.  By using this program,
 the user acknowledges that Gaussian, Inc. is engaged in the
 business of creating and licensing software in the field of
 computational chemistry and represents and warrants to the
 licensee that it is not a competitor of Gaussian, Inc. and that
 it will not use this program in any manner prohibited above.
 ---------------------------------------------------------------
  

 Cite this work as:
 Gaussian Development Version, Revision J.14,
 M. J. Frisch, G. W. Trucks, H. B. Schlegel, G. E. Scuseria, 
 M. A. Robb, J. R. Cheeseman, G. Scalmani, V. Barone, 
 G. A. Petersson, H. Nakatsuji, X. Li, A. V. Marenich, M. Caricato, 
 J. Bloino, B. G. Janesko, J. Zheng, R. Gomperts, B. Mennucci, 
 H. P. Hratchian, J. V. Ortiz, A. F. Izmaylov, J. L. Sonnenberg, 
 D. Williams-Young, F. Ding, F. Lipparini, F. Egidi, J. Goings, 
 B. Peng, A. Petrone, T. Henderson, D. Ranasinghe, V. G. Zakrzewski, 
 J. Gao, N. Rega, G. Zheng, W. Liang, M. Hada, M. Ehara, K. Toyota, 
 R. Fukuda, J. Hasegawa, M. Ishida, T. Nakajima, Y. Honda, O. Kitao, 
 H. Nakai, T. Vreven, K. Throssell, J. A. Montgomery, Jr., 
 J. E. Peralta, F. Ogliaro, M. J. Bearpark, J. J. Heyd, 
 E. N. Brothers, K. N. Kudin, V. N. Staroverov, T. A. Keith, 
 R. Kobayashi, J. Normand, K. Raghavachari, A. P. Rendell, 
 J. C. Burant, S. S. Iyengar, J. Tomasi, M. Cossi, J. M. Millam, 
 M. Klene, C. Adamo, R. Cammi, J. W. Ochterski, R. L. Martin, 
 K. Morokuma, O. Farkas, J. B. Foresman, and D. J. Fox, 
 Gaussian, Inc., Wallingford CT, 2020.
 
 ******************************************
 Gaussian DV:  ES64L-GDVRevJ.14 29-Dec-2020
                14-Aug-2026 
 ******************************************
 %mem=1GB
 %nprocshared=1
 Will use up to    1 processors via shared memory.
 %chk=hessfit4gau.chk
 ----------------------------------------------------------------------
 #p Amber=(SoftFirst,Print) nosymm geom=nocrowd opt(MaxMicroiterations=
 2000) Freq=intmodes
 ----------------------------------------------------------------------
 1/6=10,10=10,18=4000020,19=15,37=210000000,38=1,56=2,64=203,139=2000/1,3;
 2/9=110,12=1,15=1,40=1/2;
 3/5=30,11=9,25=1,30=1,41=10030000,43=2,71=1/1;
 4/20=11,22=1001,24=3,119=11,120=2000/2;
 7/30=1,44=-1/16;
 1/6=10,10=10,18=4000020,19=15,64=203,139=2000/3(2);
 2/9=110,12=1,15=1/2;
 99//99;
 2/9=110,12=1,15=1/2;
 3/5=30,11=9,25=1,30=1,41=10030000,43=2,71=1/1;
 4/16=2,20=11,22=1001,24=3,119=11,120=2000/2;
 7/30=1,44=-1/16;
 1/6=10,10=10,18=4000020,19=15,64=203,139=2000/3(-4);
 2/9=110,12=1,15=1/2;
 99/9=10/99;
 Leave Link    1 at Fri Aug 14 10:43:57 2026, MaxMem=   134217728 cpu:               0.0 elap:               0.0
 (Enter /home/emanuele/chem_software/gaussian//gdv/l101.exe)
 -----
 Title
 -----
 Symbolic Z-matrix:
 Charge =  0 Multiplicity = 1
 C-c3--0.768379       -0.70604   1.82006   0. 
 H-h3-+0.209939       -1.72143   2.22156   0. 
 H-h3-+0.210941       -0.19073   2.20746  -0.88279 
 H-h3-+0.210941       -0.19073   2.20746   0.88279 
 C-c3--0.277892       -0.70604   0.29213   0. 
 H-h3-+0.207224       -1.24715  -0.07746  -0.87756 
 H-h3-+0.207224       -1.24715  -0.07746   0.87756 
 C-c3--0.277892        0.70604  -0.29213   0. 
 H-h3-+0.207224        1.24715   0.07746  -0.87756 
 H-h3-+0.207224        1.24715   0.07746   0.87756 
 C-c3--0.768379        0.70604  -1.82006   0. 
 H-h3-+0.210941        0.19073  -2.20746  -0.88279 
 H-h3-+0.209939        1.72143  -2.22156   0. 
 H-h3-+0.210941        0.19073  -2.20746   0.88279 
 
 ITRead=  3  3  3  3  3  3  3  3  3  3  3  3  3  3
 MicOpt=  0  0  0  0  0  0  0  0  0  0  0  0  0  0
 NAtoms=     14 NQM=        0 NQMF=       0 NMMI=      0 NMMIF=      0
                NMic=      14 NMicF=      0.
                    Isotopes and Nuclear Properties:
 (Nuclear quadrupole moments (NQMom) in fm**2, nuclear magnetic moments (NMagM)
  in nuclear magnetons)

  Atom         1           2           3           4           5           6           7           8           9          10
 IAtWgt=          12           1           1           1          12           1           1          12           1           1
 AtmWgt=  12.0000000   1.0078250   1.0078250   1.0078250  12.0000000   1.0078250   1.0078250  12.0000000   1.0078250   1.0078250
 NucSpn=           0           1           1           1           0           1           1           0           1           1
 AtZEff=  -0.0000000  -0.0000000  -0.0000000  -0.0000000  -0.0000000  -0.0000000  -0.0000000  -0.0000000  -0.0000000  -0.0000000
 NQMom=    0.0000000   0.0000000   0.0000000   0.0000000   0.0000000   0.0000000   0.0000000   0.0000000   0.0000000   0.0000000
 NMagM=    0.0000000   2.7928460   2.7928460   2.7928460   0.0000000   2.7928460   2.7928460   0.0000000   2.7928460   2.7928460
 AtZNuc=   6.0000000   1.0000000   1.0000000   1.0000000   6.0000000   1.0000000   1.0000000   6.0000000   1.0000000   1.0000000

  Atom        11          12          13          14
 IAtWgt=          12           1           1           1
 AtmWgt=  12.0000000   1.0078250   1.0078250   1.0078250
 NucSpn=           0           1           1           1
 AtZEff=  -0.0000000  -0.0000000  -0.0000000  -0.0000000
 NQMom=    0.0000000   0.0000000   0.0000000   0.0000000
 NMagM=    0.0000000   2.7928460   2.7928460   2.7928460
 AtZNuc=   6.0000000   1.0000000   1.0000000   1.0000000
 Generating MM parameters.
 Read MM parameter file:
 Define C3         1
 Include all MM classes

 MM sanity checks:
 All charges sum to:               -0.00000400
 Charges of atoms sum to:          -0.00000400
 WARNING -- The following centers have non-zero partial charges, but zero Vanderwaals
 parameters.  These centers can collapse onto other centers with non-zero charge.
   Center  Layer   Charge
      1 C    R   -0.768379
      5 C    R   -0.277892
      8 C    R   -0.277892
     11 C    R   -0.768379
 MMInit generated parameter data with length LenPar=        2717.
 MM Charge=             -0.0000 electrons
 MM Dipole moment (Debye):
    X=             -0.0000    Y=              0.0000    Z=              0.0000  Tot=              0.0000
 MM Quadrupole moment (Debye-Ang):
   XX=              7.3060   YY=              5.0465   ZZ=              6.2244
   XY=              1.0015   XZ=              0.0000   YZ=              0.0000
 MM Traceless Quadrupole moment (Debye-Ang):
   XX=              1.1137   YY=             -1.1458   ZZ=              0.0321
   XY=              1.0015   XZ=              0.0000   YZ=              0.0000
 MM Octapole moment (Debye-Ang**2):
  XXX=              0.0000  YYY=             -0.0000  ZZZ=              0.0000  XYY=              0.0000
  XXY=              0.0000  XXZ=              0.0000  XZZ=              0.0000  YZZ=              0.0000
  YYZ=              0.0000  XYZ=              0.0000
 MM Hexadecapole moment (Debye-Ang**3):
 XXXX=             24.8492 YYYY=             64.3375 ZZZZ=              4.8226 XXXY=            -17.3161
 XXXZ=              0.0000 YYYX=            -14.9089 YYYZ=              0.0000 ZZZX=              0.0000
 ZZZY=              0.0000 XXYY=             17.9483 XXZZ=              4.8838 YYZZ=             15.4087
 XXYZ=              0.0000 YYXZ=              0.0000 ZZXY=             -1.0336
 Leave Link  101 at Fri Aug 14 10:43:57 2026, MaxMem=   134217728 cpu:               0.3 elap:               0.3
 (Enter /home/emanuele/chem_software/gaussian//gdv/l103.exe)

 GradGradGradGradGradGradGradGradGradGradGradGradGradGradGradGradGradGrad
 Berny optimization.
 Initialization pass.
 No Z-matrix variables, so optimization will use Cartesian coordinates.
 Trust Radius=1.00D-01 FncErr=1.00D-07 GrdErr=1.00D-07 EigMax=2.50D+02 EigMin=1.00D-04
 Number of steps in this run=      2 maximum allowed number of steps=      2.
 GradGradGradGradGradGradGradGradGradGradGradGradGradGradGradGradGradGrad

 Leave Link  103 at Fri Aug 14 10:43:57 2026, MaxMem=   134217728 cpu:               0.0 elap:               0.0
 (Enter /home/emanuele/chem_software/gaussian//gdv/l202.exe)
                          Input orientation:                          
 ---------------------------------------------------------------------
 Center     Atomic      Atomic             Coordinates (Angstroms)
 Number     Number       Type             X           Y           Z
 ---------------------------------------------------------------------
      1          6    90000001       -0.706035    1.820058    0.000000
      2          1    20001037       -1.721430    2.221559    0.000000
      3          1    20001037       -0.190734    2.207457   -0.882786
      4          1    20001037       -0.190734    2.207457    0.882786
      5          6    90000001       -0.706035    0.292130    0.000000
      6          1    20001037       -1.247145   -0.077461   -0.877558
      7          1    20001037       -1.247145   -0.077461    0.877558
      8          6    90000001        0.706035   -0.292130    0.000000
      9          1    20001037        1.247145    0.077461   -0.877558
     10          1    20001037        1.247145    0.077461    0.877558
     11          6    90000001        0.706035   -1.820058    0.000000
     12          1    20001037        0.190734   -2.207457   -0.882786
     13          1    20001037        1.721430   -2.221559    0.000000
     14          1    20001037        0.190734   -2.207457    0.882786
 ---------------------------------------------------------------------
                    Distance matrix (angstroms):
                    1          2          3          4          5
     1  C    0.000000
     2  H    1.091893   0.000000
     3  H    1.093126   1.767071   0.000000
     4  H    1.093126   1.767071   1.765572   0.000000
     5  C    1.527928   2.180303   2.171019   2.171019   0.000000
     6  H    2.159511   2.506102   2.517316   3.071753   1.095219
     7  H    2.159511   2.506102   3.071753   2.517316   1.095219
     8  C    2.540724   3.494455   2.798471   2.798471   1.528169
     9  H    2.760736   3.765594   2.569904   3.114994   2.152000
    10  H    2.760736   3.765594   3.114994   2.569904   2.152000
    11  C    3.904406   4.714579   4.219524   4.219524   2.540724
    12  H    4.219524   4.904270   4.431364   4.770139   2.798471
    13  H    4.714579   5.620906   4.904270   4.904270   3.494455
    14  H    4.219524   4.904270   4.770139   4.431364   2.798471
                    6          7          8          9         10
     6  H    0.000000
     7  H    1.755116   0.000000
     8  C    2.152000   2.152000   0.000000
     9  H    2.499097   3.053836   1.095219   0.000000
    10  H    3.053836   2.499097   1.095219   1.755116   0.000000
    11  C    2.760736   2.760736   1.527928   2.159511   2.159511
    12  H    2.569904   3.114994   2.171019   2.517316   3.071753
    13  H    3.765594   3.765594   2.180303   2.506102   2.506102
    14  H    3.114994   2.569904   2.171019   3.071753   2.517316
                   11         12         13         14
    11  C    0.000000
    12  H    1.093126   0.000000
    13  H    1.091893   1.767071   0.000000
    14  H    1.093126   1.765572   1.767071   0.000000
 Symmetry turned off by external request.
 Stoichiometry    C4H10
 Framework group  C2H[SGH(C4H2),X(H8)]
 Deg. of freedom    11
 Full point group                 C2H     NOp   4
 Rotational constants (GHZ):          23.3888509           3.6524088           3.4266694
 Leave Link  202 at Fri Aug 14 10:43:57 2026, MaxMem=   134217728 cpu:               0.0 elap:               0.0
 (Enter /home/emanuele/chem_software/gaussian//gdv/l301.exe)
 Standard basis: Dummy (5D, 7F)
    14 basis functions,    14 primitive gaussians,    14 cartesian basis functions
     9 alpha electrons        9 beta electrons
       nuclear repulsion energy        36.5901170517 Hartrees.
 IExCor=       0 DFT=F Ex=HF Corr=None N6=None ScaHFX=  1.000000
 ScaDFX=  1.000000  1.000000  1.000000  1.000000  1.000000  0.000000
 ScaDFX=  0.000000  0.000000  0.000000  0.000000  0.000000  0.000000
 IRadAn=      5 IRanWt=     -1 IRanGd=            0 ICorTp=0 IEmpDi=  4
 NAtoms=   14 NActive=   14 NUniq=   14 SFac= 1.00D+00 NAtFMM=   60 NAOKFM=F Big=F
 Integral buffers will be    131072 words long.
 Raffenetti 1 integral format.
 Two-electron integral symmetry is turned off.
 Leave Link  301 at Fri Aug 14 10:43:57 2026, MaxMem=   134217728 cpu:               0.0 elap:               0.0
 (Enter /home/emanuele/chem_software/gaussian//gdv/l402.exe)
 AMBER calculation of energy and first derivatives.
 NRF= 0 NRA=   0 NVA=  14 HaveQM=F NVQ=       0
 Convergence limit is  0.750E-04 MaxStp=  2000 StMxLn= 3.00D-04 StpMin= 1.00D-06.
 Convergence criteria             0.00011250 0.00007500 0.00045000 0.00030000
  Step  NS  ND Rises OKQ   Scale  Max. Force  RMS Force Max. Disp.  RMS Disp.     Energy   Flag
     1   0   0   F    T  1.00D+00 0.00813532 0.00295745 0.00813532 0.00295745    0.0436013 ----
     2   0   0   F    F  1.14D+00 0.00813532 0.00295745 0.00927195 0.00337065    0.0433200 ----
     3   0   0   F    T  2.40D+00 0.00560257 0.00213754 0.01272727 0.00632809    0.0432087 ----
     4   0   0   F    F  6.14D-01 0.00560257 0.00213754 0.00781265 0.00388451    0.0428905 ----
     5   0   0   F    T  3.29D+00 0.00371942 0.00202173 0.02459940 0.01021260    0.0428365 ----
     6   0   0   F    F -7.55D-02 0.00371942 0.00202173 0.00185817 0.00077143    0.0425768 ----
     7   0   0   F    T  4.52D+00 0.00464683 0.00142289 0.02418029 0.00944117    0.0425750 ----
     8   0   0   F    F -4.02D-01 0.00464683 0.00142289 0.00971131 0.00379177    0.0425120 ----
     9   0   0   F    T  2.57D+00 0.00257679 0.00131098 0.01177357 0.00564940    0.0424598 ----
    10   0   0   F    F  7.08D-01 0.00257679 0.00131098 0.00833686 0.00400033    0.0423290 ----
    11   0   0   F    T  1.00D+01 0.00112838 0.00071027 0.02017214 0.00964973    0.0423020 ----
    12   0   0   F    F -1.72D-01 0.00112838 0.00071027 0.00346953 0.00165972    0.0422177 ----
    13   0   0   F    T  3.00D+00 0.00352425 0.00112331 0.01478025 0.00799001    0.0422139 ----
    14   0   0   F    F -3.49D-01 0.00352425 0.00112331 0.00515336 0.00278584    0.0421769 ----
    15   0   0   F    T  5.07D+00 0.00220331 0.00062558 0.01080585 0.00520417    0.0421620 ----
    16   0   0   F    F  9.46D-01 0.00220331 0.00062558 0.01021886 0.00492147    0.0421001 ----
    17   0   0   F    T  6.96D+00 0.00186244 0.00069666 0.02342374 0.01012565    0.0420809 ----
    18   0   0   T    F  2.87D-01 0.00186244 0.00069666 0.00671124 0.00290114    0.0421862 ----
    19   0   0   F    T  5.72D+00 0.00082329 0.00034860 0.00776568 0.00290114    0.0420606 ----
    20   0   0   F    F -3.88D-01 0.00082329 0.00034860 0.00301221 0.00112532    0.0420553 ----
    21   0   0   F    T  2.89D+00 0.00076515 0.00034803 0.00418889 0.00177583    0.0420517 ----
    22   0   0   F    F  1.10D+00 0.00076515 0.00034803 0.00458760 0.00194486    0.0420405 ----
    23   0   0   F    T  8.95D+00 0.00064880 0.00025437 0.00762278 0.00372068    0.0420363 ----
    24   0   0   T    F  1.41D-01 0.00064880 0.00025437 0.00107156 0.00052303    0.0420985 ----
    25   0   0   F    T  5.38D+00 0.00015911 0.00008532 0.00111376 0.00052303    0.0420346 ----
    26   0   0   F    F  1.59D+00 0.00015911 0.00008532 0.00177214 0.00083221    0.0420332 ----
    27   0   0   F    T  1.82D+01 0.00014077 0.00005868 0.00307147 0.00135524    0.0420324 -+--
    28   0   0   T    T  1.00D+00 0.00196602 0.00071998 0.00196602 0.00071998    0.0420466 ----
    29   0   0   T    F  5.00D-01 0.00196602 0.00071998 0.00098301 0.00035999    0.0420431 ----
    30   0   0   T    F  5.00D-01 0.00196602 0.00071998 0.00049150 0.00018000    0.0420355 ---+
    31   0   0   T    F  5.00D-01 0.00196602 0.00071998 0.00024575 0.00009000    0.0420334 --++
    32   0   0   T    F  5.00D-01 0.00196602 0.00071998 0.00012288 0.00004500    0.0420328 --++
    33   0   0   T    F  5.00D-01 0.00196602 0.00071998 0.00006144 0.00002250    0.0420326 --++
    34   0   0   T    F  5.00D-01 0.00196602 0.00071998 0.00003072 0.00001125    0.0420325 --++
    35   0   0   T    F  5.00D-01 0.00196602 0.00071998 0.00001536 0.00000562    0.0420325 --++
    36   0   0   T    F  5.00D-01 0.00196602 0.00071998 0.00000768 0.00000281    0.0420325 --++
    37   0   0   T    F  5.00D-01 0.00196602 0.00071998 0.00000384 0.00000141    0.0420325 --++
    38   0   0   T    F  5.00D-01 0.00196602 0.00071998 0.00000192 0.00000070    0.0420324 --++
    39   0   0   T    F  5.00D-01 0.00196602 0.00071998 0.00000096 0.00000035    0.0420324 --++
    40   0   0   T    T  1.00D+00 0.00014127 0.00005894 0.00004094 0.00001713    0.0420324 -+++
    41   0   0   F    T  1.00D+00 0.00015032 0.00005881 0.00015008 0.00005880    0.0420324 -+++
    42   0   0   F    T  5.11D+00 0.00004234 0.00001650 0.00015178 0.00005880    0.0420323 ====
 ****************************
 MOLECULAR MECHANICS FUNCTION
 ****************************
 Atomic parameters:
 Center  VDW
      1 0.0000 0.0000000
      2 1.1870 0.0157000
      3 1.1870 0.0157000
      4 1.1870 0.0157000
      5 0.0000 0.0000000
      6 1.1870 0.0157000
      7 1.1870 0.0157000
      8 0.0000 0.0000000
      9 1.1870 0.0157000
     10 1.1870 0.0157000
     11 0.0000 0.0000000
     12 1.1870 0.0157000
     13 1.1870 0.0157000
     14 1.1870 0.0157000
 Molecular mechanics terms:
 NBDir 3 1      0      0
 HrmStr1  1- 2  388.18 1.0940
 HrmStr1  1- 3  388.18 1.0940
 HrmStr1  1- 4  388.18 1.0940
 HrmStr1  1- 5  324.19 1.5280
 HrmStr1  5- 6  388.18 1.0940
 HrmStr1  5- 7  388.18 1.0940
 HrmStr1  5- 8  324.19 1.5280
 HrmStr1  8- 9  388.18 1.0940
 HrmStr1  8-10  388.18 1.0940
 HrmStr1  8-11  324.19 1.5280
 HrmStr1 11-12  388.18 1.0940
 HrmStr1 11-13  388.18 1.0940
 HrmStr1 11-14  388.18 1.0940
 HrmBnd1  1- 5- 6  40.32 110.11
 HrmBnd1  1- 5- 7  40.32 110.11
 HrmBnd1  1- 5- 8  54.07 112.48
 HrmBnd1  2- 1- 3  35.08 107.53
 HrmBnd1  2- 1- 4  35.08 107.53
 HrmBnd1  5- 1- 2  40.32 110.11
 HrmBnd1  3- 1- 4  35.08 107.53
 HrmBnd1  5- 1- 3  40.32 110.11
 HrmBnd1  5- 1- 4  40.32 110.11
 HrmBnd1  5- 8- 9  40.32 110.11
 HrmBnd1  5- 8-10  40.32 110.11
 HrmBnd1  5- 8-11  54.07 112.48
 HrmBnd1  6- 5- 7  35.08 107.53
 HrmBnd1  8- 5- 6  40.32 110.11
 HrmBnd1  8- 5- 7  40.32 110.11
 HrmBnd1  8-11-12  40.32 110.11
 HrmBnd1  8-11-13  40.32 110.11
 HrmBnd1  8-11-14  40.32 110.11
 HrmBnd1  9- 8-10  35.08 107.53
 HrmBnd1 11- 8- 9  40.32 110.11
 HrmBnd1 11- 8-10  40.32 110.11
 HrmBnd1 12-11-13  35.08 107.53
 HrmBnd1 12-11-14  35.08 107.53
 HrmBnd1 13-11-14  35.08 107.53
 AmbTrs  2- 1- 5- 6   0   0   0   0  0.0000  0.0000  1.6700  0.0000  9.0
 AmbTrs  2- 1- 5- 7   0   0   0   0  0.0000  0.0000  1.6700  0.0000  9.0
 AmbTrs  8- 5- 1- 2   0   0   0   0  0.0000  0.0000  1.6700  0.0000  9.0
 AmbTrs  3- 1- 5- 6   0   0   0   0  0.0000  0.0000  1.6700  0.0000  9.0
 AmbTrs  3- 1- 5- 7   0   0   0   0  0.0000  0.0000  1.6700  0.0000  9.0
 AmbTrs  8- 5- 1- 3   0   0   0   0  0.0000  0.0000  1.6700  0.0000  9.0
 AmbTrs  4- 1- 5- 6   0   0   0   0  0.0000  0.0000  1.6700  0.0000  9.0
 AmbTrs  4- 1- 5- 7   0   0   0   0  0.0000  0.0000  1.6700  0.0000  9.0
 AmbTrs  8- 5- 1- 4   0   0   0   0  0.0000  0.0000  1.6700  0.0000  9.0
 AmbTrs  1- 5- 8- 9   0   0   0   0  0.0000  0.0000  1.6700  0.0000  9.0
 AmbTrs  1- 5- 8-10   0   0   0   0  0.0000  0.0000  1.6700  0.0000  9.0
 AmbTrs  1- 5- 8-11   0   0   0   0  0.0000  0.0000  2.3000  0.0000  9.0
 AmbTrs  6- 5- 8- 9   0   0   0   0  0.0000  0.0000  1.6700  0.0000  9.0
 AmbTrs  6- 5- 8-10   0   0   0   0  0.0000  0.0000  1.6700  0.0000  9.0
 AmbTrs 11- 8- 5- 6   0   0   0   0  0.0000  0.0000  1.6700  0.0000  9.0
 AmbTrs  7- 5- 8- 9   0   0   0   0  0.0000  0.0000  1.6700  0.0000  9.0
 AmbTrs  7- 5- 8-10   0   0   0   0  0.0000  0.0000  1.6700  0.0000  9.0
 AmbTrs 11- 8- 5- 7   0   0   0   0  0.0000  0.0000  1.6700  0.0000  9.0
 AmbTrs  5- 8-11-12   0   0   0   0  0.0000  0.0000  1.6700  0.0000  9.0
 AmbTrs  5- 8-11-13   0   0   0   0  0.0000  0.0000  1.6700  0.0000  9.0
 AmbTrs  5- 8-11-14   0   0   0   0  0.0000  0.0000  1.6700  0.0000  9.0
 AmbTrs  9- 8-11-12   0   0   0   0  0.0000  0.0000  1.6700  0.0000  9.0
 AmbTrs  9- 8-11-13   0   0   0   0  0.0000  0.0000  1.6700  0.0000  9.0
 AmbTrs  9- 8-11-14   0   0   0   0  0.0000  0.0000  1.6700  0.0000  9.0
 AmbTrs 10- 8-11-12   0   0   0   0  0.0000  0.0000  1.6700  0.0000  9.0
 AmbTrs 10- 8-11-13   0   0   0   0  0.0000  0.0000  1.6700  0.0000  9.0
 AmbTrs 10- 8-11-14   0   0   0   0  0.0000  0.0000  1.6700  0.0000  9.0
 NBPair  2- 1 3 1      0      0 -1.000 -1.000
 NBPair  3- 2 3 1      0      0 -1.000 -1.000
 NBPair  4- 2 3 1      0      0 -1.000 -1.000
 NBPair  5- 2 3 1      0      0 -1.000 -1.000
 NBPair  3- 1 3 1      0      0 -1.000 -1.000
 NBPair  4- 3 3 1      0      0 -1.000 -1.000
 NBPair  5- 3 3 1      0      0 -1.000 -1.000
 NBPair  4- 1 3 1      0      0 -1.000 -1.000
 NBPair  5- 4 3 1      0      0 -1.000 -1.000
 NBPair  5- 1 3 1      0      0 -1.000 -1.000
 NBPair  6- 2 3 1      0      0 -0.500 -0.167
 NBPair  7- 2 3 1      0      0 -0.500 -0.167
 NBPair  8- 2 3 1      0      0 -0.500 -0.167
 NBPair  6- 3 3 1      0      0 -0.500 -0.167
 NBPair  7- 3 3 1      0      0 -0.500 -0.167
 NBPair  8- 3 3 1      0      0 -0.500 -0.167
 NBPair  6- 4 3 1      0      0 -0.500 -0.167
 NBPair  7- 4 3 1      0      0 -0.500 -0.167
 NBPair  8- 4 3 1      0      0 -0.500 -0.167
 NBPair  6- 1 3 1      0      0 -1.000 -1.000
 NBPair  7- 1 3 1      0      0 -1.000 -1.000
 NBPair  8- 1 3 1      0      0 -1.000 -1.000
 NBPair  6- 5 3 1      0      0 -1.000 -1.000
 NBPair  7- 6 3 1      0      0 -1.000 -1.000
 NBPair  8- 6 3 1      0      0 -1.000 -1.000
 NBPair  7- 5 3 1      0      0 -1.000 -1.000
 NBPair  8- 7 3 1      0      0 -1.000 -1.000
 NBPair  8- 5 3 1      0      0 -1.000 -1.000
 NBPair  9- 1 3 1      0      0 -0.500 -0.167
 NBPair 10- 1 3 1      0      0 -0.500 -0.167
 NBPair 11- 1 3 1      0      0 -0.500 -0.167
 NBPair  9- 6 3 1      0      0 -0.500 -0.167
 NBPair 10- 6 3 1      0      0 -0.500 -0.167
 NBPair 11- 6 3 1      0      0 -0.500 -0.167
 NBPair  9- 7 3 1      0      0 -0.500 -0.167
 NBPair 10- 7 3 1      0      0 -0.500 -0.167
 NBPair 11- 7 3 1      0      0 -0.500 -0.167
 NBPair  9- 5 3 1      0      0 -1.000 -1.000
 NBPair 10- 5 3 1      0      0 -1.000 -1.000
 NBPair 11- 5 3 1      0      0 -1.000 -1.000
 NBPair  9- 8 3 1      0      0 -1.000 -1.000
 NBPair 10- 9 3 1      0      0 -1.000 -1.000
 NBPair 11- 9 3 1      0      0 -1.000 -1.000
 NBPair 10- 8 3 1      0      0 -1.000 -1.000
 NBPair 11-10 3 1      0      0 -1.000 -1.000
 NBPair 11- 8 3 1      0      0 -1.000 -1.000
 NBPair 12- 5 3 1      0      0 -0.500 -0.167
 NBPair 13- 5 3 1      0      0 -0.500 -0.167
 NBPair 14- 5 3 1      0      0 -0.500 -0.167
 NBPair 12- 9 3 1      0      0 -0.500 -0.167
 NBPair 13- 9 3 1      0      0 -0.500 -0.167
 NBPair 14- 9 3 1      0      0 -0.500 -0.167
 NBPair 12-10 3 1      0      0 -0.500 -0.167
 NBPair 13-10 3 1      0      0 -0.500 -0.167
 NBPair 14-10 3 1      0      0 -0.500 -0.167
 NBPair 12- 8 3 1      0      0 -1.000 -1.000
 NBPair 13- 8 3 1      0      0 -1.000 -1.000
 NBPair 14- 8 3 1      0      0 -1.000 -1.000
 NBPair 12-11 3 1      0      0 -1.000 -1.000
 NBPair 13-12 3 1      0      0 -1.000 -1.000
 NBPair 14-12 3 1      0      0 -1.000 -1.000
 NBPair 13-11 3 1      0      0 -1.000 -1.000
 NBPair 14-13 3 1      0      0 -1.000 -1.000
 NBPair 14-11 3 1      0      0 -1.000 -1.000
 Energy per function type:
 Direct Coulomb + vdW (small)                           0.004345791
 Direct Coulomb (large)                                -0.458246719
 Direct vdW (large)                                     0.000000000
 Non-direct Coulomb + vdW (small)                       0.004395922
 Non-direct Coulomb (large)                             0.489767335
 Non-direct vdW (large)                                 0.000000000
 Harmonic stretch I                                     0.000182665
 Harmonic bend I                                        0.001560811
 Amber torsion                                          0.000026541
 Energy per function class:
        Coulomb               0.040556559
    Vanderwaals              -0.000294230
     Stretching               0.000182665
        Bending               0.001560811
        Torsion               0.000026541
 Energy=    4.203234569E-02 NIter=   0.
 Dipole moment=       0.000000       0.000000       0.000000
 Leave Link  402 at Fri Aug 14 10:43:57 2026, MaxMem=   134217728 cpu:               0.1 elap:               0.1
 (Enter /home/emanuele/chem_software/gaussian//gdv/l716.exe)
 Dipole        = 6.22352170D-12 4.07084255D-10 5.17471621D-11
 -------------------------------------------------------------------
 Center     Atomic                   Forces (Hartrees/Bohr)
 Number     Number              X              Y              Z
 -------------------------------------------------------------------
      1        6           0.000019029   -0.000042339   -0.000000000
      2        1          -0.000018781    0.000008383   -0.000000000
      3        1           0.000001206   -0.000000708    0.000011949
      4        1           0.000001206   -0.000000708   -0.000011949
      5        6           0.000028966   -0.000030274    0.000000000
      6        1          -0.000000541    0.000012557    0.000019761
      7        1          -0.000000541    0.000012557   -0.000019761
      8        6          -0.000028966    0.000030274    0.000000000
      9        1           0.000000541   -0.000012557    0.000019761
     10        1           0.000000541   -0.000012557   -0.000019761
     11        6          -0.000019029    0.000042339   -0.000000000
     12        1          -0.000001206    0.000000708    0.000011949
     13        1           0.000018781   -0.000008383   -0.000000000
     14        1          -0.000001206    0.000000708   -0.000011949
 -------------------------------------------------------------------
 Cartesian Forces:  Max     0.000042339 RMS     0.000016504
 Z-matrix is all fixed cartesians, so copy forces.
 Leave Link  716 at Fri Aug 14 10:43:57 2026, MaxMem=   134217728 cpu:               0.0 elap:               0.0
 (Enter /home/emanuele/chem_software/gaussian//gdv/l103.exe)

 GradGradGradGradGradGradGradGradGradGradGradGradGradGradGradGradGradGrad
 Berny optimization.
 Search for a local minimum.
 Step number   1 out of a maximum of    2
 All quantities printed in internal units (Hartrees-Bohrs-Radians)
 RMS Force = .16504D-04 SwitMx=.10000D-02 MixMth= 2
 Mixed Optimization -- En-DIIS/RFO-DIIS
 Second derivative matrix not updated -- unit matrix used.
 ITU=  0
 RFO step:  Lambda=-1.14394024D-08 EMin= 1.00000000D+00
 Linear search not attempted -- first point.
 Variable       Old X    -DE/DX   Delta X   Delta X   Delta X     New X
                                 (Linear)    (Quad)   (Total)
    X1       -1.28440   0.00002   0.00000   0.00002   0.00002  -1.28439
    Y1        3.37544  -0.00004   0.00000  -0.00004  -0.00004   3.37539
    Z1       -0.00000  -0.00000   0.00000  -0.00000  -0.00000  -0.00000
    X2       -3.19285  -0.00002   0.00000  -0.00002  -0.00002  -3.19287
    Y2        4.18243   0.00001   0.00000   0.00001   0.00001   4.18244
    Z2        0.00000  -0.00000   0.00000  -0.00000  -0.00000   0.00000
    X3       -0.30777   0.00000   0.00000   0.00000   0.00000  -0.30777
    Y3        4.11636  -0.00000   0.00000  -0.00000  -0.00000   4.11636
    Z3       -1.66924   0.00001   0.00000   0.00001   0.00001  -1.66923
    X4       -0.30777   0.00000   0.00000   0.00000   0.00000  -0.30777
    Y4        4.11636  -0.00000   0.00000  -0.00000  -0.00000   4.11636
    Z4        1.66924  -0.00001   0.00000  -0.00001  -0.00001   1.66923
    X5       -1.34931   0.00003   0.00000   0.00003   0.00003  -1.34928
    Y5        0.47936  -0.00003   0.00000  -0.00003  -0.00003   0.47933
    Z5       -0.00000   0.00000   0.00000   0.00000   0.00000  -0.00000
    X6       -2.35382  -0.00000   0.00000  -0.00000  -0.00000  -2.35382
    Y6       -0.27004   0.00001   0.00000   0.00001   0.00001  -0.27003
    Z6       -1.65585   0.00002   0.00000   0.00002   0.00002  -1.65584
    X7       -2.35382  -0.00000   0.00000  -0.00000  -0.00000  -2.35382
    Y7       -0.27004   0.00001   0.00000   0.00001   0.00001  -0.27003
    Z7        1.65585  -0.00002   0.00000  -0.00002  -0.00002   1.65584
    X8        1.34931  -0.00003   0.00000  -0.00003  -0.00003   1.34928
    Y8       -0.47936   0.00003   0.00000   0.00003   0.00003  -0.47933
    Z8       -0.00000   0.00000   0.00000   0.00000   0.00000  -0.00000
    X9        2.35382   0.00000   0.00000   0.00000   0.00000   2.35382
    Y9        0.27004  -0.00001   0.00000  -0.00001  -0.00001   0.27003
    Z9       -1.65585   0.00002   0.00000   0.00002   0.00002  -1.65584
   X10        2.35382   0.00000   0.00000   0.00000   0.00000   2.35382
   Y10        0.27004  -0.00001   0.00000  -0.00001  -0.00001   0.27003
   Z10        1.65585  -0.00002   0.00000  -0.00002  -0.00002   1.65584
   X11        1.28440  -0.00002   0.00000  -0.00002  -0.00002   1.28439
   Y11       -3.37544   0.00004   0.00000   0.00004   0.00004  -3.37539
   Z11       -0.00000  -0.00000   0.00000  -0.00000  -0.00000  -0.00000
   X12        0.30777  -0.00000   0.00000  -0.00000  -0.00000   0.30777
   Y12       -4.11636   0.00000   0.00000   0.00000   0.00000  -4.11636
   Z12       -1.66924   0.00001   0.00000   0.00001   0.00001  -1.66923
   X13        3.19285   0.00002   0.00000   0.00002   0.00002   3.19287
   Y13       -4.18243  -0.00001   0.00000  -0.00001  -0.00001  -4.18244
   Z13        0.00000  -0.00000   0.00000  -0.00000  -0.00000   0.00000
   X14        0.30777  -0.00000   0.00000  -0.00000  -0.00000   0.30777
   Y14       -4.11636   0.00000   0.00000   0.00000   0.00000  -4.11636
   Z14        1.66924  -0.00001   0.00000  -0.00001  -0.00001   1.66923
         Item               Value     Threshold  Converged?
 Maximum Force            0.000042     0.000450     YES
 RMS     Force            0.000017     0.000300     YES
 Maximum Displacement     0.000042     0.001800     YES
 RMS     Displacement     0.000017     0.001200     YES
 Predicted change in Energy=-5.719701D-09
 Optimization completed.
    -- Stationary point found.
 Largest change from initial coordinates is atom   10       0.040 Angstoms.
 GradGradGradGradGradGradGradGradGradGradGradGradGradGradGradGradGradGrad

 Leave Link  103 at Fri Aug 14 10:43:57 2026, MaxMem=   134217728 cpu:               0.0 elap:               0.0
 (Enter /home/emanuele/chem_software/gaussian//gdv/l202.exe)
                          Input orientation:                          
 ---------------------------------------------------------------------
 Center     Atomic      Atomic             Coordinates (Angstroms)
 Number     Number       Type             X           Y           Z
 ---------------------------------------------------------------------
      1          6    90000001       -0.679677    1.786204   -0.000000
      2          1    20001037       -1.689586    2.213246    0.000000
      3          1    20001037       -0.162864    2.178282   -0.883325
      4          1    20001037       -0.162864    2.178282    0.883325
      5          6    90000001       -0.714025    0.253669   -0.000000
      6          1    20001037       -1.245587   -0.142899   -0.876241
      7          1    20001037       -1.245587   -0.142899    0.876241
      8          6    90000001        0.714025   -0.253669   -0.000000
      9          1    20001037        1.245587    0.142899   -0.876241
     10          1    20001037        1.245587    0.142899    0.876241
     11          6    90000001        0.679677   -1.786204   -0.000000
     12          1    20001037        0.162864   -2.178282   -0.883325
     13          1    20001037        1.689586   -2.213246    0.000000
     14          1    20001037        0.162864   -2.178282    0.883325
 ---------------------------------------------------------------------
                    Distance matrix (angstroms):
                    1          2          3          4          5
     1  C    0.000000
     2  H    1.096486   0.000000
     3  H    1.095940   1.764190   0.000000
     4  H    1.095940   1.764190   1.766651   0.000000
     5  C    1.532920   2.188987   2.188190   2.188190   0.000000
     6  H    2.193055   2.552715   2.561293   3.107450   1.098919
     7  H    2.193055   2.552715   3.107450   2.561293   1.098919
     8  C    2.470524   3.444273   2.731956   2.731956   1.515492
     9  H    2.678599   3.697212   2.475190   3.036872   2.149453
    10  H    2.678599   3.697212   3.036872   2.475190   2.149453
    11  C    3.822296   4.648550   4.148167   4.148167   2.470524
    12  H    4.148167   4.847407   4.368724   4.712409   2.731956
    13  H    4.648550   5.568899   4.847407   4.847407   3.444273
    14  H    4.148167   4.847407   4.712409   4.368724   2.731956
                    6          7          8          9         10
     6  H    0.000000
     7  H    1.752481   0.000000
     8  C    2.149453   2.149453   0.000000
     9  H    2.507515   3.059219   1.098919   0.000000
    10  H    3.059219   2.507515   1.098919   1.752481   0.000000
    11  C    2.678599   2.678599   1.532920   2.193055   2.193055
    12  H    2.475190   3.036872   2.188190   2.561293   3.107450
    13  H    3.697212   3.697212   2.188987   2.552715   2.552715
    14  H    3.036872   2.475190   2.188190   3.107450   2.561293
                   11         12         13         14
    11  C    0.000000
    12  H    1.095940   0.000000
    13  H    1.096486   1.764190   0.000000
    14  H    1.095940   1.766651   1.764190   0.000000
 Symmetry turned off by external request.
 Stoichiometry    C4H10
 Framework group  C2H[SGH(C4H2),X(H8)]
 Deg. of freedom    11
 Full point group                 C2H     NOp   4
 Rotational constants (GHZ):          22.4390379           3.8113437           3.5430496
 Leave Link  202 at Fri Aug 14 10:43:57 2026, MaxMem=   134217728 cpu:               0.0 elap:               0.0
 (Enter /home/emanuele/chem_software/gaussian//gdv/l9999.exe)
 Unable to Open any file for archive entry.
 1\1\GINC-EMANUELE-XPS-13-9343\FOpt\AMBER\ZDO\C4H10\EMANUELE\14-Aug-202
 6\0\\#p Amber=(SoftFirst,Print) nosymm geom=nocrowd opt(MaxMicroiterat
 ions=2000) Freq=intmodes\\Title\\0,1\C,-0.6796773508,1.7862041211,0.\H
 ,-1.6895860333,2.2132462835,0.\H,-0.1628636314,2.1782818312,-0.8833254
 738\H,-0.1628636314,2.1782818312,0.8833254738\C,-0.7140246201,0.253668
 9348,0.\H,-1.2455871872,-0.1428990347,-0.8762406615\H,-1.2455871872,-0
 .1428990347,0.8762406615\C,0.7140246201,-0.2536689349,0.\H,1.245587187
 2,0.1428990348,-0.8762406612\H,1.2455871872,0.1428990348,0.8762406612\
 C,0.6796773508,-1.7862041212,0.\H,0.1628636314,-2.1782818312,-0.883325
 4738\H,1.6895860334,-2.2132462835,0.\H,0.1628636314,-2.1782818312,0.88
 33254738\\Version=ES64L-GDVRevJ.14\HF=0.0420323\RMSD=0.000e+00\RMSF=1.
 650e-05\Dipole=0.,0.,0.\PG=C02H [SGH(C4H2),X(H8)]\\@
 The archive entry for this job was punched.


 The cat could very well be man's best friend
 but would never stoop to admitting it.
                               -- Doug Larson
 Leave Link 9999 at Fri Aug 14 10:43:57 2026, MaxMem=   134217728 cpu:               0.0 elap:               0.0
 Job cpu time:       0 days  0 hours  0 minutes  0.7 seconds.
 Elapsed time:       0 days  0 hours  0 minutes  0.6 seconds.
 File lengths (MBytes):  RWF=      6 Int=      0 D2E=      0 Chk=      1 Scr=      1
 Normal termination of Gaussian DV at Fri Aug 14 10:43:57 2026.
 (Enter /home/emanuele/chem_software/gaussian//gdv/l1.exe)
 Link1:  Proceeding to internal job step number  2.
 --------------------------------------------------------------
 #P Geom=AllCheck Guess=TCheck SCRF=Check GenChk AMBER/ZDO Freq
 --------------------------------------------------------------
 1/10=4,18=20,29=7,30=1,38=1,40=1,56=2,64=203,139=2000/1,3;
 2/9=110,12=1,15=1,40=1/2;
 3/5=30,11=9,14=-4,25=1,30=1,41=10030000,43=2,70=40000002,71=2,116=-2,140=1/1;
 4/20=11,22=2,24=3,120=2000/2;
 7/8=21,25=1,30=1,44=-1/16;
 1/10=4,18=20,30=1,64=203,139=2000/3;
 99//99;
 Leave Link    1 at Fri Aug 14 10:43:57 2026, MaxMem=   134217728 cpu:               0.0 elap:               0.0
 (Enter /home/emanuele/chem_software/gaussian//gdv/l101.exe)
 MM symbol table in CpMMST:
 There are    3 entries in the MM symbol table.
 Symbol    1 IAtTpT=           0 IUser=           0 String=*
 Symbol    2 IAtTpT=    90000001 IUser=           1 String=C3
 Symbol    3 IAtTpT=    20001037 IUser=           0 String=h3
 Structure from the checkpoint file:  "hessfit4gau.chk"
 -----
 Title
 -----
 Charge =  0 Multiplicity = 1
 No Z-Matrix found in chk file; cartesian coordinates used.
  C-C3--0.768379                                   -0.679677350773      1.786204121099     -0.000000000003
  H-H3-0.209939                                    -1.689586033337      2.213246283464      0.000000000015
  H-H3-0.210941                                    -0.162863631416      2.178281831215     -0.883325473784
  H-H3-0.210941                                    -0.162863631439      2.178281831162      0.883325473797
  C-C3--0.277892                                   -0.714024620144      0.253668934767     -0.000000000023
  H-H3-0.207224                                    -1.245587187216     -0.142899034690     -0.876240661479
  H-H3-0.207224                                    -1.245587187215     -0.142899034698      0.876240661476
  C-C3--0.277892                                    0.714024620131     -0.253668934941     -0.000000000023
  H-H3-0.207224                                     1.245587187232      0.142899034830     -0.876240661233
  H-H3-0.207224                                     1.245587187230      0.142899034838      0.876240661230
  C-C3--0.768379                                    0.679677350776     -1.786204121233     -0.000000000003
  H-H3-0.210941                                     0.162863631395     -2.178281831205     -0.883325473813
  H-H3-0.209939                                     1.689586033359     -2.213246283455      0.000000000015
  H-H3-0.210941                                     0.162863631418     -2.178281831153      0.883325473825
 Recover connectivity data from disk.
 ITRead=  0  0  0  0  0  0  0  0  0  0  0  0  0  0
 MicOpt= -1 -1 -1 -1 -1 -1 -1 -1 -1 -1 -1 -1 -1 -1
 NAtoms=     14 NQM=       14 NQMF=       0 NMMI=      0 NMMIF=      0
                NMic=       0 NMicF=      0.
                    Isotopes and Nuclear Properties:
 (Nuclear quadrupole moments (NQMom) in fm**2, nuclear magnetic moments (NMagM)
  in nuclear magnetons)

  Atom         1           2           3           4           5           6           7           8           9          10
 IAtWgt=          12           1           1           1          12           1           1          12           1           1
 AtmWgt=  12.0000000   1.0078250   1.0078250   1.0078250  12.0000000   1.0078250   1.0078250  12.0000000   1.0078250   1.0078250
 NucSpn=           0           1           1           1           0           1           1           0           1           1
 AtZEff=   3.9000000   1.0000000   1.0000000   1.0000000   3.9000000   1.0000000   1.0000000   3.9000000   1.0000000   1.0000000
 NQMom=    0.0000000   0.0000000   0.0000000   0.0000000   0.0000000   0.0000000   0.0000000   0.0000000   0.0000000   0.0000000
 NMagM=    0.0000000   2.7928460   2.7928460   2.7928460   0.0000000   2.7928460   2.7928460   0.0000000   2.7928460   2.7928460
 AtZNuc=   6.0000000   1.0000000   1.0000000   1.0000000   6.0000000   1.0000000   1.0000000   6.0000000   1.0000000   1.0000000

  Atom        11          12          13          14
 IAtWgt=          12           1           1           1
 AtmWgt=  12.0000000   1.0078250   1.0078250   1.0078250
 NucSpn=           0           1           1           1
 AtZEff=   3.9000000   1.0000000   1.0000000   1.0000000
 NQMom=    0.0000000   0.0000000   0.0000000   0.0000000
 NMagM=    0.0000000   2.7928460   2.7928460   2.7928460
 AtZNuc=   6.0000000   1.0000000   1.0000000   1.0000000
 Generating MM parameters.
 Retrieving read-in MM parameters from chk file.
 Include all MM classes

 MM sanity checks:
 All charges sum to:               -0.00000400
 Charges of atoms sum to:          -0.00000400
 WARNING -- The following centers have non-zero partial charges, but zero Vanderwaals
 parameters.  These centers can collapse onto other centers with non-zero charge.
   Center  Layer   Charge
      1 C    R   -0.768379
      5 C    R   -0.277892
      8 C    R   -0.277892
     11 C    R   -0.768379
 MMInit generated parameter data with length LenPar=        2717.
 MM Charge=             -0.0000 electrons
 MM Dipole moment (Debye):
    X=              0.0000    Y=              0.0000    Z=              0.0000  Tot=              0.0000
 MM Quadrupole moment (Debye-Ang):
   XX=              7.2708   YY=              5.4682   ZZ=              6.2191
   XY=              1.1741   XZ=              0.0000   YZ=             -0.0000
 MM Traceless Quadrupole moment (Debye-Ang):
   XX=              0.9515   YY=             -0.8512   ZZ=             -0.1003
   XY=              1.1741   XZ=              0.0000   YZ=             -0.0000
 MM Octapole moment (Debye-Ang**2):
  XXX=              0.0000  YYY=              0.0000  ZZZ=              0.0000  XYY=             -0.0000
  XXY=              0.0000  XXZ=              0.0000  XZZ=             -0.0000  YZZ=             -0.0000
  YYZ=             -0.0000  XYZ=             -0.0000
 MM Hexadecapole moment (Debye-Ang**3):
 XXXX=             23.7525 YYYY=             64.4892 ZZZZ=              4.8144 XXXY=            -16.0814
 XXXZ=              0.0000 YYYX=            -15.1276 YYYZ=              0.0000 ZZZX=             -0.0000
 ZZZY=              0.0000 XXYY=             17.8709 XXZZ=              4.8266 YYZZ=             15.0669
 XXYZ=             -0.0000 YYXZ=              0.0000 ZZXY=             -0.5777
 Leave Link  101 at Fri Aug 14 10:43:58 2026, MaxMem=   134217728 cpu:               0.3 elap:               0.3
 (Enter /home/emanuele/chem_software/gaussian//gdv/l103.exe)

 GradGradGradGradGradGradGradGradGradGradGradGradGradGradGradGradGradGrad
 Berny optimization.
 Initialization pass.
                           ----------------------------
                           !    Initial Parameters    !
                           ! (Angstroms and Degrees)  !
 --------------------------                            --------------------------
 ! Name  Definition              Value          Derivative Info.                !
 --------------------------------------------------------------------------------
 ! R1    R(1,2)                  1.0965         calculate D2E/DX2 analytically  !
 ! R2    R(1,3)                  1.0959         calculate D2E/DX2 analytically  !
 ! R3    R(1,4)                  1.0959         calculate D2E/DX2 analytically  !
 ! R4    R(1,5)                  1.5329         calculate D2E/DX2 analytically  !
 ! R5    R(5,6)                  1.0989         calculate D2E/DX2 analytically  !
 ! R6    R(5,7)                  1.0989         calculate D2E/DX2 analytically  !
 ! R7    R(5,8)                  1.5155         calculate D2E/DX2 analytically  !
 ! R8    R(8,9)                  1.0989         calculate D2E/DX2 analytically  !
 ! R9    R(8,10)                 1.0989         calculate D2E/DX2 analytically  !
 ! R10   R(8,11)                 1.5329         calculate D2E/DX2 analytically  !
 ! R11   R(11,12)                1.0959         calculate D2E/DX2 analytically  !
 ! R12   R(11,13)                1.0965         calculate D2E/DX2 analytically  !
 ! R13   R(11,14)                1.0959         calculate D2E/DX2 analytically  !
 ! A1    A(2,1,3)              107.1578         calculate D2E/DX2 analytically  !
 ! A2    A(2,1,4)              107.1578         calculate D2E/DX2 analytically  !
 ! A3    A(2,1,5)              111.6373         calculate D2E/DX2 analytically  !
 ! A4    A(3,1,4)              107.4135         calculate D2E/DX2 analytically  !
 ! A5    A(3,1,5)              111.6066         calculate D2E/DX2 analytically  !
 ! A6    A(4,1,5)              111.6066         calculate D2E/DX2 analytically  !
 ! A7    A(1,5,6)              111.8155         calculate D2E/DX2 analytically  !
 ! A8    A(1,5,7)              111.8155         calculate D2E/DX2 analytically  !
 ! A9    A(1,5,8)              108.2745         calculate D2E/DX2 analytically  !
 ! A10   A(6,5,7)              105.7586         calculate D2E/DX2 analytically  !
 ! A11   A(6,5,8)              109.5723         calculate D2E/DX2 analytically  !
 ! A12   A(7,5,8)              109.5723         calculate D2E/DX2 analytically  !
 ! A13   A(5,8,9)              109.5723         calculate D2E/DX2 analytically  !
 ! A14   A(5,8,10)             109.5723         calculate D2E/DX2 analytically  !
 ! A15   A(5,8,11)             108.2745         calculate D2E/DX2 analytically  !
 ! A16   A(9,8,10)             105.7586         calculate D2E/DX2 analytically  !
 ! A17   A(9,8,11)             111.8155         calculate D2E/DX2 analytically  !
 ! A18   A(10,8,11)            111.8155         calculate D2E/DX2 analytically  !
 ! A19   A(8,11,12)            111.6066         calculate D2E/DX2 analytically  !
 ! A20   A(8,11,13)            111.6373         calculate D2E/DX2 analytically  !
 ! A21   A(8,11,14)            111.6066         calculate D2E/DX2 analytically  !
 ! A22   A(12,11,13)           107.1578         calculate D2E/DX2 analytically  !
 ! A23   A(12,11,14)           107.4135         calculate D2E/DX2 analytically  !
 ! A24   A(13,11,14)           107.1578         calculate D2E/DX2 analytically  !
 ! D1    D(2,1,5,6)             59.1904         calculate D2E/DX2 analytically  !
 ! D2    D(2,1,5,7)            -59.1904         calculate D2E/DX2 analytically  !
 ! D3    D(2,1,5,8)            180.0            calculate D2E/DX2 analytically  !
 ! D4    D(3,1,5,6)            -60.7079         calculate D2E/DX2 analytically  !
 ! D5    D(3,1,5,7)           -179.0886         calculate D2E/DX2 analytically  !
 ! D6    D(3,1,5,8)             60.1017         calculate D2E/DX2 analytically  !
 ! D7    D(4,1,5,6)            179.0886         calculate D2E/DX2 analytically  !
 ! D8    D(4,1,5,7)             60.7079         calculate D2E/DX2 analytically  !
 ! D9    D(4,1,5,8)            -60.1017         calculate D2E/DX2 analytically  !
 ! D10   D(1,5,8,9)            -57.8076         calculate D2E/DX2 analytically  !
 ! D11   D(1,5,8,10)            57.8076         calculate D2E/DX2 analytically  !
 ! D12   D(1,5,8,11)           180.0            calculate D2E/DX2 analytically  !
 ! D13   D(6,5,8,9)             64.3848         calculate D2E/DX2 analytically  !
 ! D14   D(6,5,8,10)           180.0            calculate D2E/DX2 analytically  !
 ! D15   D(6,5,8,11)           -57.8076         calculate D2E/DX2 analytically  !
 ! D16   D(7,5,8,9)           -180.0            calculate D2E/DX2 analytically  !
 ! D17   D(7,5,8,10)           -64.3848         calculate D2E/DX2 analytically  !
 ! D18   D(7,5,8,11)            57.8076         calculate D2E/DX2 analytically  !
 ! D19   D(5,8,11,12)           60.1017         calculate D2E/DX2 analytically  !
 ! D20   D(5,8,11,13)          180.0            calculate D2E/DX2 analytically  !
 ! D21   D(5,8,11,14)          -60.1017         calculate D2E/DX2 analytically  !
 ! D22   D(9,8,11,12)          -60.7079         calculate D2E/DX2 analytically  !
 ! D23   D(9,8,11,13)           59.1904         calculate D2E/DX2 analytically  !
 ! D24   D(9,8,11,14)          179.0886         calculate D2E/DX2 analytically  !
 ! D25   D(10,8,11,12)        -179.0886         calculate D2E/DX2 analytically  !
 ! D26   D(10,8,11,13)         -59.1904         calculate D2E/DX2 analytically  !
 ! D27   D(10,8,11,14)          60.7079         calculate D2E/DX2 analytically  !
 --------------------------------------------------------------------------------
 Trust Radius=3.00D-01 FncErr=1.00D-07 GrdErr=1.00D-07 EigMax=2.50D+02 EigMin=1.00D-04
 Number of steps in this run=      2 maximum allowed number of steps=      2.
 GradGradGradGradGradGradGradGradGradGradGradGradGradGradGradGradGradGrad

 Leave Link  103 at Fri Aug 14 10:43:58 2026, MaxMem=   134217728 cpu:               0.0 elap:               0.0
 (Enter /home/emanuele/chem_software/gaussian//gdv/l202.exe)
                          Input orientation:                          
 ---------------------------------------------------------------------
 Center     Atomic      Atomic             Coordinates (Angstroms)
 Number     Number       Type             X           Y           Z
 ---------------------------------------------------------------------
      1          6    90000001       -0.679677    1.786204   -0.000000
      2          1    20001037       -1.689586    2.213246    0.000000
      3          1    20001037       -0.162864    2.178282   -0.883325
      4          1    20001037       -0.162864    2.178282    0.883325
      5          6    90000001       -0.714025    0.253669   -0.000000
      6          1    20001037       -1.245587   -0.142899   -0.876241
      7          1    20001037       -1.245587   -0.142899    0.876241
      8          6    90000001        0.714025   -0.253669   -0.000000
      9          1    20001037        1.245587    0.142899   -0.876241
     10          1    20001037        1.245587    0.142899    0.876241
     11          6    90000001        0.679677   -1.786204   -0.000000
     12          1    20001037        0.162864   -2.178282   -0.883325
     13          1    20001037        1.689586   -2.213246    0.000000
     14          1    20001037        0.162864   -2.178282    0.883325
 ---------------------------------------------------------------------
                    Distance matrix (angstroms):
                    1          2          3          4          5
     1  C    0.000000
     2  H    1.096486   0.000000
     3  H    1.095940   1.764190   0.000000
     4  H    1.095940   1.764190   1.766651   0.000000
     5  C    1.532920   2.188987   2.188190   2.188190   0.000000
     6  H    2.193055   2.552715   2.561293   3.107450   1.098919
     7  H    2.193055   2.552715   3.107450   2.561293   1.098919
     8  C    2.470524   3.444273   2.731956   2.731956   1.515492
     9  H    2.678599   3.697212   2.475190   3.036872   2.149453
    10  H    2.678599   3.697212   3.036872   2.475190   2.149453
    11  C    3.822296   4.648550   4.148167   4.148167   2.470524
    12  H    4.148167   4.847407   4.368724   4.712409   2.731956
    13  H    4.648550   5.568899   4.847407   4.847407   3.444273
    14  H    4.148167   4.847407   4.712409   4.368724   2.731956
                    6          7          8          9         10
     6  H    0.000000
     7  H    1.752481   0.000000
     8  C    2.149453   2.149453   0.000000
     9  H    2.507515   3.059219   1.098919   0.000000
    10  H    3.059219   2.507515   1.098919   1.752481   0.000000
    11  C    2.678599   2.678599   1.532920   2.193055   2.193055
    12  H    2.475190   3.036872   2.188190   2.561293   3.107450
    13  H    3.697212   3.697212   2.188987   2.552715   2.552715
    14  H    3.036872   2.475190   2.188190   3.107450   2.561293
                   11         12         13         14
    11  C    0.000000
    12  H    1.095940   0.000000
    13  H    1.096486   1.764190   0.000000
    14  H    1.095940   1.766651   1.764190   0.000000
 Symmetry turned off by external request.
 Stoichiometry    C4H10
 Framework group  C2H[SGH(C4H2),X(H8)]
 Deg. of freedom    11
 Full point group                 C2H     NOp   4
 Rotational constants (GHZ):          22.4390379           3.8113437           3.5430496
 Leave Link  202 at Fri Aug 14 10:43:58 2026, MaxMem=   134217728 cpu:               0.0 elap:               0.0
 (Enter /home/emanuele/chem_software/gaussian//gdv/l301.exe)
 Standard basis: Dummy (5D, 7F)
    14 basis functions,    14 primitive gaussians,    14 cartesian basis functions
     9 alpha electrons        9 beta electrons
       nuclear repulsion energy        36.7242712556 Hartrees.
 IExCor=       0 DFT=F Ex=HF Corr=None N6=None ScaHFX=  1.000000
 ScaDFX=  1.000000  1.000000  1.000000  1.000000  1.000000  0.000000
 ScaDFX=  0.000000  0.000000  0.000000  0.000000  0.000000  0.000000
 IRadAn=      5 IRanWt=     -1 IRanGd=            0 ICorTp=0 IEmpDi=  4
 NAtoms=   14 NActive=   14 NUniq=   14 SFac= 1.00D+00 NAtFMM=   60 NAOKFM=F Big=F
 Integral buffers will be    131072 words long.
 Raffenetti 1 integral format.
 Two-electron integral symmetry is turned off.
 Leave Link  301 at Fri Aug 14 10:43:58 2026, MaxMem=   134217728 cpu:               0.0 elap:               0.0
 (Enter /home/emanuele/chem_software/gaussian//gdv/l402.exe)
 AMBER calculation of energy, first and second derivatives.
 Energy per function type:
 Direct Coulomb + vdW (small)                           0.258427597
 Direct Coulomb (large)                                -0.712328526
 Direct vdW (large)                                     0.000000000
 Non-direct Coulomb + vdW (small)                       0.004395922
 Non-direct Coulomb (large)                             0.489767335
 Non-direct vdW (large)                                 0.000000000
 Harmonic stretch I                                     0.000182665
 Harmonic bend I                                        0.001560811
 Amber torsion                                          0.000026541
 Energy per function class:
        Coulomb               0.040556559
    Vanderwaals              -0.000294230
     Stretching               0.000182665
        Bending               0.001560811
        Torsion               0.000026541
 Energy=    4.203234569E-02 NIter=   0.
 Dipole moment=       0.000000       0.000000       0.000000
 Leave Link  402 at Fri Aug 14 10:43:58 2026, MaxMem=   134217728 cpu:               0.0 elap:               0.0
 (Enter /home/emanuele/chem_software/gaussian//gdv/l716.exe)
 Dipole        = 6.22352170D-12 4.07084255D-10 5.17471621D-11
 Full mass-weighted force constant matrix:
 Low frequencies ---   -0.0000   -0.0000    0.0000    3.7662    4.7539    9.1196
 Low frequencies ---  116.2679  237.5108  254.0069
 Diagonal vibrational polarizability:
        7.1796841       7.5752844      10.8137283
 Harmonic frequencies (cm**-1), IR intensities (KM/Mole), Raman scattering
 activities (A**4/AMU), depolarization ratios for plane and unpolarized
 incident light, reduced masses (AMU), force constants (mDyne/A),
 and normal coordinates:
                      1                      2                      3
                      A                      A                      A
 Frequencies --    116.2679               237.5108               254.0069
 Red. masses --      2.0971                 1.0250                 2.4001
 Frc consts  --      0.0167                 0.0341                 0.0912
 IR Inten    --      1.4687                 0.1623                 1.7444
  Atom  AN      X      Y      Z        X      Y      Z        X      Y      Z
     1   6    -0.00   0.00  -0.15     0.00  -0.00   0.02    -0.16   0.01   0.00
     2   1    -0.00   0.00  -0.15     0.00  -0.00   0.43    -0.27  -0.25  -0.00
     3   1    -0.08  -0.18  -0.28    -0.35   0.03  -0.17    -0.27   0.14  -0.00
     4   1     0.08   0.18  -0.28     0.35  -0.03  -0.17    -0.27   0.14   0.00
     5   6     0.00   0.00   0.16    -0.00  -0.00  -0.02     0.19   0.00   0.00
     6   1    -0.04  -0.16   0.26    -0.03   0.01  -0.01     0.23  -0.08   0.01
     7   1     0.04   0.16   0.26     0.03  -0.01  -0.01     0.23  -0.08  -0.01
     8   6    -0.00  -0.00   0.16     0.00   0.00  -0.02     0.19   0.00  -0.00
     9   1     0.04   0.16   0.26     0.03  -0.01  -0.01     0.23  -0.08  -0.01
    10   1    -0.04  -0.16   0.26    -0.03   0.01  -0.01     0.23  -0.08   0.01
    11   6     0.00  -0.00  -0.15    -0.00   0.00   0.02    -0.16   0.01  -0.00
    12   1     0.08   0.18  -0.28     0.35  -0.03  -0.17    -0.27   0.14   0.00
    13   1     0.00  -0.00  -0.15    -0.00   0.00   0.43    -0.27  -0.25   0.00
    14   1    -0.08  -0.18  -0.28    -0.35   0.03  -0.17    -0.27   0.14  -0.00
                      4                      5                      6
                      A                      A                      A
 Frequencies --    274.0628               351.1054               793.1841
 Red. masses --      1.1385                 3.1536                 1.0756
 Frc consts  --      0.0504                 0.2290                 0.3987
 IR Inten    --      0.0000                 0.0000                95.8981
  Atom  AN      X      Y      Z        X      Y      Z        X      Y      Z
     1   6    -0.00   0.00  -0.00    -0.13   0.23   0.00     0.00   0.00   0.00
     2   1    -0.00  -0.00   0.40    -0.19   0.11   0.00    -0.00  -0.00  -0.05
     3   1    -0.33   0.05  -0.17    -0.20   0.31  -0.00    -0.04  -0.13  -0.08
     4   1     0.33  -0.05  -0.17    -0.20   0.31   0.00     0.04   0.13  -0.08
     5   6     0.00   0.00  -0.08     0.03   0.17  -0.00     0.00  -0.00   0.06
     6   1     0.08   0.04  -0.14    -0.03   0.20   0.02     0.36   0.18  -0.24
     7   1    -0.08  -0.04  -0.14    -0.03   0.20  -0.02    -0.36  -0.18  -0.24
     8   6     0.00   0.00   0.08    -0.03  -0.17  -0.00    -0.00   0.00   0.06
     9   1     0.08   0.04   0.14     0.03  -0.20   0.02    -0.36  -0.18  -0.24
    10   1    -0.08  -0.04   0.14     0.03  -0.20  -0.02     0.36   0.18  -0.24
    11   6    -0.00   0.00   0.00     0.13  -0.23   0.00    -0.00  -0.00   0.00
    12   1    -0.33   0.05   0.17     0.20  -0.31  -0.00     0.04   0.13  -0.08
    13   1    -0.00  -0.00  -0.40     0.19  -0.11   0.00     0.00   0.00  -0.05
    14   1     0.33  -0.05   0.17     0.20  -0.31   0.00    -0.04  -0.13  -0.08
                      7                      8                      9
                      A                      A                      A
 Frequencies --    830.8953               841.8756               927.3927
 Red. masses --      1.1635                 1.4571                 1.3483
 Frc consts  --      0.4733                 0.6085                 0.6832
 IR Inten    --      0.0000                 0.0000                98.0307
  Atom  AN      X      Y      Z        X      Y      Z        X      Y      Z
     1   6    -0.00   0.00  -0.04    -0.08   0.02  -0.00    -0.07   0.08   0.00
     2   1     0.00   0.00   0.17     0.11   0.50  -0.00     0.11   0.53  -0.00
     3   1     0.05   0.32   0.13     0.16  -0.21   0.04     0.15  -0.06   0.06
     4   1    -0.05  -0.32   0.13     0.16  -0.21  -0.04     0.15  -0.06  -0.06
     5   6     0.00   0.00  -0.07    -0.12  -0.01   0.00     0.02  -0.07   0.00
     6   1    -0.21  -0.22   0.14    -0.19   0.05   0.02     0.11  -0.23   0.02
     7   1     0.21   0.22   0.14    -0.19   0.05  -0.02     0.11  -0.23  -0.02
     8   6     0.00   0.00   0.07     0.12   0.01   0.00     0.02  -0.07  -0.00
     9   1    -0.21  -0.22  -0.14     0.19  -0.05   0.02     0.11  -0.23  -0.02
    10   1     0.21   0.22  -0.14     0.19  -0.05  -0.02     0.11  -0.23   0.02
    11   6    -0.00   0.00   0.04     0.08  -0.02  -0.00    -0.07   0.08  -0.00
    12   1     0.05   0.32  -0.13    -0.16   0.21   0.04     0.15  -0.06  -0.06
    13   1     0.00   0.00  -0.17    -0.11  -0.50  -0.00     0.11   0.53   0.00
    14   1    -0.05  -0.32  -0.13    -0.16   0.21  -0.04     0.15  -0.06   0.06
                     10                     11                     12
                      A                      A                      A
 Frequencies --    931.6060               943.2919               963.3148
 Red. masses --      1.4442                 1.2162                 1.6858
 Frc consts  --      0.7385                 0.6376                 0.9217
 IR Inten    --      0.0000                60.4544                43.9226
  Atom  AN      X      Y      Z        X      Y      Z        X      Y      Z
     1   6    -0.01  -0.10   0.00    -0.00  -0.00  -0.08    -0.08  -0.09  -0.00
     2   1    -0.08  -0.28  -0.00    -0.00  -0.00   0.22     0.03   0.17   0.00
     3   1    -0.04  -0.16  -0.04     0.05   0.40   0.11     0.15  -0.40   0.01
     4   1    -0.04  -0.16   0.04    -0.05  -0.40   0.11     0.15  -0.40  -0.01
     5   6    -0.01   0.10  -0.00     0.00   0.00   0.05     0.04   0.12   0.00
     6   1    -0.20   0.36   0.00     0.19  -0.10  -0.02     0.05   0.18  -0.02
     7   1    -0.20   0.36  -0.00    -0.19   0.10  -0.02     0.05   0.18   0.02
     8   6     0.01  -0.10  -0.00    -0.00  -0.00   0.05     0.04   0.12  -0.00
     9   1     0.20  -0.36   0.00    -0.19   0.10  -0.02     0.05   0.18   0.02
    10   1     0.20  -0.36  -0.00     0.19  -0.10  -0.02     0.05   0.18  -0.02
    11   6     0.01   0.10   0.00     0.00   0.00  -0.08    -0.08  -0.09   0.00
    12   1     0.04   0.16  -0.04    -0.05  -0.40   0.11     0.15  -0.40  -0.01
    13   1     0.08   0.28  -0.00     0.00   0.00   0.22     0.03   0.17  -0.00
    14   1     0.04   0.16   0.04     0.05   0.40   0.11     0.15  -0.40   0.01
                     13                     14                     15
                      A                      A                      A
 Frequencies --   1027.5271              1056.3031              1117.6315
 Red. masses --      1.5939                 1.8306                 1.0472
 Frc consts  --      0.9915                 1.2034                 0.7707
 IR Inten    --      0.0000                 0.0000                 0.0000
  Atom  AN      X      Y      Z        X      Y      Z        X      Y      Z
     1   6     0.00   0.00  -0.10    -0.08  -0.04   0.00    -0.00   0.00  -0.01
     2   1    -0.00  -0.00   0.17     0.02   0.24  -0.00     0.00   0.00  -0.06
     3   1     0.06   0.34   0.07     0.15  -0.28   0.03    -0.01   0.00  -0.02
     4   1    -0.06  -0.34   0.07     0.15  -0.28  -0.03     0.01  -0.00  -0.02
     5   6    -0.00  -0.00   0.13     0.16   0.07  -0.00     0.00  -0.00  -0.04
     6   1     0.18   0.24  -0.07     0.32   0.01  -0.06    -0.33   0.37  -0.01
     7   1    -0.18  -0.24  -0.07     0.32   0.01   0.06     0.33  -0.37  -0.01
     8   6    -0.00  -0.00  -0.13    -0.16  -0.07  -0.00     0.00  -0.00   0.04
     9   1     0.18   0.24   0.07    -0.32  -0.01  -0.06    -0.33   0.37   0.01
    10   1    -0.18  -0.24   0.07    -0.32  -0.01   0.06     0.33  -0.37   0.01
    11   6     0.00   0.00   0.10     0.08   0.04   0.00    -0.00   0.00   0.01
    12   1     0.06   0.34  -0.07    -0.15   0.28   0.03    -0.01   0.00   0.02
    13   1    -0.00  -0.00  -0.17    -0.02  -0.24  -0.00     0.00   0.00   0.06
    14   1    -0.06  -0.34  -0.07    -0.15   0.28  -0.03     0.01  -0.00   0.02
                     16                     17                     18
                      A                      A                      A
 Frequencies --   1146.9180              1272.7997              1380.5437
 Red. masses --      1.1022                 1.3018                 1.0384
 Frc consts  --      0.8542                 1.2425                 1.1661
 IR Inten    --      2.5565               233.2000                49.6673
  Atom  AN      X      Y      Z        X      Y      Z        X      Y      Z
     1   6    -0.00   0.00  -0.05    -0.03  -0.01   0.00    -0.03   0.01   0.00
     2   1     0.00   0.00   0.03     0.06   0.22   0.00    -0.16  -0.27  -0.00
     3   1     0.02   0.11   0.00    -0.01   0.10   0.06     0.34   0.07   0.25
     4   1    -0.02  -0.11   0.00    -0.01   0.10  -0.06     0.34   0.07  -0.25
     5   6     0.00  -0.00   0.05     0.08  -0.08   0.00     0.01   0.01   0.00
     6   1    -0.22   0.43  -0.01    -0.31   0.32   0.06    -0.09  -0.06   0.09
     7   1     0.22  -0.43  -0.01    -0.31   0.32  -0.06    -0.09  -0.06  -0.09
     8   6    -0.00   0.00   0.05     0.08  -0.08  -0.00     0.01   0.01  -0.00
     9   1     0.22  -0.43  -0.01    -0.31   0.32  -0.06    -0.09  -0.06  -0.09
    10   1    -0.22   0.43  -0.01    -0.31   0.32   0.06    -0.09  -0.06   0.09
    11   6     0.00  -0.00  -0.05    -0.03  -0.01  -0.00    -0.03   0.01  -0.00
    12   1    -0.02  -0.11   0.00    -0.01   0.10  -0.06     0.34   0.07  -0.25
    13   1    -0.00  -0.00   0.03     0.06   0.22  -0.00    -0.16  -0.27   0.00
    14   1     0.02   0.11   0.00    -0.01   0.10   0.06     0.34   0.07   0.25
                     19                     20                     21
                      A                      A                      A
 Frequencies --   1380.8682              1385.0069              1385.7374
 Red. masses --      1.0643                 1.0394                 1.0403
 Frc consts  --      1.1957                 1.1747                 1.1770
 IR Inten    --      0.0000                73.9030                 0.0000
  Atom  AN      X      Y      Z        X      Y      Z        X      Y      Z
     1   6    -0.04  -0.02   0.00    -0.00  -0.00  -0.04    -0.00  -0.00  -0.04
     2   1    -0.11  -0.15  -0.00     0.00   0.00   0.50    -0.00  -0.00   0.50
     3   1     0.31   0.18   0.30     0.28  -0.22   0.02     0.27  -0.22   0.02
     4   1     0.31   0.18  -0.30    -0.28   0.22   0.02    -0.27   0.22   0.02
     5   6     0.01  -0.02   0.00     0.00  -0.00  -0.01    -0.00   0.00  -0.01
     6   1    -0.04   0.07  -0.01    -0.01   0.00  -0.01    -0.02   0.02  -0.01
     7   1    -0.04   0.07   0.01     0.01  -0.00  -0.01     0.02  -0.02  -0.01
     8   6    -0.01   0.02   0.00    -0.00   0.00  -0.01    -0.00   0.00   0.01
     9   1     0.04  -0.07  -0.01     0.01  -0.00  -0.01    -0.02   0.02   0.01
    10   1     0.04  -0.07   0.01    -0.01   0.00  -0.01     0.02  -0.02   0.01
    11   6     0.04   0.02   0.00     0.00   0.00  -0.04    -0.00  -0.00   0.04
    12   1    -0.31  -0.18   0.30    -0.28   0.22   0.02     0.27  -0.22  -0.02
    13   1     0.11   0.15  -0.00    -0.00  -0.00   0.50    -0.00  -0.00  -0.50
    14   1    -0.31  -0.18  -0.30     0.28  -0.22   0.02    -0.27   0.22  -0.02
                     22                     23                     24
                      A                      A                      A
 Frequencies --   1400.3930              1419.9580              1457.2852
 Red. masses --      1.1917                 1.1197                 1.3579
 Frc consts  --      1.3770                 1.3301                 1.6991
 IR Inten    --      0.0000               267.7528                 0.0000
  Atom  AN      X      Y      Z        X      Y      Z        X      Y      Z
     1   6     0.00  -0.07   0.00     0.02   0.05  -0.00    -0.01  -0.04   0.00
     2   1     0.18   0.33  -0.00    -0.05  -0.09   0.00     0.10   0.19  -0.00
     3   1    -0.16   0.22   0.04    -0.06  -0.21  -0.17    -0.06   0.08   0.03
     4   1    -0.16   0.22  -0.04    -0.06  -0.21   0.17    -0.06   0.08  -0.03
     5   6     0.02  -0.06   0.00     0.04   0.02   0.00     0.12   0.00   0.00
     6   1     0.07   0.26  -0.17    -0.25  -0.18   0.27    -0.30  -0.10   0.32
     7   1     0.07   0.26   0.17    -0.25  -0.18  -0.27    -0.30  -0.10  -0.32
     8   6    -0.02   0.06   0.00     0.04   0.02  -0.00    -0.12  -0.00   0.00
     9   1    -0.07  -0.26  -0.17    -0.25  -0.18  -0.27     0.30   0.10   0.32
    10   1    -0.07  -0.26   0.17    -0.25  -0.18   0.27     0.30   0.10  -0.32
    11   6    -0.00   0.07   0.00     0.02   0.05   0.00     0.01   0.04   0.00
    12   1     0.16  -0.22   0.04    -0.06  -0.21   0.17     0.06  -0.08   0.03
    13   1    -0.18  -0.33  -0.00    -0.05  -0.09  -0.00    -0.10  -0.19  -0.00
    14   1     0.16  -0.22  -0.04    -0.06  -0.21  -0.17     0.06  -0.08  -0.03
                     25                     26                     27
                      A                      A                      A
 Frequencies --   1498.4942              1560.6730              3069.3322
 Red. masses --      1.5935                 2.5629                 1.0469
 Frc consts  --      2.1082                 3.6779                 5.8112
 IR Inten    --     56.9694                 0.0000                71.9544
  Atom  AN      X      Y      Z        X      Y      Z        X      Y      Z
     1   6    -0.01   0.13   0.00     0.01  -0.14  -0.00     0.00   0.04   0.00
     2   1    -0.19  -0.26   0.00     0.15   0.14  -0.00     0.37  -0.16  -0.00
     3   1     0.10  -0.26  -0.13    -0.05   0.23   0.15    -0.19  -0.15   0.32
     4   1     0.10  -0.26   0.13    -0.05   0.23  -0.15    -0.19  -0.15  -0.32
     5   6    -0.01  -0.10  -0.00    -0.12   0.20   0.00     0.00   0.00  -0.00
     6   1     0.08   0.21  -0.21     0.17  -0.29   0.05    -0.03  -0.02  -0.04
     7   1     0.08   0.21   0.21     0.17  -0.29  -0.05    -0.03  -0.02   0.04
     8   6    -0.01  -0.10   0.00     0.12  -0.20   0.00     0.00   0.00   0.00
     9   1     0.08   0.21   0.21    -0.17   0.29   0.05    -0.03  -0.02   0.04
    10   1     0.08   0.21  -0.21    -0.17   0.29  -0.05    -0.03  -0.02  -0.04
    11   6    -0.01   0.13  -0.00    -0.01   0.14  -0.00     0.00   0.04  -0.00
    12   1     0.10  -0.26   0.13     0.05  -0.23   0.15    -0.19  -0.15  -0.32
    13   1    -0.19  -0.26  -0.00    -0.15  -0.14  -0.00     0.37  -0.16   0.00
    14   1     0.10  -0.26  -0.13     0.05  -0.23  -0.15    -0.19  -0.15   0.32
                     28                     29                     30
                      A                      A                      A
 Frequencies --   3069.7534              3108.2748              3120.9049
 Red. masses --      1.0474                 1.0711                 1.0796
 Frc consts  --      5.8152                 6.0969                 6.1954
 IR Inten    --      0.0000                63.9517                 0.0000
  Atom  AN      X      Y      Z        X      Y      Z        X      Y      Z
     1   6     0.00   0.04   0.00     0.00   0.01   0.00    -0.00   0.01   0.00
     2   1     0.36  -0.16  -0.00     0.04  -0.02  -0.00     0.09  -0.04  -0.00
     3   1    -0.19  -0.15   0.32    -0.02  -0.02   0.03    -0.03  -0.02   0.05
     4   1    -0.19  -0.15  -0.32    -0.02  -0.02  -0.03    -0.03  -0.02  -0.05
     5   6     0.01   0.00  -0.00    -0.04  -0.03   0.00    -0.05  -0.03   0.00
     6   1    -0.04  -0.03  -0.07     0.25   0.18   0.39     0.24   0.18   0.39
     7   1    -0.04  -0.03   0.07     0.25   0.18  -0.39     0.24   0.18  -0.39
     8   6    -0.01  -0.00  -0.00    -0.04  -0.03  -0.00     0.05   0.03   0.00
     9   1     0.04   0.03  -0.07     0.25   0.18  -0.39    -0.24  -0.18   0.39
    10   1     0.04   0.03   0.07     0.25   0.18   0.39    -0.24  -0.18  -0.39
    11   6    -0.00  -0.04   0.00     0.00   0.01  -0.00     0.00  -0.01   0.00
    12   1     0.19   0.15   0.32    -0.02  -0.02  -0.03     0.03   0.02   0.05
    13   1    -0.36   0.16  -0.00     0.04  -0.02   0.00    -0.09   0.04  -0.00
    14   1     0.19   0.15  -0.32    -0.02  -0.02   0.03     0.03   0.02  -0.05
                     31                     32                     33
                      A                      A                      A
 Frequencies --   3176.0320              3176.2714              3179.1379
 Red. masses --      1.1121                 1.1089                 1.1150
 Frc consts  --      6.6093                 6.5914                 6.6393
 IR Inten    --      0.0000               171.1806                 0.0000
  Atom  AN      X      Y      Z        X      Y      Z        X      Y      Z
     1   6    -0.00   0.00  -0.05    -0.00   0.00  -0.01    -0.07   0.00  -0.00
     2   1     0.00  -0.00   0.01     0.00  -0.00   0.00     0.53  -0.22   0.00
     3   1    -0.18  -0.14   0.31    -0.04  -0.03   0.07     0.14   0.10  -0.23
     4   1     0.18   0.14   0.31     0.04   0.03   0.07     0.14   0.10   0.23
     5   6    -0.00  -0.00  -0.04    -0.00  -0.00  -0.07     0.00   0.00   0.00
     6   1     0.15   0.12   0.25     0.24   0.17   0.39    -0.01  -0.01  -0.02
     7   1    -0.15  -0.12   0.25    -0.24  -0.17   0.39    -0.01  -0.01   0.02
     8   6    -0.00  -0.00   0.04     0.00   0.00  -0.07    -0.00  -0.00   0.00
     9   1     0.15   0.12  -0.25    -0.24  -0.17   0.39     0.01   0.01  -0.02
    10   1    -0.15  -0.12  -0.25     0.24   0.17   0.39     0.01   0.01   0.02
    11   6    -0.00   0.00   0.05     0.00  -0.00  -0.01     0.07  -0.00  -0.00
    12   1    -0.18  -0.14  -0.31     0.04   0.03   0.07    -0.14  -0.10  -0.23
    13   1     0.00  -0.00  -0.01    -0.00   0.00   0.00    -0.53   0.22   0.00
    14   1     0.18   0.14  -0.31    -0.04  -0.03   0.07    -0.14  -0.10   0.23
                     34                     35                     36
                      A                      A                      A
 Frequencies --   3179.4725              3180.3480              3184.2319
 Red. masses --      1.1150                 1.1164                 1.1201
 Frc consts  --      6.6407                 6.6532                 6.6913
 IR Inten    --    176.9314               126.4388                 0.0000
  Atom  AN      X      Y      Z        X      Y      Z        X      Y      Z
     1   6    -0.07   0.00   0.00     0.00  -0.00  -0.07    -0.00  -0.00   0.05
     2   1     0.53  -0.22  -0.00    -0.00   0.00   0.01     0.00  -0.00  -0.01
     3   1     0.14   0.10  -0.23    -0.23  -0.17   0.40     0.15   0.11  -0.26
     4   1     0.14   0.10   0.23     0.23   0.17   0.40    -0.15  -0.11  -0.26
     5   6     0.00  -0.00   0.00    -0.00  -0.00   0.01    -0.00  -0.00  -0.06
     6   1    -0.00   0.00  -0.00    -0.04  -0.03  -0.07     0.18   0.14   0.31
     7   1    -0.00   0.00   0.00     0.04   0.03  -0.07    -0.18  -0.14   0.31
     8   6     0.00  -0.00  -0.00     0.00   0.00   0.01    -0.00  -0.00   0.06
     9   1    -0.00   0.00   0.00     0.04   0.03  -0.07     0.18   0.14  -0.31
    10   1    -0.00   0.00  -0.00    -0.04  -0.03  -0.07    -0.18  -0.14  -0.31
    11   6    -0.07   0.00  -0.00    -0.00   0.00  -0.07    -0.00  -0.00  -0.05
    12   1     0.14   0.10   0.23     0.23   0.17   0.40     0.15   0.11   0.26
    13   1     0.53  -0.22   0.00     0.00  -0.00   0.01     0.00  -0.00   0.01
    14   1     0.14   0.10  -0.23    -0.23  -0.17   0.40    -0.15  -0.11   0.26

 -------------------
 - Thermochemistry -
 -------------------
 Temperature   298.150 Kelvin.  Pressure      1.00000 Atm.
 Atom     1 has atomic number  6 and mass  12.00000
 Atom     2 has atomic number  1 and mass   1.00783
 Atom     3 has atomic number  1 and mass   1.00783
 Atom     4 has atomic number  1 and mass   1.00783
 Atom     5 has atomic number  6 and mass  12.00000
 Atom     6 has atomic number  1 and mass   1.00783
 Atom     7 has atomic number  1 and mass   1.00783
 Atom     8 has atomic number  6 and mass  12.00000
 Atom     9 has atomic number  1 and mass   1.00783
 Atom    10 has atomic number  1 and mass   1.00783
 Atom    11 has atomic number  6 and mass  12.00000
 Atom    12 has atomic number  1 and mass   1.00783
 Atom    13 has atomic number  1 and mass   1.00783
 Atom    14 has atomic number  1 and mass   1.00783
 Molecular mass:    58.07825 amu.
 Principal axes and moments of inertia in atomic units:
                                 1                 2                 3
     Eigenvalues --           80.428636        473.518353        509.375094
           X                  -0.417173          0.908827         -0.000000
           Y                   0.908827          0.417173         -0.000000
           Z                   0.000000          0.000000          1.000000
 This molecule is an asymmetric top.
 Rotational symmetry number  2.
 Rotational temperatures (Kelvin)      1.07690     0.18292     0.17004
 Rotational constants (GHZ):          22.43904     3.81134     3.54305
 Zero-point vibrational energy     343318.7 (Joules/Mol)
                                   82.05515 (Kcal/Mol)
 Warning -- explicit consideration of   5 degrees of freedom as
           vibrations may cause significant error
 Vibrational temperatures:    167.28   341.73   365.46   394.32   505.16
          (Kelvin)           1141.21  1195.47  1211.27  1334.31  1340.37
                             1357.19  1386.00  1478.38  1519.78  1608.02
                             1650.16  1831.27  1986.29  1986.76  1992.72
                             1993.77  2014.85  2043.00  2096.71  2156.00
                             2245.46  4416.08  4416.69  4472.11  4490.29
                             4569.60  4569.95  4574.07  4574.55  4575.81
                             4581.40
 
 Zero-point correction=                           0.130763 (Hartree/Particle)
 Thermal correction to Energy=                    0.136681
 Thermal correction to Enthalpy=                  0.137625
 Thermal correction to Gibbs Free Energy=         0.103365
 Sum of electronic and zero-point Energies=              0.172796
 Sum of electronic and thermal Energies=                 0.178713
 Sum of electronic and thermal Enthalpies=               0.179657
 Sum of electronic and thermal Free Energies=            0.145398
 
                     E (Thermal)             CV                S
                      KCal/Mol        Cal/Mol-Kelvin    Cal/Mol-Kelvin
 Total                   85.768             20.577             72.106
 Electronic               0.000              0.000              0.000
 Translational            0.889              2.981             38.098
 Rotational               0.889              2.981             23.099
 Vibrational             83.991             14.615             10.909
 Vibration     1          0.608              1.936              3.161
 Vibration     2          0.656              1.783              1.821
 Vibration     3          0.665              1.756              1.703
 Vibration     4          0.676              1.721              1.570
 Vibration     5          0.728              1.573              1.161
                       Q            Log10(Q)             Ln(Q)
 Total Bot       0.285340D-47        -47.544637       -109.475573
 Total V=0       0.400137D+13         12.602208         29.017657
 Vib (Bot)       0.657931D-59        -59.181820       -136.271176
 Vib (Bot)    1  0.175914D+01          0.245300          0.564824
 Vib (Bot)    2  0.826497D+00         -0.082759         -0.190559
 Vib (Bot)    3  0.766902D+00         -0.115260         -0.265396
 Vib (Bot)    4  0.703702D+00         -0.152611         -0.351400
 Vib (Bot)    5  0.525104D+00         -0.279755         -0.644159
 Vib (V=0)       0.922627D+01          0.965026          2.222054
 Vib (V=0)    1  0.232882D+01          0.367135          0.845360
 Vib (V=0)    2  0.146597D+01          0.166125          0.382517
 Vib (V=0)    3  0.141550D+01          0.150910          0.347482
 Vib (V=0)    4  0.136325D+01          0.134575          0.309870
 Vib (V=0)    5  0.122508D+01          0.088163          0.203002
 Electronic      0.100000D+01          0.000000          0.000000
 Translational   0.173970D+08          7.240474         16.671808
 Rotational      0.249292D+05          4.396708         10.123795
                           ----------------------------
                           ! Normal Mode     1        !
 --------------------------                            --------------------------
 ! Name  Definition              Value          Relative Weight (%)             !
 --------------------------------------------------------------------------------
 ! D1    D(2,1,5,6)              0.0233                  1.0                    !
 ! D2    D(2,1,5,7)              0.0233                  1.0                    !
 ! D4    D(3,1,5,6)              0.0275                  1.2                    !
 ! D5    D(3,1,5,7)              0.0275                  1.2                    !
 ! D7    D(4,1,5,6)              0.0275                  1.2                    !
 ! D8    D(4,1,5,7)              0.0275                  1.2                    !
 ! D10   D(1,5,8,9)              0.2109                  9.1                    !
 ! D11   D(1,5,8,10)             0.2109                  9.1                    !
 ! D12   D(1,5,8,11)             0.2286                  9.9                    !
 ! D13   D(6,5,8,9)              0.1932                  8.4                    !
 ! D14   D(6,5,8,10)             0.1932                  8.4                    !
 ! D15   D(6,5,8,11)             0.2109                  9.1                    !
 ! D16   D(7,5,8,9)              0.1932                  8.4                    !
 ! D17   D(7,5,8,10)             0.1932                  8.4                    !
 ! D18   D(7,5,8,11)             0.2109                  9.1                    !
 ! D22   D(9,8,11,12)            0.0275                  1.2                    !
 ! D23   D(9,8,11,13)            0.0233                  1.0                    !
 ! D24   D(9,8,11,14)            0.0275                  1.2                    !
 ! D25   D(10,8,11,12)           0.0275                  1.2                    !
 ! D26   D(10,8,11,13)           0.0233                  1.0                    !
 ! D27   D(10,8,11,14)           0.0275                  1.2                    !
 --------------------------------------------------------------------------------
                           ----------------------------
                           ! Normal Mode     2        !
 --------------------------                            --------------------------
 ! Name  Definition              Value          Relative Weight (%)             !
 --------------------------------------------------------------------------------
 ! D1    D(2,1,5,6)              0.1929                  5.1                    !
 ! D2    D(2,1,5,7)              0.1929                  5.1                    !
 ! D3    D(2,1,5,8)              0.2158                  5.7                    !
 ! D4    D(3,1,5,6)              0.1919                  5.1                    !
 ! D5    D(3,1,5,7)              0.1919                  5.1                    !
 ! D6    D(3,1,5,8)              0.2148                  5.7                    !
 ! D7    D(4,1,5,6)              0.1919                  5.1                    !
 ! D8    D(4,1,5,7)              0.1919                  5.1                    !
 ! D9    D(4,1,5,8)              0.2148                  5.7                    !
 ! D19   D(5,8,11,12)            0.2148                  5.7                    !
 ! D20   D(5,8,11,13)            0.2158                  5.7                    !
 ! D21   D(5,8,11,14)            0.2148                  5.7                    !
 ! D22   D(9,8,11,12)            0.1919                  5.1                    !
 ! D23   D(9,8,11,13)            0.1929                  5.1                    !
 ! D24   D(9,8,11,14)            0.1919                  5.1                    !
 ! D25   D(10,8,11,12)           0.1919                  5.1                    !
 ! D26   D(10,8,11,13)           0.1929                  5.1                    !
 ! D27   D(10,8,11,14)           0.1919                  5.1                    !
 --------------------------------------------------------------------------------
                           ----------------------------
                           ! Normal Mode     3        !
 --------------------------                            --------------------------
 ! Name  Definition              Value          Relative Weight (%)             !
 --------------------------------------------------------------------------------
 ! A7    A(1,5,6)               -0.0223                  1.9                    !
 ! A8    A(1,5,7)               -0.0223                  1.9                    !
 ! A9    A(1,5,8)                0.1224                 10.4                    !
 ! A10   A(6,5,7)               -0.0199                  1.7                    !
 ! A11   A(6,5,8)               -0.0319                  2.7                    !
 ! A12   A(7,5,8)               -0.0319                  2.7                    !
 ! A13   A(5,8,9)                0.0319                  2.7                    !
 ! A14   A(5,8,10)               0.0319                  2.7                    !
 ! A15   A(5,8,11)              -0.1224                 10.4                    !
 ! A16   A(9,8,10)               0.0199                  1.7                    !
 ! A17   A(9,8,11)               0.0223                  1.9                    !
 ! A18   A(10,8,11)              0.0223                  1.9                    !
 ! D1    D(2,1,5,6)             -0.0276                  2.4                    !
 ! D2    D(2,1,5,7)              0.0276                  2.4                    !
 ! D4    D(3,1,5,6)             -0.0206                  1.8                    !
 ! D5    D(3,1,5,7)              0.0346                  2.9                    !
 ! D7    D(4,1,5,6)             -0.0346                  2.9                    !
 ! D8    D(4,1,5,7)              0.0206                  1.8                    !
 ! D10   D(1,5,8,9)             -0.03                    2.6                    !
 ! D11   D(1,5,8,10)             0.03                    2.6                    !
 ! D14   D(6,5,8,10)             0.0599                  5.1                    !
 ! D15   D(6,5,8,11)             0.03                    2.6                    !
 ! D16   D(7,5,8,9)             -0.0599                  5.1                    !
 ! D18   D(7,5,8,11)            -0.03                    2.6                    !
 ! D22   D(9,8,11,12)            0.0206                  1.8                    !
 ! D23   D(9,8,11,13)            0.0276                  2.4                    !
 ! D24   D(9,8,11,14)            0.0346                  2.9                    !
 ! D25   D(10,8,11,12)          -0.0346                  2.9                    !
 ! D26   D(10,8,11,13)          -0.0276                  2.4                    !
 ! D27   D(10,8,11,14)          -0.0206                  1.8                    !
 --------------------------------------------------------------------------------
                           ----------------------------
                           ! Normal Mode     4        !
 --------------------------                            --------------------------
 ! Name  Definition              Value          Relative Weight (%)             !
 --------------------------------------------------------------------------------
 ! D1    D(2,1,5,6)              0.247                   5.3                    !
 ! D2    D(2,1,5,7)              0.247                   5.3                    !
 ! D3    D(2,1,5,8)              0.2634                  5.7                    !
 ! D4    D(3,1,5,6)              0.2446                  5.3                    !
 ! D5    D(3,1,5,7)              0.2446                  5.3                    !
 ! D6    D(3,1,5,8)              0.261                   5.7                    !
 ! D7    D(4,1,5,6)              0.2446                  5.3                    !
 ! D8    D(4,1,5,7)              0.2446                  5.3                    !
 ! D9    D(4,1,5,8)              0.261                   5.7                    !
 ! D19   D(5,8,11,12)           -0.261                   5.7                    !
 ! D20   D(5,8,11,13)           -0.2634                  5.7                    !
 ! D21   D(5,8,11,14)           -0.261                   5.7                    !
 ! D22   D(9,8,11,12)           -0.2446                  5.3                    !
 ! D23   D(9,8,11,13)           -0.247                   5.3                    !
 ! D24   D(9,8,11,14)           -0.2446                  5.3                    !
 ! D25   D(10,8,11,12)          -0.2446                  5.3                    !
 ! D26   D(10,8,11,13)          -0.247                   5.3                    !
 ! D27   D(10,8,11,14)          -0.2446                  5.3                    !
 --------------------------------------------------------------------------------
                           ----------------------------
                           ! Normal Mode     5        !
 --------------------------                            --------------------------
 ! Name  Definition              Value          Relative Weight (%)             !
 --------------------------------------------------------------------------------
 ! R4    R(1,5)                  0.0547                  2.8                    !
 ! R7    R(5,8)                  0.0626                  3.2                    !
 ! R10   R(8,11)                 0.0547                  2.8                    !
 ! A7    A(1,5,6)               -0.0442                  2.3                    !
 ! A8    A(1,5,7)               -0.0442                  2.3                    !
 ! A9    A(1,5,8)                0.172                   8.9                    !
 ! A10   A(6,5,7)               -0.0308                  1.6                    !
 ! A11   A(6,5,8)               -0.03                    1.5                    !
 ! A12   A(7,5,8)               -0.03                    1.5                    !
 ! A13   A(5,8,9)               -0.03                    1.5                    !
 ! A14   A(5,8,10)              -0.03                    1.5                    !
 ! A15   A(5,8,11)               0.172                   8.9                    !
 ! A16   A(9,8,10)              -0.0308                  1.6                    !
 ! A17   A(9,8,11)              -0.0442                  2.3                    !
 ! A18   A(10,8,11)             -0.0442                  2.3                    !
 ! D1    D(2,1,5,6)             -0.0492                  2.5                    !
 ! D2    D(2,1,5,7)              0.0492                  2.5                    !
 ! D4    D(3,1,5,6)             -0.0383                  2.0                    !
 ! D5    D(3,1,5,7)              0.0601                  3.1                    !
 ! D7    D(4,1,5,6)             -0.0601                  3.1                    !
 ! D8    D(4,1,5,7)              0.0383                  2.0                    !
 ! D10   D(1,5,8,9)              0.0354                  1.8                    !
 ! D11   D(1,5,8,10)            -0.0354                  1.8                    !
 ! D13   D(6,5,8,9)              0.0709                  3.7                    !
 ! D15   D(6,5,8,11)             0.0354                  1.8                    !
 ! D17   D(7,5,8,10)            -0.0709                  3.7                    !
 ! D18   D(7,5,8,11)            -0.0354                  1.8                    !
 ! D22   D(9,8,11,12)           -0.0383                  2.0                    !
 ! D23   D(9,8,11,13)           -0.0492                  2.5                    !
 ! D24   D(9,8,11,14)           -0.0601                  3.1                    !
 ! D25   D(10,8,11,12)           0.0601                  3.1                    !
 ! D26   D(10,8,11,13)           0.0492                  2.5                    !
 ! D27   D(10,8,11,14)           0.0383                  2.0                    !
 --------------------------------------------------------------------------------
                           ----------------------------
                           ! Normal Mode     6        !
 --------------------------                            --------------------------
 ! Name  Definition              Value          Relative Weight (%)             !
 --------------------------------------------------------------------------------
 ! A7    A(1,5,6)               -0.1137                  1.6                    !
 ! A8    A(1,5,7)                0.1137                  1.6                    !
 ! A11   A(6,5,8)               -0.1414                  2.0                    !
 ! A12   A(7,5,8)                0.1414                  2.0                    !
 ! A13   A(5,8,9)               -0.1414                  2.0                    !
 ! A14   A(5,8,10)               0.1414                  2.0                    !
 ! A17   A(9,8,11)              -0.1137                  1.6                    !
 ! A18   A(10,8,11)              0.1137                  1.6                    !
 ! D1    D(2,1,5,6)              0.2185                  3.1                    !
 ! D2    D(2,1,5,7)              0.2185                  3.1                    !
 ! D4    D(3,1,5,6)              0.2766                  3.9                    !
 ! D5    D(3,1,5,7)              0.2766                  3.9                    !
 ! D7    D(4,1,5,6)              0.2766                  3.9                    !
 ! D8    D(4,1,5,7)              0.2766                  3.9                    !
 ! D10   D(1,5,8,9)             -0.1881                  2.7                    !
 ! D11   D(1,5,8,10)            -0.1881                  2.7                    !
 ! D13   D(6,5,8,9)             -0.4144                  5.9                    !
 ! D14   D(6,5,8,10)            -0.4144                  5.9                    !
 ! D15   D(6,5,8,11)            -0.1881                  2.7                    !
 ! D16   D(7,5,8,9)             -0.4144                  5.9                    !
 ! D17   D(7,5,8,10)            -0.4144                  5.9                    !
 ! D18   D(7,5,8,11)            -0.1881                  2.7                    !
 ! D22   D(9,8,11,12)            0.2766                  3.9                    !
 ! D23   D(9,8,11,13)            0.2185                  3.1                    !
 ! D24   D(9,8,11,14)            0.2766                  3.9                    !
 ! D25   D(10,8,11,12)           0.2766                  3.9                    !
 ! D26   D(10,8,11,13)           0.2185                  3.1                    !
 ! D27   D(10,8,11,14)           0.2766                  3.9                    !
 --------------------------------------------------------------------------------
                           ----------------------------
                           ! Normal Mode     7        !
 --------------------------                            --------------------------
 ! Name  Definition              Value          Relative Weight (%)             !
 --------------------------------------------------------------------------------
 ! A5    A(3,1,5)                0.1552                  3.2                    !
 ! A6    A(4,1,5)               -0.1552                  3.2                    !
 ! A7    A(1,5,6)                0.1258                  2.6                    !
 ! A8    A(1,5,7)               -0.1258                  2.6                    !
 ! A11   A(6,5,8)                0.1046                  2.2                    !
 ! A12   A(7,5,8)               -0.1046                  2.2                    !
 ! A13   A(5,8,9)               -0.1046                  2.2                    !
 ! A14   A(5,8,10)               0.1046                  2.2                    !
 ! A17   A(9,8,11)              -0.1258                  2.6                    !
 ! A18   A(10,8,11)              0.1258                  2.6                    !
 ! A19   A(8,11,12)             -0.1552                  3.2                    !
 ! A21   A(8,11,14)              0.1552                  3.2                    !
 ! D3    D(2,1,5,8)              0.1609                  3.3                    !
 ! D4    D(3,1,5,6)             -0.2114                  4.4                    !
 ! D5    D(3,1,5,7)             -0.2114                  4.4                    !
 ! D7    D(4,1,5,6)             -0.2114                  4.4                    !
 ! D8    D(4,1,5,7)             -0.2114                  4.4                    !
 ! D10   D(1,5,8,9)             -0.2185                  4.5                    !
 ! D11   D(1,5,8,10)            -0.2185                  4.5                    !
 ! D15   D(6,5,8,11)             0.2185                  4.5                    !
 ! D18   D(7,5,8,11)             0.2185                  4.5                    !
 ! D20   D(5,8,11,13)           -0.1609                  3.3                    !
 ! D22   D(9,8,11,12)            0.2114                  4.4                    !
 ! D24   D(9,8,11,14)            0.2114                  4.4                    !
 ! D25   D(10,8,11,12)           0.2114                  4.4                    !
 ! D27   D(10,8,11,14)           0.2114                  4.4                    !
 --------------------------------------------------------------------------------
                           ----------------------------
                           ! Normal Mode     8        !
 --------------------------                            --------------------------
 ! Name  Definition              Value          Relative Weight (%)             !
 --------------------------------------------------------------------------------
 ! R4    R(1,5)                  0.032                   0.9                    !
 ! R7    R(5,8)                  0.2157                  6.0                    !
 ! R10   R(8,11)                 0.032                   0.9                    !
 ! A1    A(2,1,3)                0.0239                  0.7                    !
 ! A2    A(2,1,4)                0.0239                  0.7                    !
 ! A3    A(2,1,5)                0.2333                  6.5                    !
 ! A4    A(3,1,4)               -0.0645                  1.8                    !
 ! A5    A(3,1,5)               -0.1085                  3.0                    !
 ! A6    A(4,1,5)               -0.1085                  3.0                    !
 ! A9    A(1,5,8)               -0.0465                  1.3                    !
 ! A10   A(6,5,7)               -0.0303                  0.8                    !
 ! A11   A(6,5,8)                0.0633                  1.8                    !
 ! A12   A(7,5,8)                0.0633                  1.8                    !
 ! A13   A(5,8,9)                0.0633                  1.8                    !
 ! A14   A(5,8,10)               0.0633                  1.8                    !
 ! A15   A(5,8,11)              -0.0465                  1.3                    !
 ! A16   A(9,8,10)              -0.0303                  0.8                    !
 ! A19   A(8,11,12)             -0.1085                  3.0                    !
 ! A20   A(8,11,13)              0.2333                  6.5                    !
 ! A21   A(8,11,14)             -0.1085                  3.0                    !
 ! A22   A(12,11,13)             0.0239                  0.7                    !
 ! A23   A(12,11,14)            -0.0645                  1.8                    !
 ! A24   A(13,11,14)             0.0239                  0.7                    !
 ! D1    D(2,1,5,6)             -0.0341                  0.9                    !
 ! D2    D(2,1,5,7)              0.0341                  0.9                    !
 ! D4    D(3,1,5,6)             -0.15                    4.2                    !
 ! D5    D(3,1,5,7)             -0.0818                  2.3                    !
 ! D6    D(3,1,5,8)             -0.1159                  3.2                    !
 ! D7    D(4,1,5,6)              0.0818                  2.3                    !
 ! D8    D(4,1,5,7)              0.15                    4.2                    !
 ! D9    D(4,1,5,8)              0.1159                  3.2                    !
 ! D13   D(6,5,8,9)             -0.035                   1.0                    !
 ! D17   D(7,5,8,10)             0.035                   1.0                    !
 ! D19   D(5,8,11,12)           -0.1159                  3.2                    !
 ! D21   D(5,8,11,14)            0.1159                  3.2                    !
 ! D22   D(9,8,11,12)           -0.15                    4.2                    !
 ! D23   D(9,8,11,13)           -0.0341                  0.9                    !
 ! D24   D(9,8,11,14)            0.0818                  2.3                    !
 ! D25   D(10,8,11,12)          -0.0818                  2.3                    !
 ! D26   D(10,8,11,13)           0.0341                  0.9                    !
 ! D27   D(10,8,11,14)           0.15                    4.2                    !
 --------------------------------------------------------------------------------
                           ----------------------------
                           ! Normal Mode     9        !
 --------------------------                            --------------------------
 ! Name  Definition              Value          Relative Weight (%)             !
 --------------------------------------------------------------------------------
 ! R4    R(1,5)                  0.1444                  3.5                    !
 ! R10   R(8,11)                -0.1444                  3.5                    !
 ! A3    A(2,1,5)                0.2656                  6.4                    !
 ! A4    A(3,1,4)               -0.1035                  2.5                    !
 ! A5    A(3,1,5)               -0.0843                  2.0                    !
 ! A6    A(4,1,5)               -0.0843                  2.0                    !
 ! A7    A(1,5,6)                0.0679                  1.6                    !
 ! A8    A(1,5,7)                0.0679                  1.6                    !
 ! A11   A(6,5,8)               -0.0717                  1.7                    !
 ! A12   A(7,5,8)               -0.0717                  1.7                    !
 ! A13   A(5,8,9)                0.0717                  1.7                    !
 ! A14   A(5,8,10)               0.0717                  1.7                    !
 ! A17   A(9,8,11)              -0.0679                  1.6                    !
 ! A18   A(10,8,11)             -0.0679                  1.6                    !
 ! A19   A(8,11,12)              0.0843                  2.0                    !
 ! A20   A(8,11,13)             -0.2656                  6.4                    !
 ! A21   A(8,11,14)              0.0843                  2.0                    !
 ! A23   A(12,11,14)             0.1035                  2.5                    !
 ! D4    D(3,1,5,6)             -0.097                   2.3                    !
 ! D5    D(3,1,5,7)             -0.1514                  3.7                    !
 ! D6    D(3,1,5,8)             -0.1242                  3.0                    !
 ! D7    D(4,1,5,6)              0.1514                  3.7                    !
 ! D8    D(4,1,5,7)              0.097                   2.3                    !
 ! D9    D(4,1,5,8)              0.1242                  3.0                    !
 ! D10   D(1,5,8,9)             -0.0579                  1.4                    !
 ! D11   D(1,5,8,10)             0.0579                  1.4                    !
 ! D14   D(6,5,8,10)             0.1158                  2.8                    !
 ! D15   D(6,5,8,11)             0.0579                  1.4                    !
 ! D16   D(7,5,8,9)             -0.1158                  2.8                    !
 ! D18   D(7,5,8,11)            -0.0579                  1.4                    !
 ! D19   D(5,8,11,12)            0.1242                  3.0                    !
 ! D21   D(5,8,11,14)           -0.1242                  3.0                    !
 ! D22   D(9,8,11,12)            0.097                   2.3                    !
 ! D24   D(9,8,11,14)           -0.1514                  3.7                    !
 ! D25   D(10,8,11,12)           0.1514                  3.7                    !
 ! D27   D(10,8,11,14)          -0.097                   2.3                    !
 --------------------------------------------------------------------------------
                           ----------------------------
                           ! Normal Mode    10        !
 --------------------------                            --------------------------
 ! Name  Definition              Value          Relative Weight (%)             !
 --------------------------------------------------------------------------------
 ! R4    R(1,5)                 -0.1982                  5.2                    !
 ! R7    R(5,8)                  0.0884                  2.3                    !
 ! R10   R(8,11)                -0.1982                  5.2                    !
 ! A1    A(2,1,3)                0.0471                  1.2                    !
 ! A2    A(2,1,4)                0.0471                  1.2                    !
 ! A3    A(2,1,5)               -0.0961                  2.5                    !
 ! A4    A(3,1,4)                0.0711                  1.9                    !
 ! A5    A(3,1,5)               -0.0289                  0.8                    !
 ! A6    A(4,1,5)               -0.0289                  0.8                    !
 ! A7    A(1,5,6)               -0.131                   3.4                    !
 ! A8    A(1,5,7)               -0.131                   3.4                    !
 ! A9    A(1,5,8)                0.06                    1.6                    !
 ! A11   A(6,5,8)                0.1026                  2.7                    !
 ! A12   A(7,5,8)                0.1026                  2.7                    !
 ! A13   A(5,8,9)                0.1026                  2.7                    !
 ! A14   A(5,8,10)               0.1026                  2.7                    !
 ! A15   A(5,8,11)               0.06                    1.6                    !
 ! A17   A(9,8,11)              -0.131                   3.4                    !
 ! A18   A(10,8,11)             -0.131                   3.4                    !
 ! A19   A(8,11,12)             -0.0289                  0.8                    !
 ! A20   A(8,11,13)             -0.0961                  2.5                    !
 ! A21   A(8,11,14)             -0.0289                  0.8                    !
 ! A22   A(12,11,13)             0.0471                  1.2                    !
 ! A23   A(12,11,14)             0.0711                  1.9                    !
 ! A24   A(13,11,14)             0.0471                  1.2                    !
 ! D1    D(2,1,5,6)             -0.0858                  2.2                    !
 ! D2    D(2,1,5,7)              0.0858                  2.2                    !
 ! D4    D(3,1,5,6)             -0.0603                  1.6                    !
 ! D5    D(3,1,5,7)              0.1114                  2.9                    !
 ! D6    D(3,1,5,8)              0.0256                  0.7                    !
 ! D7    D(4,1,5,6)             -0.1114                  2.9                    !
 ! D8    D(4,1,5,7)              0.0603                  1.6                    !
 ! D9    D(4,1,5,8)             -0.0256                  0.7                    !
 ! D10   D(1,5,8,9)             -0.0599                  1.6                    !
 ! D11   D(1,5,8,10)             0.0599                  1.6                    !
 ! D13   D(6,5,8,9)             -0.1199                  3.1                    !
 ! D15   D(6,5,8,11)            -0.0599                  1.6                    !
 ! D17   D(7,5,8,10)             0.1199                  3.1                    !
 ! D18   D(7,5,8,11)             0.0599                  1.6                    !
 ! D19   D(5,8,11,12)            0.0256                  0.7                    !
 ! D21   D(5,8,11,14)           -0.0256                  0.7                    !
 ! D22   D(9,8,11,12)           -0.0603                  1.6                    !
 ! D23   D(9,8,11,13)           -0.0858                  2.2                    !
 ! D24   D(9,8,11,14)           -0.1114                  2.9                    !
 ! D25   D(10,8,11,12)           0.1114                  2.9                    !
 ! D26   D(10,8,11,13)           0.0858                  2.2                    !
 ! D27   D(10,8,11,14)           0.0603                  1.6                    !
 --------------------------------------------------------------------------------
                           ----------------------------
                           ! Normal Mode    11        !
 --------------------------                            --------------------------
 ! Name  Definition              Value          Relative Weight (%)             !
 --------------------------------------------------------------------------------
 ! A1    A(2,1,3)                0.0685                  1.6                    !
 ! A2    A(2,1,4)               -0.0685                  1.6                    !
 ! A5    A(3,1,5)                0.2457                  5.8                    !
 ! A6    A(4,1,5)               -0.2457                  5.8                    !
 ! A11   A(6,5,8)               -0.1087                  2.6                    !
 ! A12   A(7,5,8)                0.1087                  2.6                    !
 ! A13   A(5,8,9)               -0.1087                  2.6                    !
 ! A14   A(5,8,10)               0.1087                  2.6                    !
 ! A19   A(8,11,12)              0.2457                  5.8                    !
 ! A21   A(8,11,14)             -0.2457                  5.8                    !
 ! A22   A(12,11,13)             0.0685                  1.6                    !
 ! A24   A(13,11,14)            -0.0685                  1.6                    !
 ! D1    D(2,1,5,6)              0.2893                  6.8                    !
 ! D2    D(2,1,5,7)              0.2893                  6.8                    !
 ! D3    D(2,1,5,8)              0.1601                  3.8                    !
 ! D4    D(3,1,5,6)              0.0335                  0.8                    !
 ! D5    D(3,1,5,7)              0.0335                  0.8                    !
 ! D6    D(3,1,5,8)             -0.0957                  2.3                    !
 ! D7    D(4,1,5,6)              0.0335                  0.8                    !
 ! D8    D(4,1,5,7)              0.0335                  0.8                    !
 ! D9    D(4,1,5,8)             -0.0957                  2.3                    !
 ! D10   D(1,5,8,9)              0.0421                  1.0                    !
 ! D11   D(1,5,8,10)             0.0421                  1.0                    !
 ! D12   D(1,5,8,11)             0.0969                  2.3                    !
 ! D15   D(6,5,8,11)             0.0421                  1.0                    !
 ! D18   D(7,5,8,11)             0.0421                  1.0                    !
 ! D19   D(5,8,11,12)           -0.0957                  2.3                    !
 ! D20   D(5,8,11,13)            0.1601                  3.8                    !
 ! D21   D(5,8,11,14)           -0.0957                  2.3                    !
 ! D22   D(9,8,11,12)            0.0335                  0.8                    !
 ! D23   D(9,8,11,13)            0.2893                  6.8                    !
 ! D24   D(9,8,11,14)            0.0335                  0.8                    !
 ! D25   D(10,8,11,12)           0.0335                  0.8                    !
 ! D26   D(10,8,11,13)           0.2893                  6.8                    !
 ! D27   D(10,8,11,14)           0.0335                  0.8                    !
 --------------------------------------------------------------------------------
                           ----------------------------
                           ! Normal Mode    12        !
 --------------------------                            --------------------------
 ! Name  Definition              Value          Relative Weight (%)             !
 --------------------------------------------------------------------------------
 ! R4    R(1,5)                 -0.2137                  5.2                    !
 ! R10   R(8,11)                 0.2137                  5.2                    !
 ! A1    A(2,1,3)                0.0942                  2.3                    !
 ! A2    A(2,1,4)                0.0942                  2.3                    !
 ! A3    A(2,1,5)                0.1779                  4.3                    !
 ! A5    A(3,1,5)               -0.176                   4.3                    !
 ! A6    A(4,1,5)               -0.176                   4.3                    !
 ! A7    A(1,5,6)               -0.0546                  1.3                    !
 ! A8    A(1,5,7)               -0.0546                  1.3                    !
 ! A9    A(1,5,8)                0.0412                  1.0                    !
 ! A10   A(6,5,7)                0.0476                  1.2                    !
 ! A15   A(5,8,11)              -0.0412                  1.0                    !
 ! A16   A(9,8,10)              -0.0476                  1.2                    !
 ! A17   A(9,8,11)               0.0546                  1.3                    !
 ! A18   A(10,8,11)              0.0546                  1.3                    !
 ! A19   A(8,11,12)              0.176                   4.3                    !
 ! A20   A(8,11,13)             -0.1779                  4.3                    !
 ! A21   A(8,11,14)              0.176                   4.3                    !
 ! A22   A(12,11,13)            -0.0942                  2.3                    !
 ! A24   A(13,11,14)            -0.0942                  2.3                    !
 ! D4    D(3,1,5,6)             -0.1278                  3.1                    !
 ! D5    D(3,1,5,7)             -0.1149                  2.8                    !
 ! D6    D(3,1,5,8)             -0.1213                  2.9                    !
 ! D7    D(4,1,5,6)              0.1149                  2.8                    !
 ! D8    D(4,1,5,7)              0.1278                  3.1                    !
 ! D9    D(4,1,5,8)              0.1213                  2.9                    !
 ! D10   D(1,5,8,9)              0.0346                  0.8                    !
 ! D11   D(1,5,8,10)            -0.0346                  0.8                    !
 ! D14   D(6,5,8,10)            -0.0691                  1.7                    !
 ! D15   D(6,5,8,11)            -0.0346                  0.8                    !
 ! D16   D(7,5,8,9)              0.0691                  1.7                    !
 ! D18   D(7,5,8,11)             0.0346                  0.8                    !
 ! D19   D(5,8,11,12)            0.1213                  2.9                    !
 ! D21   D(5,8,11,14)           -0.1213                  2.9                    !
 ! D22   D(9,8,11,12)            0.1278                  3.1                    !
 ! D24   D(9,8,11,14)           -0.1149                  2.8                    !
 ! D25   D(10,8,11,12)           0.1149                  2.8                    !
 ! D27   D(10,8,11,14)          -0.1278                  3.1                    !
 --------------------------------------------------------------------------------
                           ----------------------------
                           ! Normal Mode    13        !
 --------------------------                            --------------------------
 ! Name  Definition              Value          Relative Weight (%)             !
 --------------------------------------------------------------------------------
 ! A1    A(2,1,3)                0.0668                  1.0                    !
 ! A2    A(2,1,4)               -0.0668                  1.0                    !
 ! A5    A(3,1,5)                0.2445                  3.7                    !
 ! A6    A(4,1,5)               -0.2445                  3.7                    !
 ! A7    A(1,5,6)               -0.1922                  2.9                    !
 ! A8    A(1,5,7)                0.1922                  2.9                    !
 ! A11   A(6,5,8)               -0.1213                  1.8                    !
 ! A12   A(7,5,8)                0.1213                  1.8                    !
 ! A13   A(5,8,9)                0.1213                  1.8                    !
 ! A14   A(5,8,10)              -0.1213                  1.8                    !
 ! A17   A(9,8,11)               0.1922                  2.9                    !
 ! A18   A(10,8,11)             -0.1922                  2.9                    !
 ! A19   A(8,11,12)             -0.2445                  3.7                    !
 ! A21   A(8,11,14)              0.2445                  3.7                    !
 ! A22   A(12,11,13)            -0.0668                  1.0                    !
 ! A24   A(13,11,14)             0.0668                  1.0                    !
 ! D1    D(2,1,5,6)              0.3214                  4.9                    !
 ! D2    D(2,1,5,7)              0.3214                  4.9                    !
 ! D3    D(2,1,5,8)              0.0506                  0.8                    !
 ! D4    D(3,1,5,6)              0.0686                  1.0                    !
 ! D5    D(3,1,5,7)              0.0686                  1.0                    !
 ! D6    D(3,1,5,8)             -0.2022                  3.1                    !
 ! D7    D(4,1,5,6)              0.0686                  1.0                    !
 ! D8    D(4,1,5,7)              0.0686                  1.0                    !
 ! D9    D(4,1,5,8)             -0.2022                  3.1                    !
 ! D10   D(1,5,8,9)              0.3102                  4.7                    !
 ! D11   D(1,5,8,10)             0.3102                  4.7                    !
 ! D15   D(6,5,8,11)            -0.3102                  4.7                    !
 ! D18   D(7,5,8,11)            -0.3102                  4.7                    !
 ! D19   D(5,8,11,12)            0.2022                  3.1                    !
 ! D20   D(5,8,11,13)           -0.0506                  0.8                    !
 ! D21   D(5,8,11,14)            0.2022                  3.1                    !
 ! D22   D(9,8,11,12)           -0.0686                  1.0                    !
 ! D23   D(9,8,11,13)           -0.3214                  4.9                    !
 ! D24   D(9,8,11,14)           -0.0686                  1.0                    !
 ! D25   D(10,8,11,12)          -0.0686                  1.0                    !
 ! D26   D(10,8,11,13)          -0.3214                  4.9                    !
 ! D27   D(10,8,11,14)          -0.0686                  1.0                    !
 --------------------------------------------------------------------------------
                           ----------------------------
                           ! Normal Mode    14        !
 --------------------------                            --------------------------
 ! Name  Definition              Value          Relative Weight (%)             !
 --------------------------------------------------------------------------------
 ! R4    R(1,5)                 -0.1132                  2.2                    !
 ! R7    R(5,8)                 -0.2459                  4.7                    !
 ! R10   R(8,11)                -0.1132                  2.2                    !
 ! A1    A(2,1,3)                0.0781                  1.5                    !
 ! A2    A(2,1,4)                0.0781                  1.5                    !
 ! A3    A(2,1,5)                0.2222                  4.3                    !
 ! A4    A(3,1,4)               -0.0474                  0.9                    !
 ! A5    A(3,1,5)               -0.1612                  3.1                    !
 ! A6    A(4,1,5)               -0.1612                  3.1                    !
 ! A9    A(1,5,8)                0.1649                  3.2                    !
 ! A10   A(6,5,7)                0.1043                  2.0                    !
 ! A11   A(6,5,8)               -0.1306                  2.5                    !
 ! A12   A(7,5,8)               -0.1306                  2.5                    !
 ! A13   A(5,8,9)               -0.1306                  2.5                    !
 ! A14   A(5,8,10)              -0.1306                  2.5                    !
 ! A15   A(5,8,11)               0.1649                  3.2                    !
 ! A16   A(9,8,10)               0.1043                  2.0                    !
 ! A19   A(8,11,12)             -0.1612                  3.1                    !
 ! A20   A(8,11,13)              0.2222                  4.3                    !
 ! A21   A(8,11,14)             -0.1612                  3.1                    !
 ! A22   A(12,11,13)             0.0781                  1.5                    !
 ! A23   A(12,11,14)            -0.0474                  0.9                    !
 ! A24   A(13,11,14)             0.0781                  1.5                    !
 ! D1    D(2,1,5,6)              0.0594                  1.1                    !
 ! D2    D(2,1,5,7)             -0.0594                  1.1                    !
 ! D4    D(3,1,5,6)             -0.0819                  1.6                    !
 ! D5    D(3,1,5,7)             -0.2007                  3.9                    !
 ! D6    D(3,1,5,8)             -0.1413                  2.7                    !
 ! D7    D(4,1,5,6)              0.2007                  3.9                    !
 ! D8    D(4,1,5,7)              0.0819                  1.6                    !
 ! D9    D(4,1,5,8)              0.1413                  2.7                    !
 ! D19   D(5,8,11,12)           -0.1413                  2.7                    !
 ! D21   D(5,8,11,14)            0.1413                  2.7                    !
 ! D22   D(9,8,11,12)           -0.0819                  1.6                    !
 ! D23   D(9,8,11,13)            0.0594                  1.1                    !
 ! D24   D(9,8,11,14)            0.2007                  3.9                    !
 ! D25   D(10,8,11,12)          -0.2007                  3.9                    !
 ! D26   D(10,8,11,13)          -0.0594                  1.1                    !
 ! D27   D(10,8,11,14)           0.0819                  1.6                    !
 --------------------------------------------------------------------------------
                           ----------------------------
                           ! Normal Mode    15        !
 --------------------------                            --------------------------
 ! Name  Definition              Value          Relative Weight (%)             !
 --------------------------------------------------------------------------------
 ! A7    A(1,5,6)               -0.1805                  4.2                    !
 ! A8    A(1,5,7)                0.1805                  4.2                    !
 ! A11   A(6,5,8)                0.2461                  5.7                    !
 ! A12   A(7,5,8)               -0.2461                  5.7                    !
 ! A13   A(5,8,9)               -0.2461                  5.7                    !
 ! A14   A(5,8,10)               0.2461                  5.7                    !
 ! A17   A(9,8,11)               0.1805                  4.2                    !
 ! A18   A(10,8,11)             -0.1805                  4.2                    !
 ! D1    D(2,1,5,6)             -0.1904                  4.4                    !
 ! D2    D(2,1,5,7)             -0.1904                  4.4                    !
 ! D4    D(3,1,5,6)             -0.1559                  3.6                    !
 ! D5    D(3,1,5,7)             -0.1559                  3.6                    !
 ! D7    D(4,1,5,6)             -0.1559                  3.6                    !
 ! D8    D(4,1,5,7)             -0.1559                  3.6                    !
 ! D10   D(1,5,8,9)              0.0702                  1.6                    !
 ! D11   D(1,5,8,10)             0.0702                  1.6                    !
 ! D15   D(6,5,8,11)            -0.0702                  1.6                    !
 ! D18   D(7,5,8,11)            -0.0702                  1.6                    !
 ! D22   D(9,8,11,12)            0.1559                  3.6                    !
 ! D23   D(9,8,11,13)            0.1904                  4.4                    !
 ! D24   D(9,8,11,14)            0.1559                  3.6                    !
 ! D25   D(10,8,11,12)           0.1559                  3.6                    !
 ! D26   D(10,8,11,13)           0.1904                  4.4                    !
 ! D27   D(10,8,11,14)           0.1559                  3.6                    !
 --------------------------------------------------------------------------------
                           ----------------------------
                           ! Normal Mode    16        !
 --------------------------                            --------------------------
 ! Name  Definition              Value          Relative Weight (%)             !
 --------------------------------------------------------------------------------
 ! A5    A(3,1,5)                0.0827                  1.6                    !
 ! A6    A(4,1,5)               -0.0827                  1.6                    !
 ! A7    A(1,5,6)               -0.248                   4.7                    !
 ! A8    A(1,5,7)                0.248                   4.7                    !
 ! A11   A(6,5,8)                0.1808                  3.5                    !
 ! A12   A(7,5,8)               -0.1808                  3.5                    !
 ! A13   A(5,8,9)                0.1808                  3.5                    !
 ! A14   A(5,8,10)              -0.1808                  3.5                    !
 ! A17   A(9,8,11)              -0.248                   4.7                    !
 ! A18   A(10,8,11)              0.248                   4.7                    !
 ! A19   A(8,11,12)              0.0827                  1.6                    !
 ! A21   A(8,11,14)             -0.0827                  1.6                    !
 ! D4    D(3,1,5,6)             -0.1089                  2.1                    !
 ! D5    D(3,1,5,7)             -0.1089                  2.1                    !
 ! D7    D(4,1,5,6)             -0.1089                  2.1                    !
 ! D8    D(4,1,5,7)             -0.1089                  2.1                    !
 ! D10   D(1,5,8,9)             -0.1257                  2.4                    !
 ! D11   D(1,5,8,10)            -0.1257                  2.4                    !
 ! D12   D(1,5,8,11)             0.0674                  1.3                    !
 ! D13   D(6,5,8,9)             -0.3187                  6.1                    !
 ! D14   D(6,5,8,10)            -0.3187                  6.1                    !
 ! D15   D(6,5,8,11)            -0.1257                  2.4                    !
 ! D16   D(7,5,8,9)             -0.3187                  6.1                    !
 ! D17   D(7,5,8,10)            -0.3187                  6.1                    !
 ! D18   D(7,5,8,11)            -0.1257                  2.4                    !
 ! D22   D(9,8,11,12)           -0.1089                  2.1                    !
 ! D24   D(9,8,11,14)           -0.1089                  2.1                    !
 ! D25   D(10,8,11,12)          -0.1089                  2.1                    !
 ! D27   D(10,8,11,14)          -0.1089                  2.1                    !
 --------------------------------------------------------------------------------
                           ----------------------------
                           ! Normal Mode    17        !
 --------------------------                            --------------------------
 ! Name  Definition              Value          Relative Weight (%)             !
 --------------------------------------------------------------------------------
 ! R4    R(1,5)                  0.0701                  1.1                    !
 ! R10   R(8,11)                -0.0701                  1.1                    !
 ! A1    A(2,1,3)               -0.0783                  1.2                    !
 ! A2    A(2,1,4)               -0.0783                  1.2                    !
 ! A3    A(2,1,5)                0.1559                  2.3                    !
 ! A4    A(3,1,4)               -0.0987                  1.5                    !
 ! A7    A(1,5,6)               -0.2207                  3.3                    !
 ! A8    A(1,5,7)               -0.2207                  3.3                    !
 ! A10   A(6,5,7)               -0.0907                  1.4                    !
 ! A11   A(6,5,8)                0.2562                  3.9                    !
 ! A12   A(7,5,8)                0.2562                  3.9                    !
 ! A13   A(5,8,9)               -0.2562                  3.9                    !
 ! A14   A(5,8,10)              -0.2562                  3.9                    !
 ! A16   A(9,8,10)               0.0907                  1.4                    !
 ! A17   A(9,8,11)               0.2207                  3.3                    !
 ! A18   A(10,8,11)              0.2207                  3.3                    !
 ! A20   A(8,11,13)             -0.1559                  2.3                    !
 ! A22   A(12,11,13)             0.0783                  1.2                    !
 ! A23   A(12,11,14)             0.0987                  1.5                    !
 ! A24   A(13,11,14)             0.0783                  1.2                    !
 ! D1    D(2,1,5,6)             -0.2057                  3.1                    !
 ! D2    D(2,1,5,7)              0.2057                  3.1                    !
 ! D4    D(3,1,5,6)             -0.2406                  3.6                    !
 ! D5    D(3,1,5,7)              0.1709                  2.6                    !
 ! D7    D(4,1,5,6)             -0.1709                  2.6                    !
 ! D8    D(4,1,5,7)              0.2406                  3.6                    !
 ! D10   D(1,5,8,9)              0.0902                  1.4                    !
 ! D11   D(1,5,8,10)            -0.0902                  1.4                    !
 ! D14   D(6,5,8,10)            -0.1803                  2.7                    !
 ! D15   D(6,5,8,11)            -0.0902                  1.4                    !
 ! D16   D(7,5,8,9)              0.1803                  2.7                    !
 ! D18   D(7,5,8,11)             0.0902                  1.4                    !
 ! D22   D(9,8,11,12)            0.2406                  3.6                    !
 ! D23   D(9,8,11,13)            0.2057                  3.1                    !
 ! D24   D(9,8,11,14)            0.1709                  2.6                    !
 ! D25   D(10,8,11,12)          -0.1709                  2.6                    !
 ! D26   D(10,8,11,13)          -0.2057                  3.1                    !
 ! D27   D(10,8,11,14)          -0.2406                  3.6                    !
 --------------------------------------------------------------------------------
                           ----------------------------
                           ! Normal Mode    18        !
 --------------------------                            --------------------------
 ! Name  Definition              Value          Relative Weight (%)             !
 --------------------------------------------------------------------------------
 ! A1    A(2,1,3)                0.2419                  3.8                    !
 ! A2    A(2,1,4)                0.2419                  3.8                    !
 ! A3    A(2,1,5)               -0.136                   2.1                    !
 ! A4    A(3,1,4)               -0.3989                  6.2                    !
 ! A10   A(6,5,7)               -0.143                   2.2                    !
 ! A16   A(9,8,10)               0.143                   2.2                    !
 ! A20   A(8,11,13)              0.136                   2.1                    !
 ! A22   A(12,11,13)            -0.2419                  3.8                    !
 ! A23   A(12,11,14)             0.3989                  6.2                    !
 ! A24   A(13,11,14)            -0.2419                  3.8                    !
 ! D1    D(2,1,5,6)             -0.07                    1.1                    !
 ! D2    D(2,1,5,7)              0.07                    1.1                    !
 ! D4    D(3,1,5,6)             -0.3049                  4.8                    !
 ! D5    D(3,1,5,7)             -0.165                   2.6                    !
 ! D6    D(3,1,5,8)             -0.235                   3.7                    !
 ! D7    D(4,1,5,6)              0.165                   2.6                    !
 ! D8    D(4,1,5,7)              0.3049                  4.8                    !
 ! D9    D(4,1,5,8)              0.235                   3.7                    !
 ! D10   D(1,5,8,9)             -0.0671                  1.0                    !
 ! D11   D(1,5,8,10)             0.0671                  1.0                    !
 ! D14   D(6,5,8,10)             0.1341                  2.1                    !
 ! D15   D(6,5,8,11)             0.0671                  1.0                    !
 ! D16   D(7,5,8,9)             -0.1341                  2.1                    !
 ! D18   D(7,5,8,11)            -0.0671                  1.0                    !
 ! D19   D(5,8,11,12)            0.235                   3.7                    !
 ! D21   D(5,8,11,14)           -0.235                   3.7                    !
 ! D22   D(9,8,11,12)            0.3049                  4.8                    !
 ! D23   D(9,8,11,13)            0.07                    1.1                    !
 ! D24   D(9,8,11,14)           -0.165                   2.6                    !
 ! D25   D(10,8,11,12)           0.165                   2.6                    !
 ! D26   D(10,8,11,13)          -0.07                    1.1                    !
 ! D27   D(10,8,11,14)          -0.3049                  4.8                    !
 --------------------------------------------------------------------------------
                           ----------------------------
                           ! Normal Mode    19        !
 --------------------------                            --------------------------
 ! Name  Definition              Value          Relative Weight (%)             !
 --------------------------------------------------------------------------------
 ! R7    R(5,8)                 -0.0423                  0.7                    !
 ! A1    A(2,1,3)                0.1657                  2.7                    !
 ! A2    A(2,1,4)                0.1657                  2.7                    !
 ! A3    A(2,1,5)               -0.0549                  0.9                    !
 ! A4    A(3,1,4)               -0.4868                  8.1                    !
 ! A5    A(3,1,5)                0.0998                  1.7                    !
 ! A6    A(4,1,5)                0.0998                  1.7                    !
 ! A7    A(1,5,6)               -0.0581                  1.0                    !
 ! A8    A(1,5,7)               -0.0581                  1.0                    !
 ! A11   A(6,5,8)                0.0483                  0.8                    !
 ! A12   A(7,5,8)                0.0483                  0.8                    !
 ! A13   A(5,8,9)                0.0483                  0.8                    !
 ! A14   A(5,8,10)               0.0483                  0.8                    !
 ! A17   A(9,8,11)              -0.0581                  1.0                    !
 ! A18   A(10,8,11)             -0.0581                  1.0                    !
 ! A19   A(8,11,12)              0.0998                  1.7                    !
 ! A20   A(8,11,13)             -0.0549                  0.9                    !
 ! A21   A(8,11,14)              0.0998                  1.7                    !
 ! A22   A(12,11,13)             0.1657                  2.7                    !
 ! A23   A(12,11,14)            -0.4868                  8.1                    !
 ! A24   A(13,11,14)             0.1657                  2.7                    !
 ! D4    D(3,1,5,6)             -0.2696                  4.5                    !
 ! D5    D(3,1,5,7)             -0.2147                  3.6                    !
 ! D6    D(3,1,5,8)             -0.2421                  4.0                    !
 ! D7    D(4,1,5,6)              0.2147                  3.6                    !
 ! D8    D(4,1,5,7)              0.2696                  4.5                    !
 ! D9    D(4,1,5,8)              0.2421                  4.0                    !
 ! D10   D(1,5,8,9)             -0.0382                  0.6                    !
 ! D11   D(1,5,8,10)             0.0382                  0.6                    !
 ! D13   D(6,5,8,9)             -0.0764                  1.3                    !
 ! D15   D(6,5,8,11)            -0.0382                  0.6                    !
 ! D17   D(7,5,8,10)             0.0764                  1.3                    !
 ! D18   D(7,5,8,11)             0.0382                  0.6                    !
 ! D19   D(5,8,11,12)           -0.2421                  4.0                    !
 ! D21   D(5,8,11,14)            0.2421                  4.0                    !
 ! D22   D(9,8,11,12)           -0.2696                  4.5                    !
 ! D24   D(9,8,11,14)            0.2147                  3.6                    !
 ! D25   D(10,8,11,12)          -0.2147                  3.6                    !
 ! D27   D(10,8,11,14)           0.2696                  4.5                    !
 --------------------------------------------------------------------------------
                           ----------------------------
                           ! Normal Mode    20        !
 --------------------------                            --------------------------
 ! Name  Definition              Value          Relative Weight (%)             !
 --------------------------------------------------------------------------------
 ! A1    A(2,1,3)                0.3891                  7.0                    !
 ! A2    A(2,1,4)               -0.3891                  7.0                    !
 ! A5    A(3,1,5)               -0.1024                  1.8                    !
 ! A6    A(4,1,5)                0.1024                  1.8                    !
 ! A19   A(8,11,12)             -0.1024                  1.8                    !
 ! A21   A(8,11,14)              0.1024                  1.8                    !
 ! A22   A(12,11,13)             0.3891                  7.0                    !
 ! A24   A(13,11,14)            -0.3891                  7.0                    !
 ! D1    D(2,1,5,6)              0.2835                  5.1                    !
 ! D2    D(2,1,5,7)              0.2835                  5.1                    !
 ! D3    D(2,1,5,8)              0.2803                  5.1                    !
 ! D4    D(3,1,5,6)             -0.1425                  2.6                    !
 ! D5    D(3,1,5,7)             -0.1425                  2.6                    !
 ! D6    D(3,1,5,8)             -0.1458                  2.6                    !
 ! D7    D(4,1,5,6)             -0.1425                  2.6                    !
 ! D8    D(4,1,5,7)             -0.1425                  2.6                    !
 ! D9    D(4,1,5,8)             -0.1458                  2.6                    !
 ! D19   D(5,8,11,12)           -0.1458                  2.6                    !
 ! D20   D(5,8,11,13)            0.2803                  5.1                    !
 ! D21   D(5,8,11,14)           -0.1458                  2.6                    !
 ! D22   D(9,8,11,12)           -0.1425                  2.6                    !
 ! D23   D(9,8,11,13)            0.2835                  5.1                    !
 ! D24   D(9,8,11,14)           -0.1425                  2.6                    !
 ! D25   D(10,8,11,12)          -0.1425                  2.6                    !
 ! D26   D(10,8,11,13)           0.2835                  5.1                    !
 ! D27   D(10,8,11,14)          -0.1425                  2.6                    !
 --------------------------------------------------------------------------------
                           ----------------------------
                           ! Normal Mode    21        !
 --------------------------                            --------------------------
 ! Name  Definition              Value          Relative Weight (%)             !
 --------------------------------------------------------------------------------
 ! A1    A(2,1,3)                0.3884                  6.9                    !
 ! A2    A(2,1,4)               -0.3884                  6.9                    !
 ! A5    A(3,1,5)               -0.1038                  1.9                    !
 ! A6    A(4,1,5)                0.1038                  1.9                    !
 ! A19   A(8,11,12)              0.1038                  1.9                    !
 ! A21   A(8,11,14)             -0.1038                  1.9                    !
 ! A22   A(12,11,13)            -0.3884                  6.9                    !
 ! A24   A(13,11,14)             0.3884                  6.9                    !
 ! D1    D(2,1,5,6)              0.2748                  4.9                    !
 ! D2    D(2,1,5,7)              0.2748                  4.9                    !
 ! D3    D(2,1,5,8)              0.2858                  5.1                    !
 ! D4    D(3,1,5,6)             -0.1493                  2.7                    !
 ! D5    D(3,1,5,7)             -0.1493                  2.7                    !
 ! D6    D(3,1,5,8)             -0.1383                  2.5                    !
 ! D7    D(4,1,5,6)             -0.1493                  2.7                    !
 ! D8    D(4,1,5,7)             -0.1493                  2.7                    !
 ! D9    D(4,1,5,8)             -0.1383                  2.5                    !
 ! D19   D(5,8,11,12)            0.1383                  2.5                    !
 ! D20   D(5,8,11,13)           -0.2858                  5.1                    !
 ! D21   D(5,8,11,14)            0.1383                  2.5                    !
 ! D22   D(9,8,11,12)            0.1493                  2.7                    !
 ! D23   D(9,8,11,13)           -0.2748                  4.9                    !
 ! D24   D(9,8,11,14)            0.1493                  2.7                    !
 ! D25   D(10,8,11,12)           0.1493                  2.7                    !
 ! D26   D(10,8,11,13)          -0.2748                  4.9                    !
 ! D27   D(10,8,11,14)           0.1493                  2.7                    !
 --------------------------------------------------------------------------------
                           ----------------------------
                           ! Normal Mode    22        !
 --------------------------                            --------------------------
 ! Name  Definition              Value          Relative Weight (%)             !
 --------------------------------------------------------------------------------
 ! R7    R(5,8)                 -0.0777                  1.2                    !
 ! A1    A(2,1,3)               -0.2437                  3.9                    !
 ! A2    A(2,1,4)               -0.2437                  3.9                    !
 ! A3    A(2,1,5)                0.2172                  3.5                    !
 ! A4    A(3,1,4)               -0.0548                  0.9                    !
 ! A5    A(3,1,5)                0.1434                  2.3                    !
 ! A6    A(4,1,5)                0.1434                  2.3                    !
 ! A7    A(1,5,6)               -0.1683                  2.7                    !
 ! A8    A(1,5,7)               -0.1683                  2.7                    !
 ! A10   A(6,5,7)                0.273                   4.4                    !
 ! A11   A(6,5,8)                0.0506                  0.8                    !
 ! A12   A(7,5,8)                0.0506                  0.8                    !
 ! A13   A(5,8,9)                0.0506                  0.8                    !
 ! A14   A(5,8,10)               0.0506                  0.8                    !
 ! A16   A(9,8,10)               0.273                   4.4                    !
 ! A17   A(9,8,11)              -0.1683                  2.7                    !
 ! A18   A(10,8,11)             -0.1683                  2.7                    !
 ! A19   A(8,11,12)              0.1434                  2.3                    !
 ! A20   A(8,11,13)              0.2172                  3.5                    !
 ! A21   A(8,11,14)              0.1434                  2.3                    !
 ! A22   A(12,11,13)            -0.2437                  3.9                    !
 ! A23   A(12,11,14)            -0.0548                  0.9                    !
 ! A24   A(13,11,14)            -0.2437                  3.9                    !
 ! D1    D(2,1,5,6)              0.0603                  1.0                    !
 ! D2    D(2,1,5,7)             -0.0603                  1.0                    !
 ! D4    D(3,1,5,6)              0.124                   2.0                    !
 ! D6    D(3,1,5,8)              0.0638                  1.0                    !
 ! D8    D(4,1,5,7)             -0.124                   2.0                    !
 ! D9    D(4,1,5,8)             -0.0638                  1.0                    !
 ! D10   D(1,5,8,9)             -0.1927                  3.1                    !
 ! D11   D(1,5,8,10)             0.1927                  3.1                    !
 ! D13   D(6,5,8,9)             -0.3854                  6.2                    !
 ! D15   D(6,5,8,11)            -0.1927                  3.1                    !
 ! D17   D(7,5,8,10)             0.3854                  6.2                    !
 ! D18   D(7,5,8,11)             0.1927                  3.1                    !
 ! D19   D(5,8,11,12)            0.0638                  1.0                    !
 ! D21   D(5,8,11,14)           -0.0638                  1.0                    !
 ! D22   D(9,8,11,12)            0.124                   2.0                    !
 ! D23   D(9,8,11,13)            0.0603                  1.0                    !
 ! D26   D(10,8,11,13)          -0.0603                  1.0                    !
 ! D27   D(10,8,11,14)          -0.124                   2.0                    !
 --------------------------------------------------------------------------------
                           ----------------------------
                           ! Normal Mode    23        !
 --------------------------                            --------------------------
 ! Name  Definition              Value          Relative Weight (%)             !
 --------------------------------------------------------------------------------
 ! A1    A(2,1,3)                0.0555                  0.7                    !
 ! A2    A(2,1,4)                0.0555                  0.7                    !
 ! A3    A(2,1,5)               -0.0665                  0.9                    !
 ! A4    A(3,1,4)                0.2653                  3.5                    !
 ! A5    A(3,1,5)               -0.1417                  1.9                    !
 ! A6    A(4,1,5)               -0.1417                  1.9                    !
 ! A7    A(1,5,6)                0.1007                  1.3                    !
 ! A8    A(1,5,7)                0.1007                  1.3                    !
 ! A10   A(6,5,7)               -0.4266                  5.6                    !
 ! A11   A(6,5,8)                0.1079                  1.4                    !
 ! A12   A(7,5,8)                0.1079                  1.4                    !
 ! A13   A(5,8,9)               -0.1079                  1.4                    !
 ! A14   A(5,8,10)              -0.1079                  1.4                    !
 ! A16   A(9,8,10)               0.4266                  5.6                    !
 ! A17   A(9,8,11)              -0.1007                  1.3                    !
 ! A18   A(10,8,11)             -0.1007                  1.3                    !
 ! A19   A(8,11,12)              0.1417                  1.9                    !
 ! A20   A(8,11,13)              0.0665                  0.9                    !
 ! A21   A(8,11,14)              0.1417                  1.9                    !
 ! A22   A(12,11,13)            -0.0555                  0.7                    !
 ! A23   A(12,11,14)            -0.2653                  3.5                    !
 ! A24   A(13,11,14)            -0.0555                  0.7                    !
 ! D1    D(2,1,5,6)             -0.2031                  2.7                    !
 ! D2    D(2,1,5,7)              0.2031                  2.7                    !
 ! D4    D(3,1,5,6)             -0.1312                  1.7                    !
 ! D5    D(3,1,5,7)              0.275                   3.6                    !
 ! D6    D(3,1,5,8)              0.0719                  0.9                    !
 ! D7    D(4,1,5,6)             -0.275                   3.6                    !
 ! D8    D(4,1,5,7)              0.1312                  1.7                    !
 ! D9    D(4,1,5,8)             -0.0719                  0.9                    !
 ! D10   D(1,5,8,9)             -0.1955                  2.6                    !
 ! D11   D(1,5,8,10)             0.1955                  2.6                    !
 ! D14   D(6,5,8,10)             0.391                   5.2                    !
 ! D15   D(6,5,8,11)             0.1955                  2.6                    !
 ! D16   D(7,5,8,9)             -0.391                   5.2                    !
 ! D18   D(7,5,8,11)            -0.1955                  2.6                    !
 ! D19   D(5,8,11,12)           -0.0719                  0.9                    !
 ! D21   D(5,8,11,14)            0.0719                  0.9                    !
 ! D22   D(9,8,11,12)            0.1312                  1.7                    !
 ! D23   D(9,8,11,13)            0.2031                  2.7                    !
 ! D24   D(9,8,11,14)            0.275                   3.6                    !
 ! D25   D(10,8,11,12)          -0.275                   3.6                    !
 ! D26   D(10,8,11,13)          -0.2031                  2.7                    !
 ! D27   D(10,8,11,14)          -0.1312                  1.7                    !
 --------------------------------------------------------------------------------
                           ----------------------------
                           ! Normal Mode    24        !
 --------------------------                            --------------------------
 ! Name  Definition              Value          Relative Weight (%)             !
 --------------------------------------------------------------------------------
 ! R7    R(5,8)                 -0.2216                  2.6                    !
 ! A1    A(2,1,3)               -0.1185                  1.4                    !
 ! A2    A(2,1,4)               -0.1185                  1.4                    !
 ! A3    A(2,1,5)                0.1674                  2.0                    !
 ! A10   A(6,5,7)               -0.4944                  5.8                    !
 ! A11   A(6,5,8)                0.1724                  2.0                    !
 ! A12   A(7,5,8)                0.1724                  2.0                    !
 ! A13   A(5,8,9)                0.1724                  2.0                    !
 ! A14   A(5,8,10)               0.1724                  2.0                    !
 ! A16   A(9,8,10)              -0.4944                  5.8                    !
 ! A20   A(8,11,13)              0.1674                  2.0                    !
 ! A22   A(12,11,13)            -0.1185                  1.4                    !
 ! A24   A(13,11,14)            -0.1185                  1.4                    !
 ! D1    D(2,1,5,6)             -0.2867                  3.4                    !
 ! D2    D(2,1,5,7)              0.2867                  3.4                    !
 ! D4    D(3,1,5,6)             -0.2815                  3.3                    !
 ! D5    D(3,1,5,7)              0.2919                  3.4                    !
 ! D7    D(4,1,5,6)             -0.2919                  3.4                    !
 ! D8    D(4,1,5,7)              0.2815                  3.3                    !
 ! D10   D(1,5,8,9)              0.1998                  2.3                    !
 ! D11   D(1,5,8,10)            -0.1998                  2.3                    !
 ! D13   D(6,5,8,9)              0.3997                  4.7                    !
 ! D15   D(6,5,8,11)             0.1998                  2.3                    !
 ! D17   D(7,5,8,10)            -0.3997                  4.7                    !
 ! D18   D(7,5,8,11)            -0.1998                  2.3                    !
 ! D22   D(9,8,11,12)           -0.2815                  3.3                    !
 ! D23   D(9,8,11,13)           -0.2867                  3.4                    !
 ! D24   D(9,8,11,14)           -0.2919                  3.4                    !
 ! D25   D(10,8,11,12)           0.2919                  3.4                    !
 ! D26   D(10,8,11,13)           0.2867                  3.4                    !
 ! D27   D(10,8,11,14)           0.2815                  3.3                    !
 --------------------------------------------------------------------------------
                           ----------------------------
                           ! Normal Mode    25        !
 --------------------------                            --------------------------
 ! Name  Definition              Value          Relative Weight (%)             !
 --------------------------------------------------------------------------------
 ! R4    R(1,5)                  0.2285                  3.2                    !
 ! R10   R(8,11)                -0.2285                  3.2                    !
 ! A1    A(2,1,3)                0.2346                  3.3                    !
 ! A2    A(2,1,4)                0.2346                  3.3                    !
 ! A3    A(2,1,5)               -0.206                   2.9                    !
 ! A4    A(3,1,4)                0.1884                  2.6                    !
 ! A5    A(3,1,5)               -0.2027                  2.8                    !
 ! A6    A(4,1,5)               -0.2027                  2.8                    !
 ! A7    A(1,5,6)               -0.1652                  2.3                    !
 ! A8    A(1,5,7)               -0.1652                  2.3                    !
 ! A10   A(6,5,7)                0.3135                  4.4                    !
 ! A16   A(9,8,10)              -0.3135                  4.4                    !
 ! A17   A(9,8,11)               0.1652                  2.3                    !
 ! A18   A(10,8,11)              0.1652                  2.3                    !
 ! A19   A(8,11,12)              0.2027                  2.8                    !
 ! A20   A(8,11,13)              0.206                   2.9                    !
 ! A21   A(8,11,14)              0.2027                  2.8                    !
 ! A22   A(12,11,13)            -0.2346                  3.3                    !
 ! A23   A(12,11,14)            -0.1884                  2.6                    !
 ! A24   A(13,11,14)            -0.2346                  3.3                    !
 ! D1    D(2,1,5,6)              0.0881                  1.2                    !
 ! D2    D(2,1,5,7)             -0.0881                  1.2                    !
 ! D4    D(3,1,5,6)              0.0688                  1.0                    !
 ! D5    D(3,1,5,7)             -0.1074                  1.5                    !
 ! D7    D(4,1,5,6)              0.1074                  1.5                    !
 ! D8    D(4,1,5,7)             -0.0688                  1.0                    !
 ! D10   D(1,5,8,9)              0.1947                  2.7                    !
 ! D11   D(1,5,8,10)            -0.1947                  2.7                    !
 ! D14   D(6,5,8,10)            -0.3894                  5.4                    !
 ! D15   D(6,5,8,11)            -0.1947                  2.7                    !
 ! D16   D(7,5,8,9)              0.3894                  5.4                    !
 ! D18   D(7,5,8,11)             0.1947                  2.7                    !
 ! D22   D(9,8,11,12)           -0.0688                  1.0                    !
 ! D23   D(9,8,11,13)           -0.0881                  1.2                    !
 ! D24   D(9,8,11,14)           -0.1074                  1.5                    !
 ! D25   D(10,8,11,12)           0.1074                  1.5                    !
 ! D26   D(10,8,11,13)           0.0881                  1.2                    !
 ! D27   D(10,8,11,14)           0.0688                  1.0                    !
 --------------------------------------------------------------------------------
                           ----------------------------
                           ! Normal Mode    26        !
 --------------------------                            --------------------------
 ! Name  Definition              Value          Relative Weight (%)             !
 --------------------------------------------------------------------------------
 ! R4    R(1,5)                 -0.3298                  3.6                    !
 ! R7    R(5,8)                  0.3513                  3.9                    !
 ! R10   R(8,11)                -0.3298                  3.6                    !
 ! A1    A(2,1,3)               -0.1775                  2.0                    !
 ! A2    A(2,1,4)               -0.1775                  2.0                    !
 ! A4    A(3,1,4)               -0.2255                  2.5                    !
 ! A5    A(3,1,5)                0.2167                  2.4                    !
 ! A6    A(4,1,5)                0.2167                  2.4                    !
 ! A7    A(1,5,6)                0.2723                  3.0                    !
 ! A8    A(1,5,7)                0.2723                  3.0                    !
 ! A11   A(6,5,8)               -0.2724                  3.0                    !
 ! A12   A(7,5,8)               -0.2724                  3.0                    !
 ! A13   A(5,8,9)               -0.2724                  3.0                    !
 ! A14   A(5,8,10)              -0.2724                  3.0                    !
 ! A17   A(9,8,11)               0.2723                  3.0                    !
 ! A18   A(10,8,11)              0.2723                  3.0                    !
 ! A19   A(8,11,12)              0.2167                  2.4                    !
 ! A21   A(8,11,14)              0.2167                  2.4                    !
 ! A22   A(12,11,13)            -0.1775                  2.0                    !
 ! A23   A(12,11,14)            -0.2255                  2.5                    !
 ! A24   A(13,11,14)            -0.1775                  2.0                    !
 ! D1    D(2,1,5,6)              0.1325                  1.5                    !
 ! D2    D(2,1,5,7)             -0.1325                  1.5                    !
 ! D4    D(3,1,5,6)              0.1378                  1.5                    !
 ! D5    D(3,1,5,7)             -0.1272                  1.4                    !
 ! D7    D(4,1,5,6)              0.1272                  1.4                    !
 ! D8    D(4,1,5,7)             -0.1378                  1.5                    !
 ! D10   D(1,5,8,9)              0.2015                  2.2                    !
 ! D11   D(1,5,8,10)            -0.2015                  2.2                    !
 ! D13   D(6,5,8,9)              0.4029                  4.5                    !
 ! D15   D(6,5,8,11)             0.2015                  2.2                    !
 ! D17   D(7,5,8,10)            -0.4029                  4.5                    !
 ! D18   D(7,5,8,11)            -0.2015                  2.2                    !
 ! D22   D(9,8,11,12)            0.1378                  1.5                    !
 ! D23   D(9,8,11,13)            0.1325                  1.5                    !
 ! D24   D(9,8,11,14)            0.1272                  1.4                    !
 ! D25   D(10,8,11,12)          -0.1272                  1.4                    !
 ! D26   D(10,8,11,13)          -0.1325                  1.5                    !
 ! D27   D(10,8,11,14)          -0.1378                  1.5                    !
 --------------------------------------------------------------------------------
                           ----------------------------
                           ! Normal Mode    27        !
 --------------------------                            --------------------------
 ! Name  Definition              Value          Relative Weight (%)             !
 --------------------------------------------------------------------------------
 ! R1    R(1,2)                 -0.4207                 13.2                    !
 ! R2    R(1,3)                 -0.4204                 13.2                    !
 ! R3    R(1,4)                 -0.4204                 13.2                    !
 ! R4    R(1,5)                  0.0415                  1.3                    !
 ! R5    R(5,6)                  0.0564                  1.8                    !
 ! R6    R(5,7)                  0.0564                  1.8                    !
 ! R8    R(8,9)                 -0.0564                  1.8                    !
 ! R9    R(8,10)                -0.0564                  1.8                    !
 ! R10   R(8,11)                -0.0415                  1.3                    !
 ! R11   R(11,12)                0.4204                 13.2                    !
 ! R12   R(11,13)                0.4207                 13.2                    !
 ! R13   R(11,14)                0.4204                 13.2                    !
 ! A1    A(2,1,3)                0.0236                  0.7                    !
 ! A2    A(2,1,4)                0.0236                  0.7                    !
 ! A3    A(2,1,5)               -0.0205                  0.6                    !
 ! A4    A(3,1,4)                0.0244                  0.8                    !
 ! A5    A(3,1,5)               -0.023                   0.7                    !
 ! A6    A(4,1,5)               -0.023                   0.7                    !
 ! A19   A(8,11,12)              0.023                   0.7                    !
 ! A20   A(8,11,13)              0.0205                  0.6                    !
 ! A21   A(8,11,14)              0.023                   0.7                    !
 ! A22   A(12,11,13)            -0.0236                  0.7                    !
 ! A23   A(12,11,14)            -0.0244                  0.8                    !
 ! A24   A(13,11,14)            -0.0236                  0.7                    !
 --------------------------------------------------------------------------------
                           ----------------------------
                           ! Normal Mode    28        !
 --------------------------                            --------------------------
 ! Name  Definition              Value          Relative Weight (%)             !
 --------------------------------------------------------------------------------
 ! R1    R(1,2)                 -0.4113                 12.2                    !
 ! R2    R(1,3)                 -0.4188                 12.5                    !
 ! R3    R(1,4)                 -0.4188                 12.5                    !
 ! R4    R(1,5)                  0.0386                  1.1                    !
 ! R5    R(5,6)                  0.093                   2.8                    !
 ! R6    R(5,7)                  0.093                   2.8                    !
 ! R8    R(8,9)                  0.093                   2.8                    !
 ! R9    R(8,10)                 0.093                   2.8                    !
 ! R10   R(8,11)                 0.0386                  1.1                    !
 ! R11   R(11,12)               -0.4188                 12.5                    !
 ! R12   R(11,13)               -0.4113                 12.2                    !
 ! R13   R(11,14)               -0.4188                 12.5                    !
 ! A1    A(2,1,3)                0.0235                  0.7                    !
 ! A2    A(2,1,4)                0.0235                  0.7                    !
 ! A4    A(3,1,4)                0.0244                  0.7                    !
 ! A5    A(3,1,5)               -0.0236                  0.7                    !
 ! A6    A(4,1,5)               -0.0236                  0.7                    !
 ! A19   A(8,11,12)             -0.0236                  0.7                    !
 ! A21   A(8,11,14)             -0.0236                  0.7                    !
 ! A22   A(12,11,13)             0.0235                  0.7                    !
 ! A23   A(12,11,14)             0.0244                  0.7                    !
 ! A24   A(13,11,14)             0.0235                  0.7                    !
 --------------------------------------------------------------------------------
                           ----------------------------
                           ! Normal Mode    29        !
 --------------------------                            --------------------------
 ! Name  Definition              Value          Relative Weight (%)             !
 --------------------------------------------------------------------------------
 ! R1    R(1,2)                 -0.0482                  1.5                    !
 ! R2    R(1,3)                 -0.0445                  1.4                    !
 ! R3    R(1,4)                 -0.0445                  1.4                    !
 ! R4    R(1,5)                  0.0406                  1.2                    !
 ! R5    R(5,6)                 -0.5278                 16.1                    !
 ! R6    R(5,7)                 -0.5278                 16.1                    !
 ! R8    R(8,9)                  0.5278                 16.1                    !
 ! R9    R(8,10)                 0.5278                 16.1                    !
 ! R10   R(8,11)                -0.0406                  1.2                    !
 ! R11   R(11,12)                0.0445                  1.4                    !
 ! R12   R(11,13)                0.0482                  1.5                    !
 ! R13   R(11,14)                0.0445                  1.4                    !
 ! A10   A(6,5,7)                0.0491                  1.5                    !
 ! A16   A(9,8,10)              -0.0491                  1.5                    !
 ! D1    D(2,1,5,6)              0.0269                  0.8                    !
 ! D2    D(2,1,5,7)             -0.0269                  0.8                    !
 ! D4    D(3,1,5,6)              0.0317                  1.0                    !
 ! D5    D(3,1,5,7)             -0.022                   0.7                    !
 ! D7    D(4,1,5,6)              0.022                   0.7                    !
 ! D8    D(4,1,5,7)             -0.0317                  1.0                    !
 ! D10   D(1,5,8,9)              0.0234                  0.7                    !
 ! D11   D(1,5,8,10)            -0.0234                  0.7                    !
 ! D14   D(6,5,8,10)            -0.0468                  1.4                    !
 ! D15   D(6,5,8,11)            -0.0234                  0.7                    !
 ! D16   D(7,5,8,9)              0.0468                  1.4                    !
 ! D18   D(7,5,8,11)             0.0234                  0.7                    !
 ! D22   D(9,8,11,12)           -0.0317                  1.0                    !
 ! D23   D(9,8,11,13)           -0.0269                  0.8                    !
 ! D24   D(9,8,11,14)           -0.022                   0.7                    !
 ! D25   D(10,8,11,12)           0.022                   0.7                    !
 ! D26   D(10,8,11,13)           0.0269                  0.8                    !
 ! D27   D(10,8,11,14)           0.0317                  1.0                    !
 --------------------------------------------------------------------------------
                           ----------------------------
                           ! Normal Mode    30        !
 --------------------------                            --------------------------
 ! Name  Definition              Value          Relative Weight (%)             !
 --------------------------------------------------------------------------------
 ! R1    R(1,2)                 -0.1019                  2.8                    !
 ! R2    R(1,3)                 -0.063                   1.7                    !
 ! R3    R(1,4)                 -0.063                   1.7                    !
 ! R4    R(1,5)                  0.044                   1.2                    !
 ! R5    R(5,6)                 -0.5238                 14.3                    !
 ! R6    R(5,7)                 -0.5238                 14.3                    !
 ! R7    R(5,8)                  0.0639                  1.7                    !
 ! R8    R(8,9)                 -0.5238                 14.3                    !
 ! R9    R(8,10)                -0.5238                 14.3                    !
 ! R10   R(8,11)                 0.044                   1.2                    !
 ! R11   R(11,12)               -0.063                   1.7                    !
 ! R12   R(11,13)               -0.1019                  2.8                    !
 ! R13   R(11,14)               -0.063                   1.7                    !
 ! A9    A(1,5,8)               -0.047                   1.3                    !
 ! A10   A(6,5,7)                0.0509                  1.4                    !
 ! A15   A(5,8,11)              -0.047                   1.3                    !
 ! A16   A(9,8,10)               0.0509                  1.4                    !
 ! D1    D(2,1,5,6)              0.0283                  0.8                    !
 ! D2    D(2,1,5,7)             -0.0283                  0.8                    !
 ! D4    D(3,1,5,6)              0.0322                  0.9                    !
 ! D5    D(3,1,5,7)             -0.0244                  0.7                    !
 ! D7    D(4,1,5,6)              0.0244                  0.7                    !
 ! D8    D(4,1,5,7)             -0.0322                  0.9                    !
 ! D10   D(1,5,8,9)             -0.0336                  0.9                    !
 ! D11   D(1,5,8,10)             0.0336                  0.9                    !
 ! D13   D(6,5,8,9)             -0.0673                  1.8                    !
 ! D15   D(6,5,8,11)            -0.0336                  0.9                    !
 ! D17   D(7,5,8,10)             0.0673                  1.8                    !
 ! D18   D(7,5,8,11)             0.0336                  0.9                    !
 ! D22   D(9,8,11,12)            0.0322                  0.9                    !
 ! D23   D(9,8,11,13)            0.0283                  0.8                    !
 ! D24   D(9,8,11,14)            0.0244                  0.7                    !
 ! D25   D(10,8,11,12)          -0.0244                  0.7                    !
 ! D26   D(10,8,11,13)          -0.0283                  0.8                    !
 ! D27   D(10,8,11,14)          -0.0322                  0.9                    !
 --------------------------------------------------------------------------------
                           ----------------------------
                           ! Normal Mode    31        !
 --------------------------                            --------------------------
 ! Name  Definition              Value          Relative Weight (%)             !
 --------------------------------------------------------------------------------
 ! R2    R(1,3)                 -0.4272                 10.6                    !
 ! R3    R(1,4)                  0.4272                 10.6                    !
 ! R5    R(5,6)                 -0.3508                  8.7                    !
 ! R6    R(5,7)                  0.3508                  8.7                    !
 ! R8    R(8,9)                  0.3508                  8.7                    !
 ! R9    R(8,10)                -0.3508                  8.7                    !
 ! R11   R(11,12)                0.4272                 10.6                    !
 ! R13   R(11,14)               -0.4272                 10.6                    !
 ! A1    A(2,1,3)                0.033                   0.8                    !
 ! A2    A(2,1,4)               -0.033                   0.8                    !
 ! A11   A(6,5,8)                0.0344                  0.9                    !
 ! A12   A(7,5,8)               -0.0344                  0.9                    !
 ! A13   A(5,8,9)               -0.0344                  0.9                    !
 ! A14   A(5,8,10)               0.0344                  0.9                    !
 ! A22   A(12,11,13)            -0.033                   0.8                    !
 ! A24   A(13,11,14)             0.033                   0.8                    !
 ! D3    D(2,1,5,8)              0.0643                  1.6                    !
 ! D4    D(3,1,5,6)             -0.03                    0.7                    !
 ! D5    D(3,1,5,7)             -0.03                    0.7                    !
 ! D7    D(4,1,5,6)             -0.03                    0.7                    !
 ! D8    D(4,1,5,7)             -0.03                    0.7                    !
 ! D20   D(5,8,11,13)           -0.0643                  1.6                    !
 ! D22   D(9,8,11,12)            0.03                    0.7                    !
 ! D24   D(9,8,11,14)            0.03                    0.7                    !
 ! D25   D(10,8,11,12)           0.03                    0.7                    !
 ! D27   D(10,8,11,14)           0.03                    0.7                    !
 --------------------------------------------------------------------------------
                           ----------------------------
                           ! Normal Mode    32        !
 --------------------------                            --------------------------
 ! Name  Definition              Value          Relative Weight (%)             !
 --------------------------------------------------------------------------------
 ! R2    R(1,3)                 -0.0975                  2.9                    !
 ! R3    R(1,4)                  0.0975                  2.9                    !
 ! R5    R(5,6)                 -0.5431                 16.3                    !
 ! R6    R(5,7)                  0.5431                 16.3                    !
 ! R8    R(8,9)                 -0.5431                 16.3                    !
 ! R9    R(8,10)                 0.5431                 16.3                    !
 ! R11   R(11,12)               -0.0975                  2.9                    !
 ! R13   R(11,14)                0.0975                  2.9                    !
 ! A7    A(1,5,6)                0.029                   0.9                    !
 ! A8    A(1,5,7)               -0.029                   0.9                    !
 ! A17   A(9,8,11)               0.029                   0.9                    !
 ! A18   A(10,8,11)             -0.029                   0.9                    !
 ! D1    D(2,1,5,6)             -0.0234                  0.7                    !
 ! D2    D(2,1,5,7)             -0.0234                  0.7                    !
 ! D4    D(3,1,5,6)             -0.0226                  0.7                    !
 ! D5    D(3,1,5,7)             -0.0226                  0.7                    !
 ! D7    D(4,1,5,6)             -0.0226                  0.7                    !
 ! D8    D(4,1,5,7)             -0.0226                  0.7                    !
 ! D12   D(1,5,8,11)            -0.0404                  1.2                    !
 ! D13   D(6,5,8,9)              0.0417                  1.3                    !
 ! D14   D(6,5,8,10)             0.0417                  1.3                    !
 ! D16   D(7,5,8,9)              0.0417                  1.3                    !
 ! D17   D(7,5,8,10)             0.0417                  1.3                    !
 ! D22   D(9,8,11,12)           -0.0226                  0.7                    !
 ! D23   D(9,8,11,13)           -0.0234                  0.7                    !
 ! D24   D(9,8,11,14)           -0.0226                  0.7                    !
 ! D25   D(10,8,11,12)          -0.0226                  0.7                    !
 ! D26   D(10,8,11,13)          -0.0234                  0.7                    !
 ! D27   D(10,8,11,14)          -0.0226                  0.7                    !
 --------------------------------------------------------------------------------
                           ----------------------------
                           ! Normal Mode    33        !
 --------------------------                            --------------------------
 ! Name  Definition              Value          Relative Weight (%)             !
 --------------------------------------------------------------------------------
 ! R1    R(1,2)                 -0.639                  17.2                    !
 ! R2    R(1,3)                  0.319                   8.6                    !
 ! R3    R(1,4)                  0.319                   8.6                    !
 ! R11   R(11,12)                0.319                   8.6                    !
 ! R12   R(11,13)               -0.639                  17.2                    !
 ! R13   R(11,14)                0.319                   8.6                    !
 ! A1    A(2,1,3)                0.0247                  0.7                    !
 ! A2    A(2,1,4)                0.0247                  0.7                    !
 ! A3    A(2,1,5)                0.0392                  1.1                    !
 ! A4    A(3,1,4)               -0.0491                  1.3                    !
 ! A9    A(1,5,8)                0.027                   0.7                    !
 ! A15   A(5,8,11)               0.027                   0.7                    !
 ! A20   A(8,11,13)              0.0392                  1.1                    !
 ! A22   A(12,11,13)             0.0247                  0.7                    !
 ! A23   A(12,11,14)            -0.0491                  1.3                    !
 ! A24   A(13,11,14)             0.0247                  0.7                    !
 ! D4    D(3,1,5,6)             -0.0551                  1.5                    !
 ! D5    D(3,1,5,7)             -0.0346                  0.9                    !
 ! D6    D(3,1,5,8)             -0.0449                  1.2                    !
 ! D7    D(4,1,5,6)              0.0346                  0.9                    !
 ! D8    D(4,1,5,7)              0.0551                  1.5                    !
 ! D9    D(4,1,5,8)              0.0449                  1.2                    !
 ! D19   D(5,8,11,12)           -0.0449                  1.2                    !
 ! D21   D(5,8,11,14)            0.0449                  1.2                    !
 ! D22   D(9,8,11,12)           -0.0551                  1.5                    !
 ! D24   D(9,8,11,14)            0.0346                  0.9                    !
 ! D25   D(10,8,11,12)          -0.0346                  0.9                    !
 ! D27   D(10,8,11,14)           0.0551                  1.5                    !
 --------------------------------------------------------------------------------
                           ----------------------------
                           ! Normal Mode    34        !
 --------------------------                            --------------------------
 ! Name  Definition              Value          Relative Weight (%)             !
 --------------------------------------------------------------------------------
 ! R1    R(1,2)                 -0.639                  17.7                    !
 ! R2    R(1,3)                  0.3198                  8.8                    !
 ! R3    R(1,4)                  0.3198                  8.8                    !
 ! R11   R(11,12)               -0.3198                  8.8                    !
 ! R12   R(11,13)                0.639                  17.7                    !
 ! R13   R(11,14)               -0.3198                  8.8                    !
 ! A1    A(2,1,3)                0.0247                  0.7                    !
 ! A2    A(2,1,4)                0.0247                  0.7                    !
 ! A3    A(2,1,5)                0.0386                  1.1                    !
 ! A4    A(3,1,4)               -0.0494                  1.4                    !
 ! A9    A(1,5,8)                0.0245                  0.7                    !
 ! A15   A(5,8,11)              -0.0245                  0.7                    !
 ! A20   A(8,11,13)             -0.0386                  1.1                    !
 ! A22   A(12,11,13)            -0.0247                  0.7                    !
 ! A23   A(12,11,14)             0.0494                  1.4                    !
 ! A24   A(13,11,14)            -0.0247                  0.7                    !
 ! D4    D(3,1,5,6)             -0.0537                  1.5                    !
 ! D5    D(3,1,5,7)             -0.0359                  1.0                    !
 ! D6    D(3,1,5,8)             -0.0448                  1.2                    !
 ! D7    D(4,1,5,6)              0.0359                  1.0                    !
 ! D8    D(4,1,5,7)              0.0537                  1.5                    !
 ! D9    D(4,1,5,8)              0.0448                  1.2                    !
 ! D19   D(5,8,11,12)            0.0448                  1.2                    !
 ! D21   D(5,8,11,14)           -0.0448                  1.2                    !
 ! D22   D(9,8,11,12)            0.0537                  1.5                    !
 ! D24   D(9,8,11,14)           -0.0359                  1.0                    !
 ! D25   D(10,8,11,12)           0.0359                  1.0                    !
 ! D27   D(10,8,11,14)          -0.0537                  1.5                    !
 --------------------------------------------------------------------------------
                           ----------------------------
                           ! Normal Mode    35        !
 --------------------------                            --------------------------
 ! Name  Definition              Value          Relative Weight (%)             !
 --------------------------------------------------------------------------------
 ! R2    R(1,3)                 -0.5454                 14.3                    !
 ! R3    R(1,4)                  0.5454                 14.3                    !
 ! R5    R(5,6)                  0.0976                  2.6                    !
 ! R6    R(5,7)                 -0.0976                  2.6                    !
 ! R8    R(8,9)                  0.0976                  2.6                    !
 ! R9    R(8,10)                -0.0976                  2.6                    !
 ! R11   R(11,12)               -0.5454                 14.3                    !
 ! R13   R(11,14)                0.5454                 14.3                    !
 ! A1    A(2,1,3)                0.0416                  1.1                    !
 ! A2    A(2,1,4)               -0.0416                  1.1                    !
 ! A5    A(3,1,5)                0.0371                  1.0                    !
 ! A6    A(4,1,5)               -0.0371                  1.0                    !
 ! A7    A(1,5,6)               -0.0288                  0.8                    !
 ! A8    A(1,5,7)                0.0288                  0.8                    !
 ! A17   A(9,8,11)              -0.0288                  0.8                    !
 ! A18   A(10,8,11)              0.0288                  0.8                    !
 ! A19   A(8,11,12)              0.0371                  1.0                    !
 ! A21   A(8,11,14)             -0.0371                  1.0                    !
 ! A22   A(12,11,13)             0.0416                  1.1                    !
 ! A24   A(13,11,14)            -0.0416                  1.1                    !
 ! D1    D(2,1,5,6)              0.0617                  1.6                    !
 ! D2    D(2,1,5,7)              0.0617                  1.6                    !
 ! D3    D(2,1,5,8)              0.0432                  1.1                    !
 ! D6    D(3,1,5,8)             -0.0353                  0.9                    !
 ! D9    D(4,1,5,8)             -0.0353                  0.9                    !
 ! D10   D(1,5,8,9)              0.0242                  0.6                    !
 ! D11   D(1,5,8,10)             0.0242                  0.6                    !
 ! D12   D(1,5,8,11)             0.0598                  1.6                    !
 ! D15   D(6,5,8,11)             0.0242                  0.6                    !
 ! D18   D(7,5,8,11)             0.0242                  0.6                    !
 ! D19   D(5,8,11,12)           -0.0353                  0.9                    !
 ! D20   D(5,8,11,13)            0.0432                  1.1                    !
 ! D21   D(5,8,11,14)           -0.0353                  0.9                    !
 ! D23   D(9,8,11,13)            0.0617                  1.6                    !
 ! D26   D(10,8,11,13)           0.0617                  1.6                    !
 --------------------------------------------------------------------------------
                           ----------------------------
                           ! Normal Mode    36        !
 --------------------------                            --------------------------
 ! Name  Definition              Value          Relative Weight (%)             !
 --------------------------------------------------------------------------------
 ! R2    R(1,3)                  0.3524                  7.6                    !
 ! R3    R(1,4)                 -0.3524                  7.6                    !
 ! R5    R(5,6)                 -0.4282                  9.2                    !
 ! R6    R(5,7)                  0.4282                  9.2                    !
 ! R8    R(8,9)                  0.4282                  9.2                    !
 ! R9    R(8,10)                -0.4282                  9.2                    !
 ! R11   R(11,12)               -0.3524                  7.6                    !
 ! R13   R(11,14)                0.3524                  7.6                    !
 ! A5    A(3,1,5)               -0.0396                  0.9                    !
 ! A6    A(4,1,5)                0.0396                  0.9                    !
 ! A7    A(1,5,6)                0.0399                  0.9                    !
 ! A8    A(1,5,7)               -0.0399                  0.9                    !
 ! A11   A(6,5,8)                0.0423                  0.9                    !
 ! A12   A(7,5,8)               -0.0423                  0.9                    !
 ! A13   A(5,8,9)               -0.0423                  0.9                    !
 ! A14   A(5,8,10)               0.0423                  0.9                    !
 ! A17   A(9,8,11)              -0.0399                  0.9                    !
 ! A18   A(10,8,11)              0.0399                  0.9                    !
 ! A19   A(8,11,12)              0.0396                  0.9                    !
 ! A21   A(8,11,14)             -0.0396                  0.9                    !
 ! D1    D(2,1,5,6)             -0.066                   1.4                    !
 ! D2    D(2,1,5,7)             -0.066                   1.4                    !
 ! D6    D(3,1,5,8)              0.0722                  1.6                    !
 ! D9    D(4,1,5,8)              0.0722                  1.6                    !
 ! D10   D(1,5,8,9)             -0.0749                  1.6                    !
 ! D11   D(1,5,8,10)            -0.0749                  1.6                    !
 ! D15   D(6,5,8,11)             0.0749                  1.6                    !
 ! D18   D(7,5,8,11)             0.0749                  1.6                    !
 ! D19   D(5,8,11,12)           -0.0722                  1.6                    !
 ! D21   D(5,8,11,14)           -0.0722                  1.6                    !
 ! D23   D(9,8,11,13)            0.066                   1.4                    !
 ! D26   D(10,8,11,13)           0.066                   1.4                    !
 --------------------------------------------------------------------------------
 Max01P=     41 Av01P=   25.92 Stan. Dev.=    8.55
 Max05P=     18 Av05P=    4.61 Stan. Dev.=    4.22
 Max10P=      6 Av10P=    1.06 Stan. Dev.=    1.88
 MaxNDP=    102 AvNDP=   63.64 Stan. Dev.=   20.70
 
                                                                Title
                                                             IR Spectrum
 
 3333333333                                                          111111111    1    11 1 1                                        
 1111111100                                                          544443333    2    11 0 09999 88 7                3  222    1    
 8877772076                                                          695208888    7    41 5 26432 43 9                5  753    1    
 4099661809                                                          187006511    3    78 6 83327 21 3                1  448    6    
 
  XX X  X X                                                           X X  X X    X    X     XX X    X                    XX    X    
  XX X  X X                                                           X X  X X    X          XX X    X                               
  XX X  X X                                                           X X  X X    X          XX X    X                               
  XX X  X X                                                           X X  X X    X           X X    X                               
  XX X  X X                                                             X  X      X           X X    X                               
  XX X                                                                  X  X      X             X    X                               
  XX X                                                                  X         X             X    X                               
  XX X                                                                  X         X                                                  
  XX X                                                                  X         X                                                  
   X X                                                                  X         X                                                  
   X X                                                                  X         X                                                  
   X X                                                                  X         X                                                  
   X X                                                                  X         X                                                  
                                                                        X         X                                                  
                                                                        X         X                                                  
                                                                        X         X                                                  
                                                                        X         X                                                  
                                                                        X                                                            
                                                                        X                                                            
                                                                        X                                                            
 
 -------------------------------------------------------------------
 Center     Atomic                   Forces (Hartrees/Bohr)
 Number     Number              X              Y              Z
 -------------------------------------------------------------------
      1        6           0.000019029   -0.000042339   -0.000000000
      2        1          -0.000018781    0.000008383   -0.000000000
      3        1           0.000001206   -0.000000708    0.000011949
      4        1           0.000001206   -0.000000708   -0.000011949
      5        6           0.000028966   -0.000030274    0.000000000
      6        1          -0.000000541    0.000012557    0.000019761
      7        1          -0.000000541    0.000012557   -0.000019761
      8        6          -0.000028966    0.000030274    0.000000000
      9        1           0.000000541   -0.000012557    0.000019761
     10        1           0.000000541   -0.000012557   -0.000019761
     11        6          -0.000019029    0.000042339   -0.000000000
     12        1          -0.000001206    0.000000708    0.000011949
     13        1           0.000018781   -0.000008383   -0.000000000
     14        1          -0.000001206    0.000000708   -0.000011949
 -------------------------------------------------------------------
 Cartesian Forces:  Max     0.000042339 RMS     0.000016504
 FormGI is forming the generalized inverse of G from B-inverse, IUseBI=4.
 Leave Link  716 at Fri Aug 14 10:43:58 2026, MaxMem=   134217728 cpu:               0.0 elap:               0.0
 (Enter /home/emanuele/chem_software/gaussian//gdv/l103.exe)

 GradGradGradGradGradGradGradGradGradGradGradGradGradGradGradGradGradGrad
 Berny optimization.
 Internal  Forces:  Max     0.000042352 RMS     0.000011951
 Search for a local minimum.
 Step number   1 out of a maximum of    2
 All quantities printed in internal units (Hartrees-Bohrs-Radians)
 Second derivative matrix not updated -- analytic derivatives used.
 ITU=  0
     Eigenvalues ---    0.00249   0.00278   0.00290   0.03257   0.03312
     Eigenvalues ---    0.03465   0.03500   0.03909   0.03927   0.03967
     Eigenvalues ---    0.03968   0.06430   0.06479   0.09463   0.09649
     Eigenvalues ---    0.12148   0.12233   0.12768   0.12838   0.12845
     Eigenvalues ---    0.12847   0.14757   0.15120   0.28683   0.29130
     Eigenvalues ---    0.29223   0.34558   0.34585   0.34614   0.34622
     Eigenvalues ---    0.34636   0.34637   0.34671   0.34675   0.34717
     Eigenvalues ---    0.34832
 Angle between quadratic step and forces=  40.12 degrees.
 Linear search not attempted -- first point.
 Iteration  1 RMS(Cart)=  0.00011876 RMS(Int)=  0.00000001
 Iteration  2 RMS(Cart)=  0.00000001 RMS(Int)=  0.00000001
 ITry= 1 IFail=0 DXMaxC= 3.10D-04 DCOld= 1.00D+10 DXMaxT= 3.00D-01 DXLimC= 3.00D+00 Rises=F
 Variable       Old X    -DE/DX   Delta X   Delta X   Delta X     New X
                                 (Linear)    (Quad)   (Total)
    R1        2.07206   0.00002   0.00000   0.00006   0.00006   2.07212
    R2        2.07103  -0.00001   0.00000  -0.00003  -0.00003   2.07100
    R3        2.07103  -0.00001   0.00000  -0.00003  -0.00003   2.07100
    R4        2.89680  -0.00004   0.00000  -0.00012  -0.00012   2.89668
    R5        2.07666  -0.00002   0.00000  -0.00006  -0.00006   2.07660
    R6        2.07666  -0.00002   0.00000  -0.00006  -0.00006   2.07660
    R7        2.86387  -0.00004   0.00000  -0.00015  -0.00015   2.86372
    R8        2.07666  -0.00002   0.00000  -0.00006  -0.00006   2.07660
    R9        2.07666  -0.00002   0.00000  -0.00006  -0.00006   2.07660
   R10        2.89680  -0.00004   0.00000  -0.00012  -0.00012   2.89668
   R11        2.07103  -0.00001   0.00000  -0.00003  -0.00003   2.07100
   R12        2.07206   0.00002   0.00000   0.00006   0.00006   2.07212
   R13        2.07103  -0.00001   0.00000  -0.00003  -0.00003   2.07100
    A1        1.87026   0.00000   0.00000   0.00003   0.00003   1.87029
    A2        1.87026   0.00000   0.00000   0.00003   0.00003   1.87029
    A3        1.94844   0.00000   0.00000   0.00004   0.00004   1.94848
    A4        1.87472  -0.00001   0.00000  -0.00012  -0.00012   1.87460
    A5        1.94790   0.00000   0.00000   0.00001   0.00001   1.94791
    A6        1.94790   0.00000   0.00000   0.00001   0.00001   1.94791
    A7        1.95155   0.00000   0.00000  -0.00004  -0.00004   1.95151
    A8        1.95155   0.00000   0.00000  -0.00004  -0.00004   1.95151
    A9        1.88975  -0.00002   0.00000  -0.00012  -0.00012   1.88962
   A10        1.84584  -0.00001   0.00000  -0.00006  -0.00006   1.84577
   A11        1.91240   0.00001   0.00000   0.00014   0.00014   1.91254
   A12        1.91240   0.00001   0.00000   0.00014   0.00014   1.91254
   A13        1.91240   0.00001   0.00000   0.00014   0.00014   1.91254
   A14        1.91240   0.00001   0.00000   0.00014   0.00014   1.91254
   A15        1.88975  -0.00002   0.00000  -0.00012  -0.00012   1.88962
   A16        1.84584  -0.00001   0.00000  -0.00006  -0.00006   1.84577
   A17        1.95155   0.00000   0.00000  -0.00004  -0.00004   1.95151
   A18        1.95155   0.00000   0.00000  -0.00004  -0.00004   1.95151
   A19        1.94790   0.00000   0.00000   0.00001   0.00001   1.94791
   A20        1.94844   0.00000   0.00000   0.00004   0.00004   1.94848
   A21        1.94790   0.00000   0.00000   0.00001   0.00001   1.94791
   A22        1.87026   0.00000   0.00000   0.00003   0.00003   1.87029
   A23        1.87472  -0.00001   0.00000  -0.00012  -0.00012   1.87460
   A24        1.87026   0.00000   0.00000   0.00003   0.00003   1.87029
    D1        1.03307  -0.00000   0.00000  -0.00007  -0.00007   1.03300
    D2       -1.03307   0.00000   0.00000   0.00007   0.00007  -1.03300
    D3        3.14159  -0.00000   0.00000  -0.00000   0.00000   3.14159
    D4       -1.05955  -0.00001   0.00000  -0.00014  -0.00014  -1.05969
    D5       -3.12569   0.00000   0.00000  -0.00000  -0.00000  -3.12569
    D6        1.04897  -0.00000   0.00000  -0.00007  -0.00007   1.04890
    D7        3.12569  -0.00000   0.00000   0.00000   0.00000   3.12569
    D8        1.05955   0.00001   0.00000   0.00014   0.00014   1.05969
    D9       -1.04897   0.00000   0.00000   0.00007   0.00007  -1.04890
   D10       -1.00893  -0.00000   0.00000  -0.00004  -0.00004  -1.00897
   D11        1.00893   0.00000   0.00000   0.00004   0.00004   1.00897
   D12        3.14159   0.00000   0.00000   0.00000   0.00000   3.14159
   D13        1.12373  -0.00001   0.00000  -0.00008  -0.00008   1.12364
   D14        3.14159   0.00000   0.00000   0.00000   0.00000   3.14159
   D15       -1.00893  -0.00000   0.00000  -0.00004  -0.00004  -1.00897
   D16       -3.14159  -0.00000   0.00000  -0.00000  -0.00000   3.14159
   D17       -1.12373   0.00001   0.00000   0.00008   0.00008  -1.12364
   D18        1.00893   0.00000   0.00000   0.00004   0.00004   1.00897
   D19        1.04897  -0.00000   0.00000  -0.00007  -0.00007   1.04890
   D20        3.14159  -0.00000   0.00000  -0.00000   0.00000   3.14159
   D21       -1.04897   0.00000   0.00000   0.00007   0.00007  -1.04890
   D22       -1.05955  -0.00001   0.00000  -0.00014  -0.00014  -1.05969
   D23        1.03307  -0.00000   0.00000  -0.00007  -0.00007   1.03300
   D24        3.12569  -0.00000   0.00000   0.00000   0.00000   3.12569
   D25       -3.12569   0.00000   0.00000  -0.00000  -0.00000  -3.12569
   D26       -1.03307   0.00000   0.00000   0.00007   0.00007  -1.03300
   D27        1.05955   0.00001   0.00000   0.00014   0.00014   1.05969
         Item               Value     Threshold  Converged?
 Maximum Force            0.000042     0.000450     YES
 RMS     Force            0.000012     0.000300     YES
 Maximum Displacement     0.000310     0.001800     YES
 RMS     Displacement     0.000119     0.001200     YES
 Predicted change in Energy=-2.213986D-08
 Optimization completed.
    -- Stationary point found.
                           ----------------------------
                           !   Optimized Parameters   !
                           ! (Angstroms and Degrees)  !
 --------------------------                            --------------------------
 ! Name  Definition              Value          Derivative Info.                !
 --------------------------------------------------------------------------------
 ! R1    R(1,2)                  1.0965         -DE/DX =    0.0                 !
 ! R2    R(1,3)                  1.0959         -DE/DX =    0.0                 !
 ! R3    R(1,4)                  1.0959         -DE/DX =    0.0                 !
 ! R4    R(1,5)                  1.5329         -DE/DX =    0.0                 !
 ! R5    R(5,6)                  1.0989         -DE/DX =    0.0                 !
 ! R6    R(5,7)                  1.0989         -DE/DX =    0.0                 !
 ! R7    R(5,8)                  1.5155         -DE/DX =    0.0                 !
 ! R8    R(8,9)                  1.0989         -DE/DX =    0.0                 !
 ! R9    R(8,10)                 1.0989         -DE/DX =    0.0                 !
 ! R10   R(8,11)                 1.5329         -DE/DX =    0.0                 !
 ! R11   R(11,12)                1.0959         -DE/DX =    0.0                 !
 ! R12   R(11,13)                1.0965         -DE/DX =    0.0                 !
 ! R13   R(11,14)                1.0959         -DE/DX =    0.0                 !
 ! A1    A(2,1,3)              107.1578         -DE/DX =    0.0                 !
 ! A2    A(2,1,4)              107.1578         -DE/DX =    0.0                 !
 ! A3    A(2,1,5)              111.6373         -DE/DX =    0.0                 !
 ! A4    A(3,1,4)              107.4135         -DE/DX =    0.0                 !
 ! A5    A(3,1,5)              111.6066         -DE/DX =    0.0                 !
 ! A6    A(4,1,5)              111.6066         -DE/DX =    0.0                 !
 ! A7    A(1,5,6)              111.8155         -DE/DX =    0.0                 !
 ! A8    A(1,5,7)              111.8155         -DE/DX =    0.0                 !
 ! A9    A(1,5,8)              108.2745         -DE/DX =    0.0                 !
 ! A10   A(6,5,7)              105.7586         -DE/DX =    0.0                 !
 ! A11   A(6,5,8)              109.5723         -DE/DX =    0.0                 !
 ! A12   A(7,5,8)              109.5723         -DE/DX =    0.0                 !
 ! A13   A(5,8,9)              109.5723         -DE/DX =    0.0                 !
 ! A14   A(5,8,10)             109.5723         -DE/DX =    0.0                 !
 ! A15   A(5,8,11)             108.2745         -DE/DX =    0.0                 !
 ! A16   A(9,8,10)             105.7586         -DE/DX =    0.0                 !
 ! A17   A(9,8,11)             111.8155         -DE/DX =    0.0                 !
 ! A18   A(10,8,11)            111.8155         -DE/DX =    0.0                 !
 ! A19   A(8,11,12)            111.6066         -DE/DX =    0.0                 !
 ! A20   A(8,11,13)            111.6373         -DE/DX =    0.0                 !
 ! A21   A(8,11,14)            111.6066         -DE/DX =    0.0                 !
 ! A22   A(12,11,13)           107.1578         -DE/DX =    0.0                 !
 ! A23   A(12,11,14)           107.4135         -DE/DX =    0.0                 !
 ! A24   A(13,11,14)           107.1578         -DE/DX =    0.0                 !
 ! D1    D(2,1,5,6)             59.1904         -DE/DX =    0.0                 !
 ! D2    D(2,1,5,7)            -59.1904         -DE/DX =    0.0                 !
 ! D3    D(2,1,5,8)            180.0            -DE/DX =    0.0                 !
 ! D4    D(3,1,5,6)            -60.7079         -DE/DX =    0.0                 !
 ! D5    D(3,1,5,7)           -179.0886         -DE/DX =    0.0                 !
 ! D6    D(3,1,5,8)             60.1017         -DE/DX =    0.0                 !
 ! D7    D(4,1,5,6)            179.0886         -DE/DX =    0.0                 !
 ! D8    D(4,1,5,7)             60.7079         -DE/DX =    0.0                 !
 ! D9    D(4,1,5,8)            -60.1017         -DE/DX =    0.0                 !
 ! D10   D(1,5,8,9)            -57.8076         -DE/DX =    0.0                 !
 ! D11   D(1,5,8,10)            57.8076         -DE/DX =    0.0                 !
 ! D12   D(1,5,8,11)           180.0            -DE/DX =    0.0                 !
 ! D13   D(6,5,8,9)             64.3848         -DE/DX =    0.0                 !
 ! D14   D(6,5,8,10)           180.0            -DE/DX =    0.0                 !
 ! D15   D(6,5,8,11)           -57.8076         -DE/DX =    0.0                 !
 ! D16   D(7,5,8,9)           -180.0            -DE/DX =    0.0                 !
 ! D17   D(7,5,8,10)           -64.3848         -DE/DX =    0.0                 !
 ! D18   D(7,5,8,11)            57.8076         -DE/DX =    0.0                 !
 ! D19   D(5,8,11,12)           60.1017         -DE/DX =    0.0                 !
 ! D20   D(5,8,11,13)          180.0            -DE/DX =    0.0                 !
 ! D21   D(5,8,11,14)          -60.1017         -DE/DX =    0.0                 !
 ! D22   D(9,8,11,12)          -60.7079         -DE/DX =    0.0                 !
 ! D23   D(9,8,11,13)           59.1904         -DE/DX =    0.0                 !
 ! D24   D(9,8,11,14)          179.0886         -DE/DX =    0.0                 !
 ! D25   D(10,8,11,12)        -179.0886         -DE/DX =    0.0                 !
 ! D26   D(10,8,11,13)         -59.1904         -DE/DX =    0.0                 !
 ! D27   D(10,8,11,14)          60.7079         -DE/DX =    0.0                 !
 --------------------------------------------------------------------------------
 GradGradGradGradGradGradGradGradGradGradGradGradGradGradGradGradGradGrad

 Leave Link  103 at Fri Aug 14 10:43:58 2026, MaxMem=   134217728 cpu:               0.0 elap:               0.0
 (Enter /home/emanuele/chem_software/gaussian//gdv/l9999.exe)
 Unable to Open any file for archive entry.
 1\1\GINC-EMANUELE-XPS-13-9343\Freq\AMBER\ZDO\C4H10\EMANUELE\14-Aug-202
 6\0\\#P Geom=AllCheck Guess=TCheck SCRF=Check GenChk AMBER/ZDO Freq\\T
 itle\\0,1\C,-0.6796773508,1.7862041211,0.\H,-1.6895860333,2.2132462835
 ,0.\H,-0.1628636314,2.1782818312,-0.8833254738\H,-0.1628636314,2.17828
 18312,0.8833254738\C,-0.7140246201,0.2536689348,0.\H,-1.2455871872,-0.
 1428990347,-0.8762406615\H,-1.2455871872,-0.1428990347,0.8762406615\C,
 0.7140246201,-0.2536689349,0.\H,1.2455871872,0.1428990348,-0.876240661
 2\H,1.2455871872,0.1428990348,0.8762406612\C,0.6796773508,-1.786204121
 2,0.\H,0.1628636314,-2.1782818312,-0.8833254738\H,1.6895860334,-2.2132
 462835,0.\H,0.1628636314,-2.1782818312,0.8833254738\\Version=ES64L-GDV
 RevJ.14\HF=0.0420323\RMSD=0.000e+00\RMSF=1.650e-05\ZeroPoint=0.1307632
 \Thermal=0.1366808\ETot=0.1787131\HTot=0.1796573\GTot=0.1453975\Dipole
 =0.,0.,0.\DipoleDeriv=-0.768379,0.,0.,0.,-0.768379,0.,0.,0.,-0.768379,
 0.209939,0.,0.,0.,0.209939,0.,0.,0.,0.209939,0.210941,0.,0.,0.,0.21094
 1,0.,0.,0.,0.210941,0.210941,0.,0.,0.,0.210941,0.,0.,0.,0.210941,-0.27
 7892,0.,0.,0.,-0.277892,0.,0.,0.,-0.277892,0.207224,0.,0.,0.,0.207224,
 0.,0.,0.,0.207224,0.207224,0.,0.,0.,0.207224,0.,0.,0.,0.207224,-0.2778
 92,0.,0.,0.,-0.277892,0.,0.,0.,-0.277892,0.207224,0.,0.,0.,0.207224,0.
 ,0.,0.,0.207224,0.207224,0.,0.,0.,0.207224,0.,0.,0.,0.207224,-0.768379
 ,0.,0.,0.,-0.768379,0.,0.,0.,-0.768379,0.210941,0.,0.,0.,0.210941,0.,0
 .,0.,0.210941,0.209939,0.,0.,0.,0.209939,0.,0.,0.,0.209939,0.210941,0.
 ,0.,0.,0.210941,0.,0.,0.,0.210941\PG=C02H [SGH(C4H2),X(H8)]\NImag=0\\0
 .59620964,-0.00007793,0.58723560,0.,0.,0.59619153,-0.30100491,0.101609
 54,0.,0.30110154,0.10845108,-0.10384119,0.,-0.10740636,0.09153108,0.,0
 .,-0.05074599,0.,0.,0.03936140,-0.11617743,-0.04814390,0.11224130,-0.0
 0444135,-0.01050331,0.01801860,0.10816314,-0.05158605,-0.09684395,0.08
 753144,0.00286849,0.00678367,-0.01131383,0.05065078,0.08401379,0.11212
 123,0.08157780,-0.24222188,-0.00132531,-0.00313421,0.00552046,-0.11733
 958,-0.08611695,0.23955091,-0.11617743,-0.04814390,-0.11224130,-0.0044
 4135,-0.01050331,-0.01801860,0.01076920,0.00812892,0.00990896,0.108163
 14,-0.05158605,-0.09684395,-0.08753144,0.00286849,0.00678367,0.0113138
 3,0.00812892,0.00622110,0.00751738,0.05065078,0.08401379,-0.11212123,-
 0.08157780,-0.24222188,0.00132531,0.00313421,0.00552046,-0.00990896,-0
 .00751738,-0.00913421,0.11733958,0.08611695,0.23955091,-0.07462334,-0.
 00289900,0.,0.00833663,0.01971523,0.,0.00171117,-0.00996801,-0.0034232
 9,0.00171117,-0.00996801,0.00342329,0.57581692,-0.00229852,-0.28933433
 ,0.,-0.00018684,-0.00044186,0.,-0.00003835,0.00022340,0.00007672,-0.00
 003835,0.00022340,-0.00007672,0.03170391,0.58075971,0.,0.,-0.07405539,
 0.,0.,0.00021661,-0.00326489,0.01734183,0.00578723,0.00326489,-0.01734
 183,0.00578723,0.,0.,0.60171049,0.00176417,-0.00003954,0.00315310,0.00
 029204,0.00015625,0.00067295,-0.00038624,-0.00035863,-0.00030550,0.000
 64713,-0.00015123,-0.00041207,-0.12507808,-0.04977017,-0.11461121,0.11
 531336,-0.01018060,0.00022817,-0.01711969,0.00015625,-0.00050768,-0.00
 032214,-0.00035863,-0.00047496,0.00000930,-0.00015123,-0.00011914,-0.0
 0021949,-0.05043058,-0.09805209,-0.08414255,0.05196330,0.08672638,0.00
 353731,-0.00007928,0.00583521,0.00005811,-0.00030836,-0.00015995,0.000
 31915,-0.00000470,0.00050266,-0.00042346,-0.00021923,0.00019043,-0.111
 24997,-0.08046763,-0.23977054,0.11656565,0.08610769,0.23727773,0.00176
 417,-0.00003954,-0.00315310,0.00029204,0.00015625,-0.00067295,0.000647
 13,-0.00015123,0.00041207,-0.00038624,-0.00035863,0.00030550,-0.125078
 08,-0.04977017,0.11461121,0.01088826,0.00750275,-0.01000084,0.11531336
 ,-0.01018060,0.00022817,0.01711969,0.00015625,-0.00050768,0.00032214,-
 0.00015123,-0.00011914,0.00021949,-0.00035863,-0.00047496,-0.00000930,
 -0.05043058,-0.09805209,0.08414255,0.00750275,0.00642889,-0.00746104,0
 .05196330,0.08672638,-0.00353731,0.00007928,0.00583521,-0.00005811,0.0
 0030836,-0.00015995,0.00042346,0.00021923,0.00019043,-0.00031915,0.000
 00470,0.00050266,0.11124997,0.08046763,-0.23977054,0.01000084,0.007461
 04,-0.00944362,-0.11656565,-0.08610769,0.23727773,0.00695206,-0.000155
 81,0.,0.00008129,-0.00026439,0.,-0.00024528,-0.00030431,0.00011053,-0.
 00024528,-0.00030431,-0.00011053,-0.26309246,0.06928608,0.,-0.00312336
 ,0.00200988,0.00098512,-0.00312336,0.00200988,-0.00098512,0.57581692,0
 .01956859,-0.00043857,0.,-0.00026439,0.00009503,0.,-0.00030431,0.00048
 895,-0.00030654,-0.00030431,0.00048895,0.00030654,0.06928608,-0.107275
 29,0.,-0.00879159,0.00565739,0.00277291,-0.00879159,0.00565739,-0.0027
 7291,0.03170391,0.58075971,0.,0.,0.00232528,0.,0.,0.00033178,-0.000329
 96,-0.00029667,-0.00049701,0.00032996,0.00029667,-0.00049701,0.,0.,-0.
 07209932,-0.01520751,0.00874962,0.00526559,0.01520751,-0.00874962,0.00
 526559,0.,0.,0.60171049,0.00056254,-0.00135341,-0.00086082,-0.00011212
 ,0.00016878,0.00007143,-0.00000017,0.00061410,-0.00000214,0.00008258,0
 .00021256,0.00018375,-0.00312336,-0.00879159,0.01520751,-0.00072513,-0
 .00026831,0.00010216,-0.00012500,0.00011514,0.00036185,-0.12507808,-0.
 04977017,0.11461121,0.11531336,-0.00135341,0.00013211,0.00022426,0.000
 16878,0.00000811,-0.00005039,0.00061410,-0.00046267,0.00000309,0.00021
 256,-0.00007751,-0.00026555,0.00200988,0.00565739,-0.00874962,-0.00026
 831,-0.00010868,0.00028757,0.00011514,0.00062167,0.00032480,-0.0504305
 8,-0.09805209,0.08414255,0.05196330,0.08672638,-0.00072166,0.00061597,
 -0.00095634,0.00007143,-0.00005039,0.00010583,-0.00000214,0.00000309,0
 .00042477,0.00018375,-0.00026555,0.00000010,-0.00098512,-0.00277291,0.
 00526559,-0.00010216,-0.00028757,0.00052711,0.00036185,0.00032480,0.00
 020100,0.11124997,0.08046763,-0.23977054,-0.11656565,-0.08610769,0.237
 27773,0.00056254,-0.00135341,0.00086082,-0.00011212,0.00016878,-0.0000
 7143,0.00008258,0.00021256,-0.00018375,-0.00000017,0.00061410,0.000002
 14,-0.00312336,-0.00879159,-0.01520751,-0.00012500,0.00011514,-0.00036
 185,-0.00072513,-0.00026831,-0.00010216,-0.12507808,-0.04977017,-0.114
 61121,0.01088826,0.00750275,0.01000084,0.11531336,-0.00135341,0.000132
 11,-0.00022426,0.00016878,0.00000811,0.00005039,0.00021256,-0.00007751
 ,0.00026555,0.00061410,-0.00046267,-0.00000309,0.00200988,0.00565739,0
 .00874962,0.00011514,0.00062167,-0.00032480,-0.00026831,-0.00010868,-0
 .00028757,-0.05043058,-0.09805209,-0.08414255,0.00750275,0.00642889,0.
 00746104,0.05196330,0.08672638,0.00072166,-0.00061597,-0.00095634,-0.0
 0007143,0.00005039,0.00010583,-0.00018375,0.00026555,0.00000010,0.0000
 0214,-0.00000309,0.00042477,0.00098512,0.00277291,0.00526559,-0.000361
 85,-0.00032480,0.00020100,0.00010216,0.00028757,0.00052711,-0.11124997
 ,-0.08046763,-0.23977054,-0.01000084,-0.00746104,-0.00944362,0.1165656
 5,0.08610769,0.23727773,0.00081019,0.00130187,0.,-0.00005252,-0.000313
 05,0.,-0.00029484,-0.00019596,0.00004366,-0.00029484,-0.00019596,-0.00
 004366,0.00695206,0.01956859,0.,0.00056254,-0.00135341,0.00072166,0.00
 056254,-0.00135341,-0.00072166,-0.07462334,-0.00229852,0.,0.00176417,-
 0.01018060,-0.00353731,0.00176417,-0.01018060,0.00353731,0.59620964,0.
 00130187,-0.00211576,0.,-0.00031305,0.00029048,0.,-0.00019596,0.000585
 56,-0.00020544,-0.00019596,0.00058556,0.00020544,-0.00015581,-0.000438
 57,0.,-0.00135341,0.00013211,-0.00061597,-0.00135341,0.00013211,0.0006
 1597,-0.00289900,-0.28933433,0.,-0.00003954,0.00022817,0.00007928,-0.0
 0003954,0.00022817,-0.00007928,-0.00007793,0.58723560,0.,0.,0.00178999
 ,0.,0.,-0.00023797,0.00004366,-0.00020544,-0.00029072,-0.00004366,0.00
 020544,-0.00029072,0.,0.,0.00232528,0.00086082,-0.00022426,-0.00095634
 ,-0.00086082,0.00022426,-0.00095634,0.,0.,-0.07405539,-0.00315310,0.01
 711969,0.00583521,0.00315310,-0.01711969,0.00583521,0.,0.,0.59619153,-
 0.00029484,-0.00019596,-0.00004366,0.00003238,0.00005971,0.00001201,0.
 00007765,0.00001757,0.,0.00006205,0.00001205,0.00000489,-0.00024528,-0
 .00030431,0.00032996,-0.00000017,0.00061410,0.00000214,0.00008258,0.00
 021256,0.00018375,0.00171117,-0.00003835,0.00326489,-0.00038624,-0.000
 35863,-0.00031915,0.00064713,-0.00015123,-0.00042346,-0.11617743,-0.04
 814390,-0.11224130,0.10816314,-0.00019596,0.00058556,0.00020544,0.0000
 5971,-0.00008398,-0.00002847,0.00001757,-0.00015609,0.,0.00001205,-0.0
 0009820,-0.00006535,-0.00030431,0.00048895,0.00029667,0.00061410,-0.00
 046267,-0.00000309,0.00021256,-0.00007751,-0.00026555,-0.00996801,0.00
 022340,-0.01734183,-0.00035863,-0.00047496,0.00000470,-0.00015123,-0.0
 0011914,-0.00021923,-0.05158605,-0.09684395,-0.08753144,0.05065078,0.0
 8401379,-0.00004366,0.00020544,-0.00029072,0.00001201,-0.00002847,0.00
 005184,0.,0.,0.00007897,0.00000489,-0.00006535,0.00003645,-0.00011053,
 0.00030654,-0.00049701,0.00000214,-0.00000309,0.00042477,0.00018375,-0
 .00026555,0.00000010,0.00342329,-0.00007672,0.00578723,0.00030550,-0.0
 0000930,0.00050266,-0.00041207,-0.00021949,0.00019043,-0.11212123,-0.0
 8157780,-0.24222188,0.11733958,0.08611695,0.23955091,-0.00005252,-0.00
 031305,0.,-0.00000392,0.00005466,0.,0.00003238,0.00005971,-0.00001201,
 0.00003238,0.00005971,0.00001201,0.00008129,-0.00026439,0.,-0.00011212
 ,0.00016878,-0.00007143,-0.00011212,0.00016878,0.00007143,0.00833663,-
 0.00018684,0.,0.00029204,0.00015625,-0.00005811,0.00029204,0.00015625,
 0.00005811,-0.30100491,0.10160954,0.,-0.00444135,0.00286849,0.00132531
 ,0.30110154,-0.00031305,0.00029048,0.,0.00005466,-0.00003380,0.,0.0000
 5971,-0.00008398,0.00002847,0.00005971,-0.00008398,-0.00002847,-0.0002
 6439,0.00009503,0.,0.00016878,0.00000811,0.00005039,0.00016878,0.00000
 811,-0.00005039,0.01971523,-0.00044186,0.,0.00015625,-0.00050768,0.000
 30836,0.00015625,-0.00050768,-0.00030836,0.10845108,-0.10384119,0.,-0.
 01050331,0.00678367,0.00313421,-0.10740636,0.09153108,0.,0.,-0.0002379
 7,0.,0.,0.00003780,-0.00001201,0.00002847,0.00005184,0.00001201,-0.000
 02847,0.00005184,0.,0.,0.00033178,-0.00007143,0.00005039,0.00010583,0.
 00007143,-0.00005039,0.00010583,0.,0.,0.00021661,-0.00067295,0.0003221
 4,-0.00015995,0.00067295,-0.00032214,-0.00015995,0.,0.,-0.05074599,-0.
 01801860,0.01131383,0.00552046,0.,0.,0.03936140,-0.00029484,-0.0001959
 6,0.00004366,0.00003238,0.00005971,-0.00001201,0.00006205,0.00001205,-
 0.00000489,0.00007765,0.00001757,0.,-0.00024528,-0.00030431,-0.0003299
 6,0.00008258,0.00021256,-0.00018375,-0.00000017,0.00061410,-0.00000214
 ,0.00171117,-0.00003835,-0.00326489,0.00064713,-0.00015123,0.00042346,
 -0.00038624,-0.00035863,0.00031915,-0.11617743,-0.04814390,0.11224130,
 0.01076920,0.00812892,-0.00990896,-0.00444135,-0.01050331,0.01801860,0
 .10816314,-0.00019596,0.00058556,-0.00020544,0.00005971,-0.00008398,0.
 00002847,0.00001205,-0.00009820,0.00006535,0.00001757,-0.00015609,0.,-
 0.00030431,0.00048895,-0.00029667,0.00021256,-0.00007751,0.00026555,0.
 00061410,-0.00046267,0.00000309,-0.00996801,0.00022340,0.01734183,-0.0
 0015123,-0.00011914,0.00021923,-0.00035863,-0.00047496,-0.00000470,-0.
 05158605,-0.09684395,0.08753144,0.00812892,0.00622110,-0.00751738,0.00
 286849,0.00678367,-0.01131383,0.05065078,0.08401379,0.00004366,-0.0002
 0544,-0.00029072,-0.00001201,0.00002847,0.00005184,-0.00000489,0.00006
 535,0.00003645,0.,0.,0.00007897,0.00011053,-0.00030654,-0.00049701,-0.
 00018375,0.00026555,0.00000010,-0.00000214,0.00000309,0.00042477,-0.00
 342329,0.00007672,0.00578723,0.00041207,0.00021949,0.00019043,-0.00030
 550,0.00000930,0.00050266,0.11212123,0.08157780,-0.24222188,0.00990896
 ,0.00751738,-0.00913421,-0.00132531,-0.00313421,0.00552046,-0.11733958
 ,-0.08611695,0.23955091\\-0.00001903,0.00004234,0.,0.00001878,-0.00000
 838,0.,-0.00000121,0.00000071,-0.00001195,-0.00000121,0.00000071,0.000
 01195,-0.00002897,0.00003027,0.,0.00000054,-0.00001256,-0.00001976,0.0
 0000054,-0.00001256,0.00001976,0.00002897,-0.00003027,0.,-0.00000054,0
 .00001256,-0.00001976,-0.00000054,0.00001256,0.00001976,0.00001903,-0.
 00004234,0.,0.00000121,-0.00000071,-0.00001195,-0.00001878,0.00000838,
 0.,0.00000121,-0.00000071,0.00001195\\\@
 The archive entry for this job was punched.


 THE TRULY SUCCESSFUL PERFORMANCE OF RESEARCHES IN
 INORGANIC CHEMISTRY IS POSSIBLE ONLY TO ONE WHO IS NOT
 ONLY A THEORETICAL CHEMIST, BUT ALSO AN ACCOMPLISHED
 ANALYST AND, MOREOVER, NOT MERELY A PRACTICALLY TRAINED,
 MECHANICAL WORKER, BUT A THINKING CREATIVE ARTIST.
   --  CLEMENS WINKLER, BER. 33, 1697(1900)
 Job cpu time:       0 days  0 hours  0 minutes  0.6 seconds.
 Elapsed time:       0 days  0 hours  0 minutes  0.5 seconds.
 File lengths (MBytes):  RWF=      6 Int=      0 D2E=      0 Chk=      1 Scr=      1
 Normal termination of Gaussian DV at Fri Aug 14 10:43:58 2026.
