%mem=1GB
%nprocshared=1
%chk=hessfit4gau.chk
#p Amber=(SoftFirst,Print) nosymm geom=nocrowd opt(MaxMicroiterations=2000) Freq

Title

0 1
C-c--0.267532  1.956898  -0.120392  0.000000
H-h1-+0.083821  2.742006  0.637259  -0.000000
H-h1-+0.077363  2.103754  -0.749379  -0.880760
H-h1-+0.077360  2.103754  -0.749379  0.880760
C-c--0.092257  0.566957  0.512915  -0.000000
H-h1-+0.060623  0.461751  1.163404  -0.874027
H-h1-+0.060622  0.461751  1.163404  0.874026
C-c--0.092258  -0.566957  -0.512915  -0.000000
H-h1-+0.060627  -0.461751  -1.163404  -0.874027
H-h1-+0.060618  -0.461751  -1.163404  0.874026
C-c--0.267532  -1.956898  0.120392  0.000000
H-h1-+0.077330  -2.103754  0.749379  -0.880760
H-h1-+0.083821  -2.742006  -0.637259  0.000000
H-h1-+0.077394  -2.103754  0.749379  0.880760

!Master function
NonBon 3 1 0 0 0.000 0.000 0.500 0.000 0.000 -1.2
!SMARTFIELD FF
!Bonds
HrmStr1 c c  302.209 1.528
HrmStr1 c h1  368.267 1.093
!Angles
HrmBnd1 c c c  52.040 113.369
HrmBnd1 c c h1  40.031 110.156
HrmBnd1 h1 c h1  33.873 110.156
!Torsions
AmbTrs c c c c 0  0  0  0 0.00 0.00 2.30 0. 9.0
AmbTrs c c c h1 0  0  0  0 0.00 0.00 2.16 0. 9.0
AmbTrs h1 c c h1 0  0  0  0 0.00 0.00 2.16 0. 9.0

