14
HessFit conformer 005
C  -2.49341300  0.34945400 -0.01033300
H  -2.13722100 -0.68175300 -0.02338100
H  -2.14607900  0.83134700 -0.92688600
H  -3.58471500  0.32328500 -0.04645800
C  -2.00023900  1.09707300  1.22694500
H  -0.90617800  1.07679900  1.25425000
H  -2.33381500  0.57262200  2.12794700
C  -2.47573600  2.54906500  1.28786500
H  -2.14216000  3.07351700  0.38686300
H  -3.56979700  2.56933900  1.26055900
C  -1.98256300  3.29668400  2.52514300
H  -2.69350410  3.20729003  3.34946309
H  -1.02368165  2.90832487  2.87177524
H  -1.85307385  4.36109087  2.31729270
