      -----------------------------------------------------------      
     |                   =====================                   |     
     |                           x T B                           |     
     |                   =====================                   |     
     |                         S. Grimme                         |     
     |          Mulliken Center for Theoretical Chemistry        |     
     |                    University of Bonn                     |     
      -----------------------------------------------------------      

   * xtb version 6.7.1 (edcfbbe) compiled by 'conda@5dfe00f5fb80' on 2026-06-10

   xtb is free software: you can redistribute it and/or modify it under
   the terms of the GNU Lesser General Public License as published by
   the Free Software Foundation, either version 3 of the License, or
   (at your option) any later version.
   
   xtb is distributed in the hope that it will be useful,
   but WITHOUT ANY WARRANTY; without even the implied warranty of
   MERCHANTABILITY or FITNESS FOR A PARTICULAR PURPOSE.  See the
   GNU Lesser General Public License for more details.
   
   Cite this work as:
   * C. Bannwarth, E. Caldeweyher, S. Ehlert, A. Hansen, P. Pracht,
     J. Seibert, S. Spicher, S. Grimme, WIREs Comput. Mol. Sci., 2020, 11,
     e01493. DOI: 10.1002/wcms.1493
   
   for GFN2-xTB:
   * C. Bannwarth, S. Ehlert and S. Grimme., J. Chem. Theory Comput., 2019,
     15, 1652-1671. DOI: 10.1021/acs.jctc.8b01176
   for GFN1-xTB:
   * S. Grimme, C. Bannwarth, P. Shushkov, J. Chem. Theory Comput., 2017,
     13, 1989-2009. DOI: 10.1021/acs.jctc.7b00118
   for GFN0-xTB:
   * P. Pracht, E. Caldeweyher, S. Ehlert, S. Grimme, ChemRxiv, 2019, preprint.
     DOI: 10.26434/chemrxiv.8326202.v1
   for GFN-FF:
   * S. Spicher and S. Grimme, Angew. Chem. Int. Ed., 2020, 59, 15665-15673.
     DOI: 10.1002/anie.202004239
   
   for ALPB and GBSA implicit solvation:
   * S. Ehlert, M. Stahn, S. Spicher, S. Grimme, J. Chem. Theory Comput.,
     2021, 17, 4250-4261. DOI: 10.1021/acs.jctc.1c00471
   
   for ddCOSMO and CPCM-X implicit solvation:
   * M. Stahn, S. Ehlert, S. Grimme, J. Phys. Chem. A,
     2023, XX, XXXX-XXXX. DOI: 10.1021/acs.jpca.3c04382
   
   for DFT-D4:
   * E. Caldeweyher, C. Bannwarth and S. Grimme, J. Chem. Phys., 2017,
     147, 034112. DOI: 10.1063/1.4993215
   * E. Caldeweyher, S. Ehlert, A. Hansen, H. Neugebauer, S. Spicher,
     C. Bannwarth and S. Grimme, J. Chem. Phys., 2019, 150, 154122.
     DOI: 10.1063/1.5090222
   * E. Caldeweyher, J.-M. Mewes, S. Ehlert and S. Grimme, Phys. Chem. Chem. Phys.
     2020, 22, 8499-8512. DOI: 10.1039/D0CP00502A
   
   for sTDA-xTB:
   * S. Grimme and C. Bannwarth, J. Chem. Phys., 2016, 145, 054103.
     DOI: 10.1063/1.4959605
   
   in the mass-spec context:
   * V. Asgeirsson, C. Bauer and S. Grimme, Chem. Sci., 2017, 8, 4879.
     DOI: 10.1039/c7sc00601b
   * J. Koopman and S. Grimme, ACS Omega 2019, 4, 12, 15120-15133.
     DOI: 10.1021/acsomega.9b02011
   
   for metadynamics refer to:
   * S. Grimme, J. Chem. Theory Comput., 2019, 155, 2847-2862
     DOI: 10.1021/acs.jctc.9b00143
   
   for SPH calculations refer to:
   * S. Spicher and S. Grimme, J. Chem. Theory Comput., 2021, 17, 1701-1714
     DOI: 10.1021/acs.jctc.0c01306
   
   for ONIOM refer to:
   * C. Plett, A. Katbashev, S. Ehlert, S. Grimme, M. Bursch,
     Phys. Chem. Chem. Phys., 2023, 25, 17860-17868. DOI: 10.1039/D3CP02178E
   
   for DIPRO refer to:
   * J. Kohn, N. Gildemeister, S. Grimme, D. Fazzi, A. Hansen,
     J. Chem. Phys., 2023, just accepted.
   
   for PTB refer to:
   * S. Grimme, M. Mueller, A. Hansen, J. Chem. Phys., 2023, 158, 124111.
     DOI: 10.1063/5.0137838
   
   with help from (in alphabetical order)
   P. Atkinson, C. Bannwarth, F. Bohle, G. Brandenburg, E. Caldeweyher
   M. Checinski, S. Dohm, S. Ehlert, S. Ehrlich, I. Gerasimov, C. Hölzer
   A. Katbashev, J. Kohn, J. Koopman, C. Lavigne, S. Lehtola, F. März, M. Müller,
   F. Musil, H. Neugebauer, J. Pisarek, C. Plett, P. Pracht, F. Pultar,
   J. Seibert, P. Shushkov, S. Spicher, M. Stahn, M. Steiner, T. Strunk,
   J. Stückrath, T. Rose, and J. Unsleber
   
 * started run on 2026/08/11 at 11:11:56.441     
   ID    Z sym.   atoms
    1    6 C      1, 5, 8, 11
    2    1 H      2-4, 6, 7, 9, 10, 12-14

           -------------------------------------------------
          |                Calculation Setup                |
           -------------------------------------------------

          program call               : xtb input.xyz --gfn2 --opt tight --chrg 0 --uhf 0 --iterations 250
          coordinate file            : input.xyz
          omp threads                :                     4


           -------------------------------------------------
          |                 G F N 2 - x T B                 |
           -------------------------------------------------

        Reference                      10.1021/acs.jctc.8b01176
      * Hamiltonian:
        H0-scaling (s, p, d)           1.850000    2.230000    2.230000
        zeta-weighting                 0.500000
      * Dispersion:
        s8                             2.700000
        a1                             0.520000
        a2                             5.000000
        s9                             5.000000
      * Repulsion:
        kExp                           1.500000    1.000000
        rExp                           1.000000
      * Coulomb:
        alpha                          2.000000
        third order                    shell-resolved
        anisotropic                    true
        a3                             3.000000
        a5                             4.000000
        cn-shift                       1.200000
        cn-exp                         4.000000
        max-rad                        5.000000


          ...................................................
          :                      SETUP                      :
          :.................................................:
          :  # basis functions                  26          :
          :  # atomic orbitals                  26          :
          :  # shells                           18          :
          :  # electrons                        26          :
          :  max. iterations                   250          :
          :  Hamiltonian                  GFN2-xTB          :
          :  restarted?                      false          :
          :  GBSA solvation                  false          :
          :  PC potential                    false          :
          :  electronic temp.          300.0000000     K    :
          :  accuracy                    1.0000000          :
          :  -> integral cutoff          0.2500000E+02      :
          :  -> integral neglect         0.1000000E-07      :
          :  -> SCF convergence          0.1000000E-05 Eh   :
          :  -> wf. convergence          0.1000000E-03 e    :
          :  Broyden damping             0.4000000          :
          :  net charge                          0          :
          :  unpaired electrons                  0          :
          ...................................................

 iter      E             dE          RMSdq      gap      omega  full diag
   1    -13.8286202 -0.138286E+02  0.252E+00   13.74       0.0  T
   2    -13.8679817 -0.393615E-01  0.128E+00   13.35       1.0  T
   3    -13.8684202 -0.438494E-03  0.689E-01   13.33       1.0  T
   4    -13.8685336 -0.113415E-03  0.920E-02   13.35       1.0  T
   5    -13.8685401 -0.647033E-05  0.508E-02   13.35       1.0  T
   6    -13.8685404 -0.342755E-06  0.186E-03   13.35      14.4  T
   7    -13.8685404 -0.431008E-08  0.745E-04   13.35      35.9  T
   8    -13.8685404 -0.549930E-09  0.124E-04   13.35     214.8  T

   *** convergence criteria satisfied after 8 iterations ***

         #    Occupation            Energy/Eh            Energy/eV
      -------------------------------------------------------------
         1        2.0000           -0.6167483             -16.7826
       ...           ...                  ...                  ...
         7        2.0000           -0.4885445             -13.2940
         8        2.0000           -0.4790654             -13.0360
         9        2.0000           -0.4539343             -12.3522
        10        2.0000           -0.4399937             -11.9728
        11        2.0000           -0.4382608             -11.9257
        12        2.0000           -0.4265841             -11.6079
        13        2.0000           -0.4162153             -11.3258 (HOMO)
        14                          0.0742457               2.0203 (LUMO)
        15                          0.1187059               3.2302
        16                          0.1234255               3.3586
        17                          0.1512611               4.1160
        18                          0.1632827               4.4431
       ...                                ...                  ...
        26                          0.3119957               8.4898
      -------------------------------------------------------------
                  HL-Gap            0.4904610 Eh           13.3461 eV
             Fermi-level           -0.1709848 Eh           -4.6527 eV

 SCC (total)                   0 d,  0 h,  0 min,  0.087 sec
 SCC setup                      ...        0 min,  0.003 sec (  3.202%)
 Dispersion                     ...        0 min,  0.006 sec (  6.888%)
 classical contributions        ...        0 min,  0.003 sec (  3.322%)
 integral evaluation            ...        0 min,  0.009 sec ( 10.411%)
 iterations                     ...        0 min,  0.064 sec ( 73.623%)
 molecular gradient             ...        0 min,  0.002 sec (  2.178%)
 printout                       ...        0 min,  0.000 sec (  0.315%)

         :::::::::::::::::::::::::::::::::::::::::::::::::::::
         ::                     SUMMARY                     ::
         :::::::::::::::::::::::::::::::::::::::::::::::::::::
         :: total energy             -13.662509339562 Eh    ::
         :: gradient norm              0.012808932915 Eh/a0 ::
         :: HOMO-LUMO gap             13.346123111299 eV    ::
         ::.................................................::
         :: SCC energy               -13.868536601746 Eh    ::
         :: -> isotropic ES            0.002914081667 Eh    ::
         :: -> anisotropic ES          0.005106465420 Eh    ::
         :: -> anisotropic XC          0.009051536547 Eh    ::
         :: -> dispersion             -0.006016519217 Eh    ::
         :: repulsion energy           0.206027262184 Eh    ::
         :: add. restraining           0.000000000000 Eh    ::
         :: total charge              -0.000000000000 e     ::
         :::::::::::::::::::::::::::::::::::::::::::::::::::::

      ----------------------------------------------------------- 
     |                   =====================                   |
     |                        A N C O P T                        |
     |                   =====================                   |
     |               Approximate Normal Coordinate               |
     |                Rational Function Optimizer                |
      ----------------------------------------------------------- 
      ----------------------------------------------------------- 
     |                   =====================                   |
     |                        A N C O P T                        |
     |                   =====================                   |
     |               Approximate Normal Coordinate               |
     |                Rational Function Optimizer                |
      ----------------------------------------------------------- 

          ...................................................
          :                      SETUP                      :
          :.................................................:
          :   optimization level             tight          :
          :   max. optcycles                   200          :
          :   ANC micro-cycles                  20          :
          :   degrees of freedom                36          :
          :.................................................:
          :   RF solver                   davidson          :
          :   write xtbopt.log                true          :
          :   linear?                        false          :
          :   energy convergence         0.1000000E-05 Eh   :
          :   grad. convergence          0.8000000E-03 Eh/α :
          :   maxmium RF displ.          1.0000000          :
          :   Hlow (freq-cutoff)         0.1000000E-01      :
          :   Hmax (freq-cutoff)         5.0000000          :
          :   S6 in model hess.         20.0000000          :
          ...................................................

generating ANC from exact Hessian ...
Using Lindh-Hessian (1995)
 Shifting diagonal of input Hessian by    5.9049031068936940E-003
 Lowest  eigenvalues of input Hessian
    0.000000    0.000000    0.000000    0.000000    0.000000    0.000000
    0.010000    0.013120    0.013593    0.017978    0.022078    0.044669
    0.046813    0.056905    0.059099    0.059902    0.061363    0.069991
 Highest eigenvalues
    1.109939    1.127520    1.173144    1.192292    1.212812    1.289206


........................................................................
.............................. CYCLE    1 ..............................
........................................................................

 iter      E             dE          RMSdq      gap      omega  full diag
   1    -13.8685404 -0.138685E+02  0.606E-05   13.35       0.0  T
   2    -13.8685404 -0.263078E-11  0.339E-05   13.35     789.5  T
   3    -13.8685404 -0.230926E-12  0.864E-06   13.35    3091.9  T
     SCC iter.                  ...        0 min,  0.002 sec
     gradient                   ...        0 min,  0.002 sec
 * total energy  :   -13.6625093 Eh     change       -0.2293099E-10 Eh
   gradient norm :     0.0128087 Eh/α   predicted     0.0000000E+00 (-100.00%)
   displ. norm   :     0.1798819 α      lambda       -0.1024016E-02
   maximum displ.:     0.1152197 α      in ANC's #5, #4, #3, ...

........................................................................
.............................. CYCLE    2 ..............................
........................................................................

 iter      E             dE          RMSdq      gap      omega  full diag
   1    -13.8720497 -0.138720E+02  0.120E-01   13.68       0.0  T
   2    -13.8720509 -0.119887E-05  0.700E-02   13.68       1.0  T
   3    -13.8720510 -0.156882E-06  0.337E-03   13.68       7.9  T
   4    -13.8720511 -0.241001E-07  0.129E-03   13.68      20.8  T
   5    -13.8720511 -0.699607E-09  0.564E-04   13.68      47.4  T
   6    -13.8720511 -0.162347E-09  0.810E-05   13.68     330.0  T
     SCC iter.                  ...        0 min,  0.003 sec
     gradient                   ...        0 min,  0.002 sec
 * total energy  :   -13.6631819 Eh     change       -0.6725474E-03 Eh
   gradient norm :     0.0051416 Eh/α   predicted    -0.5285766E-03 ( -21.41%)
   displ. norm   :     0.2271890 α      lambda       -0.5539046E-03
   maximum displ.:     0.1532845 α      in ANC's #4, #3, #5, ...

........................................................................
.............................. CYCLE    3 ..............................
........................................................................

 iter      E             dE          RMSdq      gap      omega  full diag
   1    -13.8740571 -0.138741E+02  0.847E-02   13.76       0.0  T
   2    -13.8740579 -0.820188E-06  0.498E-02   13.76       1.0  T
   3    -13.8740580 -0.992839E-07  0.337E-03   13.76       7.9  T
   4    -13.8740580 -0.249096E-07  0.123E-03   13.76      21.8  T
   5    -13.8740580 -0.594151E-09  0.428E-04   13.76      62.4  T
   6    -13.8740580 -0.846985E-10  0.769E-05   13.76     347.6  T
     SCC iter.                  ...        0 min,  0.003 sec
     gradient                   ...        0 min,  0.002 sec
 * total energy  :   -13.6636242 Eh     change       -0.4423458E-03 Eh
   gradient norm :     0.0043561 Eh/α   predicted    -0.2912504E-03 ( -34.16%)
   displ. norm   :     0.4621315 α      lambda       -0.8530199E-03
   maximum displ.:     0.3220098 α      in ANC's #4, #3, #6, ...

........................................................................
.............................. CYCLE    4 ..............................
........................................................................

 iter      E             dE          RMSdq      gap      omega  full diag
   1    -13.8720225 -0.138720E+02  0.149E-01   13.81       0.0  T
   2    -13.8720298 -0.732574E-05  0.874E-02   13.81       1.0  T
   3    -13.8720302 -0.389745E-06  0.123E-02   13.81       2.2  T
   4    -13.8720304 -0.228375E-06  0.312E-03   13.81       8.6  T
   5    -13.8720304 -0.154084E-08  0.113E-03   13.81      23.7  T
   6    -13.8720304 -0.102930E-08  0.138E-04   13.81     194.0  T
   7    -13.8720304 -0.182059E-10  0.624E-05   13.81     428.4  T
     SCC iter.                  ...        0 min,  0.004 sec
     gradient                   ...        0 min,  0.002 sec
 * total energy  :   -13.6640474 Eh     change       -0.4231518E-03 Eh
   gradient norm :     0.0154101 Eh/α   predicted    -0.5176024E-03 (  22.32%)
   displ. norm   :     0.0613955 α      lambda       -0.5100217E-03
   maximum displ.:     0.0350340 α      in ANC's #5, #4, #24, ...

........................................................................
.............................. CYCLE    5 ..............................
........................................................................

 iter      E             dE          RMSdq      gap      omega  full diag
   1    -13.8748173 -0.138748E+02  0.548E-02   13.77       0.0  T
   2    -13.8748196 -0.230522E-05  0.308E-02   13.77       1.0  T
   3    -13.8748198 -0.161007E-06  0.769E-03   13.77       3.5  T
   4    -13.8748199 -0.495864E-07  0.191E-03   13.77      14.0  T
   5    -13.8748199 -0.739320E-09  0.830E-04   13.77      32.2  T
   6    -13.8748199 -0.472895E-09  0.916E-05   13.77     291.8  T
     SCC iter.                  ...        0 min,  0.003 sec
     gradient                   ...        0 min,  0.002 sec
 * total energy  :   -13.6644232 Eh     change       -0.3758393E-03 Eh
   gradient norm :     0.0077552 Eh/α   predicted    -0.2559725E-03 ( -31.89%)
   displ. norm   :     0.3221898 α      lambda       -0.6274640E-03
   maximum displ.:     0.2278353 α      in ANC's #4, #3, #5, ...

........................................................................
.............................. CYCLE    6 ..............................
........................................................................

 iter      E             dE          RMSdq      gap      omega  full diag
   1    -13.8742904 -0.138743E+02  0.989E-02   13.73       0.0  T
   2    -13.8742910 -0.601651E-06  0.591E-02   13.73       1.0  T
   3    -13.8742911 -0.120349E-06  0.260E-03   13.73      10.3  T
   4    -13.8742911 -0.119862E-07  0.127E-03   13.73      21.1  T
   5    -13.8742911 -0.111070E-08  0.465E-04   13.73      57.5  T
   6    -13.8742911 -0.225038E-09  0.860E-05   13.73     310.6  T
     SCC iter.                  ...        0 min,  0.003 sec
     gradient                   ...        0 min,  0.002 sec
 * total energy  :   -13.6648324 Eh     change       -0.4092119E-03 Eh
   gradient norm :     0.0064804 Eh/α   predicted    -0.3462979E-03 ( -15.37%)
   displ. norm   :     0.1399549 α      lambda       -0.1976127E-03
   maximum displ.:     0.0906523 α      in ANC's #3, #4, #25, ...

........................................................................
.............................. CYCLE    7 ..............................
........................................................................

 iter      E             dE          RMSdq      gap      omega  full diag
   1    -13.8747325 -0.138747E+02  0.454E-02   13.76       0.0  T
   2    -13.8747329 -0.464799E-06  0.267E-02   13.76       1.0  T
   3    -13.8747330 -0.397089E-07  0.296E-03   13.76       9.0  T
   4    -13.8747330 -0.143270E-07  0.906E-04   13.76      29.5  T
   5    -13.8747330 -0.237426E-09  0.221E-04   13.76     121.2  T
     SCC iter.                  ...        0 min,  0.008 sec
     gradient                   ...        0 min,  0.004 sec
 * total energy  :   -13.6649630 Eh     change       -0.1305478E-03 Eh
   gradient norm :     0.0033769 Eh/α   predicted    -0.1007421E-03 ( -22.83%)
   displ. norm   :     0.1556759 α      lambda       -0.9111541E-04
   maximum displ.:     0.1139650 α      in ANC's #3, #4, #24, ...

........................................................................
.............................. CYCLE    8 ..............................
........................................................................

 iter      E             dE          RMSdq      gap      omega  full diag
   1    -13.8741452 -0.138741E+02  0.466E-02   13.78       0.0  T
   2    -13.8741454 -0.220808E-06  0.280E-02   13.78       1.0  T
   3    -13.8741455 -0.257228E-07  0.139E-03   13.78      19.3  T
   4    -13.8741455 -0.280071E-08  0.604E-04   13.78      44.3  T
   5    -13.8741455 -0.143576E-09  0.225E-04   13.78     118.7  T
     SCC iter.                  ...        0 min,  0.003 sec
     gradient                   ...        0 min,  0.002 sec
 * total energy  :   -13.6650136 Eh     change       -0.5064911E-04 Eh
   gradient norm :     0.0049188 Eh/α   predicted    -0.4666258E-04 (  -7.87%)
   displ. norm   :     0.0702179 α      lambda       -0.8636872E-04
   maximum displ.:     0.0528208 α      in ANC's #3, #1, #24, ...

........................................................................
.............................. CYCLE    9 ..............................
........................................................................

 iter      E             dE          RMSdq      gap      omega  full diag
   1    -13.8762124 -0.138762E+02  0.317E-02   13.82       0.0  T
   2    -13.8762134 -0.984524E-06  0.178E-02   13.82       1.5  T
   3    -13.8762135 -0.376077E-07  0.493E-03   13.82       5.4  T
   4    -13.8762135 -0.105838E-07  0.894E-04   13.82      29.9  T
   5    -13.8762135 -0.240568E-09  0.431E-04   13.82      62.0  T
     SCC iter.                  ...        0 min,  0.002 sec
     gradient                   ...        0 min,  0.002 sec
 * total energy  :   -13.6650528 Eh     change       -0.3915754E-04 Eh
   gradient norm :     0.0026177 Eh/α   predicted    -0.4339767E-04 (  10.83%)
   displ. norm   :     0.0679918 α      lambda       -0.2935505E-04
   maximum displ.:     0.0539163 α      in ANC's #3, #1, #4, ...

........................................................................
.............................. CYCLE   10 ..............................
........................................................................

 iter      E             dE          RMSdq      gap      omega  full diag
   1    -13.8759642 -0.138760E+02  0.214E-02   13.82       0.0  T
   2    -13.8759643 -0.783224E-07  0.127E-02   13.82       2.1  T
   3    -13.8759643 -0.620313E-08  0.118E-03   13.82      22.7  T
   4    -13.8759643 -0.323728E-08  0.380E-04   13.82      70.4  T
   5    -13.8759643 -0.266773E-10  0.996E-05   13.82     268.4  T
     SCC iter.                  ...        0 min,  0.002 sec
     gradient                   ...        0 min,  0.002 sec
 * total energy  :   -13.6650737 Eh     change       -0.2086264E-04 Eh
   gradient norm :     0.0015122 Eh/α   predicted    -0.1474593E-04 ( -29.32%)
   displ. norm   :     0.1032077 α      lambda       -0.2365793E-04
   maximum displ.:     0.0701734 α      in ANC's #3, #1, #4, ...

........................................................................
.............................. CYCLE   11 ..............................
........................................................................

 iter      E             dE          RMSdq      gap      omega  full diag
   1    -13.8758667 -0.138759E+02  0.306E-02   13.80       0.0  T
   2    -13.8758668 -0.767385E-07  0.183E-02   13.80       1.5  T
   3    -13.8758668 -0.799148E-08  0.974E-04   13.80      27.4  T
   4    -13.8758668 -0.317395E-08  0.392E-04   13.80      68.1  T
     SCC iter.                  ...        0 min,  0.002 sec
     gradient                   ...        0 min,  0.002 sec
 * total energy  :   -13.6650951 Eh     change       -0.2140763E-04 Eh
   gradient norm :     0.0017829 Eh/α   predicted    -0.1188602E-04 ( -44.48%)
   displ. norm   :     0.0739453 α      lambda       -0.1486104E-04
   maximum displ.:     0.0550137 α      in ANC's #1, #4, #3, ...

........................................................................
.............................. CYCLE   12 ..............................
........................................................................

 iter      E             dE          RMSdq      gap      omega  full diag
   1    -13.8761695 -0.138762E+02  0.228E-02   13.79       0.0  T
   2    -13.8761696 -0.495080E-07  0.136E-02   13.79       2.0  T
   3    -13.8761696 -0.614269E-08  0.818E-04   13.79      32.7  T
   4    -13.8761696 -0.160583E-08  0.358E-04   13.79      74.7  T
     SCC iter.                  ...        0 min,  0.002 sec
     gradient                   ...        0 min,  0.002 sec
 * total energy  :   -13.6651103 Eh     change       -0.1526621E-04 Eh
   gradient norm :     0.0019995 Eh/α   predicted    -0.7449153E-05 ( -51.20%)
   displ. norm   :     0.0913335 α      lambda       -0.1367981E-04
   maximum displ.:     0.0719760 α      in ANC's #1, #3, #4, ...

........................................................................
.............................. CYCLE   13 ..............................
........................................................................

 iter      E             dE          RMSdq      gap      omega  full diag
   1    -13.8758973 -0.138759E+02  0.257E-02   13.80       0.0  T
   2    -13.8758974 -0.602657E-07  0.154E-02   13.80       1.7  T
   3    -13.8758974 -0.532046E-08  0.714E-04   13.80      37.4  T
   4    -13.8758974 -0.130951E-08  0.295E-04   13.80      90.8  T
     SCC iter.                  ...        0 min,  0.003 sec
     gradient                   ...        0 min,  0.002 sec
 * total energy  :   -13.6651216 Eh     change       -0.1131756E-04 Eh
   gradient norm :     0.0007440 Eh/α   predicted    -0.6866790E-05 ( -39.33%)
   displ. norm   :     0.0278681 α      lambda       -0.2871716E-05
   maximum displ.:     0.0249543 α      in ANC's #1, #2, #3, ...

........................................................................
.............................. CYCLE   14 ..............................
........................................................................

 iter      E             dE          RMSdq      gap      omega  full diag
   1    -13.8759907 -0.138760E+02  0.104E-02   13.80       0.0  T
   2    -13.8759907 -0.115192E-07  0.612E-03   13.80       4.4  T
   3    -13.8759907 -0.174899E-08  0.433E-04   13.80      61.7  T
   4    -13.8759907 -0.330495E-09  0.186E-04   13.80     143.4  T
     SCC iter.                  ...        0 min,  0.002 sec
     gradient                   ...        0 min,  0.002 sec
 * total energy  :   -13.6651240 Eh     change       -0.2356449E-05 Eh
   gradient norm :     0.0004667 Eh/α   predicted    -0.1434855E-05 ( -39.11%)
   displ. norm   :     0.0154175 α      lambda       -0.1073076E-05
   maximum displ.:     0.0143241 α      in ANC's #1, #3, #6, ...

........................................................................
.............................. CYCLE   15 ..............................
........................................................................

 iter      E             dE          RMSdq      gap      omega  full diag
   1    -13.8761076 -0.138761E+02  0.496E-03   13.80       0.0  T
   2    -13.8761076 -0.223725E-08  0.293E-03   13.80       9.1  T
   3    -13.8761076 -0.261755E-09  0.126E-04   13.80     211.7  T
   4    -13.8761076 -0.167937E-10  0.588E-05   13.80     454.6  T
     SCC iter.                  ...        0 min,  0.002 sec
     gradient                   ...        0 min,  0.002 sec
 * total energy  :   -13.6651253 Eh     change       -0.1270023E-05 Eh
   gradient norm :     0.0003446 Eh/α   predicted    -0.5376278E-06 ( -57.67%)
   displ. norm   :     0.0202960 α      lambda       -0.1351528E-05
   maximum displ.:     0.0155387 α      in ANC's #1, #4, #3, ...

........................................................................
.............................. CYCLE   16 ..............................
........................................................................

 iter      E             dE          RMSdq      gap      omega  full diag
   1    -13.8761042 -0.138761E+02  0.616E-03   13.80       0.0  T
   2    -13.8761042 -0.275956E-08  0.366E-03   13.80       7.3  T
   3    -13.8761042 -0.413975E-09  0.203E-04   13.80     131.8  T
   4    -13.8761042 -0.130221E-09  0.922E-05   13.80     290.0  T
     SCC iter.                  ...        0 min,  0.002 sec
     gradient                   ...        0 min,  0.002 sec
 * total energy  :   -13.6651267 Eh     change       -0.1444561E-05 Eh
   gradient norm :     0.0002260 Eh/α   predicted    -0.6757395E-06 ( -53.22%)
   displ. norm   :     0.0204999 α      lambda       -0.8326938E-06
   maximum displ.:     0.0149106 α      in ANC's #1, #4, #3, ...

........................................................................
.............................. CYCLE   17 ..............................
........................................................................

 iter      E             dE          RMSdq      gap      omega  full diag
   1    -13.8760140 -0.138760E+02  0.635E-03   13.80       0.0  T
   2    -13.8760140 -0.159610E-08  0.378E-03   13.80       7.1  T
   3    -13.8760140 -0.439497E-09  0.152E-04   13.80     175.6  T
   4    -13.8760140 -0.239400E-10  0.770E-05   13.80     346.9  T
     SCC iter.                  ...        0 min,  0.002 sec
     gradient                   ...        0 min,  0.002 sec
 * total energy  :   -13.6651273 Eh     change       -0.6186312E-06 Eh
   gradient norm :     0.0003152 Eh/α   predicted    -0.4161278E-06 ( -32.73%)
   displ. norm   :     0.0089743 α      lambda       -0.2851214E-06
   maximum displ.:     0.0080253 α      in ANC's #1, #3, #6, ...

   *** GEOMETRY OPTIMIZATION CONVERGED AFTER 17 ITERATIONS ***

------------------------------------------------------------------------
 total energy gain   :        -0.0026180 Eh       -1.6428 kcal/mol
 total RMSD          :         0.4282008 a0        0.2266 Å
 total power (kW/mol):        -0.4043261 (step)  -59.3012 (real)
------------------------------------------------------------------------

 ANCopt (total)                0 d,  0 h,  0 min,  0.116 sec
 optimizer setup                ...        0 min,  0.000 sec (  0.161%)
 model hessian                  ...        0 min,  0.005 sec (  4.250%)
 ANC generation                 ...        0 min,  0.003 sec (  2.426%)
 coordinate transformation      ...        0 min,  0.000 sec (  0.144%)
 single point calculation       ...        0 min,  0.100 sec ( 85.851%)
 optimization log               ...        0 min,  0.004 sec (  3.132%)
 hessian update                 ...        0 min,  0.001 sec (  0.475%)
 rational function              ...        0 min,  0.003 sec (  2.595%)

================
 final structure:
================
14
 xtb: 6.7.1 (edcfbbe)
C           -2.50579848146398        0.36087174547101        0.00748892709684
H           -2.21405449318906       -0.68646837701062        0.03869292433625
H           -2.06659565611388        0.81324602719881       -0.87922429535532
H           -3.58873444725219        0.41296325360220       -0.08378657581958
C           -2.04038226110476        1.08672754960456        1.26383814012922
H           -0.95421131594004        1.00467452233454        1.34921165410773
H           -2.47797257519666        0.60758992491374        2.14282016475861
C           -2.43304879987418        2.56212748887043        1.24851830309023
H           -1.99080645436119        3.04260822695221        0.37255372675713
H           -3.51872451157303        2.64410332730598        1.15746414188088
C           -1.97469722562941        3.28605252447806        2.50849847874608
H           -2.42103942910407        2.83407883591251        3.39183589512453
H           -0.89224706051181        3.23171700886068        2.60728986188682
H           -2.26386288868573        4.33384571150587        2.47584368326056

 Bond Distances (Angstroems)
 ---------------------------
C1-H2=1.0877         C1-H3=1.0880         C1-H4=1.0880         C1-C5=1.5238         H2-C1=1.0877         H3-C1=1.0880         
H4-C1=1.0880         C5-C1=1.5238         C5-H6=1.0926         C5-H7=1.0926         C5-C8=1.5268         H6-C5=1.0926         
H7-C5=1.0926         C8-C5=1.5268         C8-H9=1.0926         C8-H10=1.0926        C8-C11=1.5237        H9-C8=1.0926         
H10-C8=1.0926        C11-C8=1.5237        C11-H12=1.0880       C11-H13=1.0883       C11-H14=1.0875       H12-C11=1.0880       
H13-C11=1.0883       H14-C11=1.0875       
 C  H  Rav=1.0898 sigma=0.0023  Rmin=1.0875  Rmax=1.0926    10
 C  C  Rav=1.5248 sigma=0.0015  Rmin=1.5237  Rmax=1.5268     3

 selected bond angles (degree)
 --------------------
H3-C1-H2=108.39                H4-C1-H2=108.39                H4-C1-H3=108.27                C5-C1-H2=110.68                
C5-C1-H3=110.52                C5-C1-H4=110.51                H6-C5-C1=109.41                H7-C5-C1=109.40                
H7-C5-H6=107.60                C8-C5-C1=111.93                C8-C5-H6=109.21                C8-C5-H7=109.20                
H9-C8-C5=109.20                H10-C8-C5=109.20               H10-C8-H9=107.60               C11-C8-C5=111.93               
C11-C8-H9=109.41               C11-C8-H10=109.40              

 selected dihedral angles (degree)
 ---------------------------------
H6-C5-C1-H2= 58.69            H6-C5-C1-H3=298.60            H6-C5-C1-H4=178.77            H7-C5-C1-H2=301.05            
H7-C5-C1-H3=180.96            H7-C5-C1-H4= 61.13            C8-C5-C1-H2=179.88            C8-C5-C1-H3= 59.79            
C8-C5-C1-H4=299.96            H9-C8-C5-C1=300.97            H9-C8-C5-H6= 62.27            H9-C8-C5-H7=179.68            
H10-C8-C5-C1= 58.38           H10-C8-C5-H6=179.68           H10-C8-C5-H7=297.09           C11-C8-C5-C1=179.67           
C11-C8-C5-H6=300.97           C11-C8-C5-H7= 58.39           
           -------------------------------------------------
          |                Final Singlepoint                |
           -------------------------------------------------

          ...................................................
          :                      SETUP                      :
          :.................................................:
          :  # basis functions                  26          :
          :  # atomic orbitals                  26          :
          :  # shells                           18          :
          :  # electrons                        26          :
          :  max. iterations                   250          :
          :  Hamiltonian                  GFN2-xTB          :
          :  restarted?                      false          :
          :  GBSA solvation                  false          :
          :  PC potential                    false          :
          :  electronic temp.          300.0000000     K    :
          :  accuracy                    1.0000000          :
          :  -> integral cutoff          0.2500000E+02      :
          :  -> integral neglect         0.1000000E-07      :
          :  -> SCF convergence          0.1000000E-05 Eh   :
          :  -> wf. convergence          0.1000000E-03 e    :
          :  Broyden damping             0.4000000          :
          :  net charge                          0          :
          :  unpaired electrons                  0          :
          ...................................................

 iter      E             dE          RMSdq      gap      omega  full diag
   1    -13.8760140 -0.138760E+02  0.187E-05   13.80       0.0  T
   2    -13.8760140 -0.563105E-12  0.105E-05   13.80    2540.5  T
   3    -13.8760140 -0.284217E-13  0.456E-06   13.80    5866.1  T

   *** convergence criteria satisfied after 3 iterations ***

         #    Occupation            Energy/Eh            Energy/eV
      -------------------------------------------------------------
         1        2.0000           -0.6179658             -16.8157
       ...           ...                  ...                  ...
         7        2.0000           -0.4878819             -13.2759
         8        2.0000           -0.4789797             -13.0337
         9        2.0000           -0.4546478             -12.3716
        10        2.0000           -0.4395175             -11.9599
        11        2.0000           -0.4367231             -11.8838
        12        2.0000           -0.4258063             -11.5868
        13        2.0000           -0.4195707             -11.4171 (HOMO)
        14                          0.0876584               2.3853 (LUMO)
        15                          0.1266527               3.4464
        16                          0.1277985               3.4776
        17                          0.1525382               4.1508
        18                          0.1628879               4.4324
       ...                                ...                  ...
        26                          0.3114110               8.4739
      -------------------------------------------------------------
                  HL-Gap            0.5072290 Eh           13.8024 eV
             Fermi-level           -0.1659561 Eh           -4.5159 eV

 SCC (total)                   0 d,  0 h,  0 min,  0.005 sec
 SCC setup                      ...        0 min,  0.000 sec (  4.543%)
 Dispersion                     ...        0 min,  0.000 sec (  2.366%)
 classical contributions        ...        0 min,  0.000 sec (  0.922%)
 integral evaluation            ...        0 min,  0.001 sec ( 13.742%)
 iterations                     ...        0 min,  0.001 sec ( 32.696%)
 molecular gradient             ...        0 min,  0.002 sec ( 40.028%)
 printout                       ...        0 min,  0.000 sec (  5.273%)

         :::::::::::::::::::::::::::::::::::::::::::::::::::::
         ::                     SUMMARY                     ::
         :::::::::::::::::::::::::::::::::::::::::::::::::::::
         :: total energy             -13.665127334022 Eh    ::
         :: gradient norm              0.000315277281 Eh/a0 ::
         :: HOMO-LUMO gap             13.802404736677 eV    ::
         ::.................................................::
         :: SCC energy               -13.876010134688 Eh    ::
         :: -> isotropic ES            0.002998830969 Eh    ::
         :: -> anisotropic ES          0.004910411991 Eh    ::
         :: -> anisotropic XC          0.009061906080 Eh    ::
         :: -> dispersion             -0.006049084075 Eh    ::
         :: repulsion energy           0.210882800666 Eh    ::
         :: add. restraining           0.000000000000 Eh    ::
         :: total charge              -0.000000000000 e     ::
         :::::::::::::::::::::::::::::::::::::::::::::::::::::

           -------------------------------------------------
          |                Property Printout                |
           -------------------------------------------------

    * Orbital Energies and Occupations

         #    Occupation            Energy/Eh            Energy/eV
      -------------------------------------------------------------
         1        2.0000           -0.6179658             -16.8157
         2        2.0000           -0.5989654             -16.2987
         3        2.0000           -0.5679121             -15.4537
         4        2.0000           -0.5523937             -15.0314
         5        2.0000           -0.5138429             -13.9824
         6        2.0000           -0.4918387             -13.3836
         7        2.0000           -0.4878819             -13.2759
         8        2.0000           -0.4789797             -13.0337
         9        2.0000           -0.4546478             -12.3716
        10        2.0000           -0.4395175             -11.9599
        11        2.0000           -0.4367231             -11.8838
        12        2.0000           -0.4258063             -11.5868
        13        2.0000           -0.4195707             -11.4171 (HOMO)
        14                          0.0876584               2.3853 (LUMO)
        15                          0.1266527               3.4464
        16                          0.1277985               3.4776
        17                          0.1525382               4.1508
        18                          0.1628879               4.4324
        19                          0.1836569               4.9976
        20                          0.1937008               5.2709
        21                          0.1971250               5.3640
        22                          0.2244924               6.1087
        23                          0.2549076               6.9364
        24                          0.2645519               7.1988
       ...                                ...                  ...
        26                          0.3114110               8.4739
      -------------------------------------------------------------
                  HL-Gap            0.5072290 Eh           13.8024 eV
             Fermi-level           -0.1659561 Eh           -4.5159 eV

     #   Z          covCN         q      C6AA      α(0)
     1   6 C        3.752    -0.102    22.510     6.766
     2   1 H        0.925     0.032     2.554     2.499
     3   1 H        0.925     0.033     2.550     2.497
     4   1 H        0.925     0.033     2.550     2.497
     5   6 C        3.801    -0.053    21.534     6.607
     6   1 H        0.924     0.029     2.601     2.522
     7   1 H        0.924     0.029     2.600     2.521
     8   6 C        3.801    -0.053    21.534     6.607
     9   1 H        0.924     0.029     2.601     2.522
    10   1 H        0.924     0.029     2.600     2.521
    11   6 C        3.752    -0.102    22.510     6.766
    12   1 H        0.925     0.033     2.550     2.497
    13   1 H        0.925     0.033     2.551     2.498
    14   1 H        0.925     0.032     2.553     2.499

 Mol. C6AA /au·bohr⁶  :       1207.495608
 Mol. C8AA /au·bohr⁸  :      24480.515552
 Mol. α(0) /au        :         51.819349


Wiberg/Mayer (AO) data.
largest (>0.10) Wiberg bond orders for each atom

 ---------------------------------------------------------------------------
     #   Z sym  total        # sym  WBO       # sym  WBO       # sym  WBO
 ---------------------------------------------------------------------------
     1   6 C    3.997 --     5 C    1.019     4 H    0.988     3 H    0.988
                             2 H    0.988
     2   1 H    0.999 --     1 C    0.988
     3   1 H    0.999 --     1 C    0.988
     4   1 H    0.999 --     1 C    0.988
     5   6 C    3.998 --     1 C    1.019     8 C    1.009     6 H    0.979
                             7 H    0.979
     6   1 H    0.999 --     5 C    0.979
     7   1 H    0.999 --     5 C    0.979
     8   6 C    3.998 --    11 C    1.019     5 C    1.009     9 H    0.979
                            10 H    0.979
     9   1 H    0.999 --     8 C    0.979
    10   1 H    0.999 --     8 C    0.979
    11   6 C    3.997 --     8 C    1.019    13 H    0.988    12 H    0.988
                            14 H    0.988
    12   1 H    0.999 --    11 C    0.988
    13   1 H    0.999 --    11 C    0.988
    14   1 H    0.999 --    11 C    0.988
 ---------------------------------------------------------------------------

Topologies differ in total number of bonds
Writing topology from bond orders to xtbtopo.mol

molecular dipole:
                 x           y           z       tot (Debye)
 q only:       -0.000       0.000       0.000
   full:       -0.000       0.000       0.000       0.001
molecular quadrupole (traceless):
                xx          xy          yy          xz          yz          zz
 q only:       -0.122       0.000       0.049       0.095       0.118       0.073
  q+dip:        0.709      -0.027      -0.360      -0.490      -0.709      -0.349
   full:        0.310      -0.011      -0.154      -0.219      -0.305      -0.156

           -------------------------------------------------
          |                Geometry Summary                 |
           -------------------------------------------------

      molecular mass/u    :       58.1223511
   center of mass at/Å    :       -2.2385414       1.8239261       1.2571180
Note: The following floating-point exceptions are signalling: IEEE_UNDERFLOW_FLAG IEEE_DENORMAL
normal termination of xtb
  moments of inertia/u·Å² :        0.2163153E+02   0.1369863E+03   0.1460791E+03
rotational constants/cm⁻¹ :        0.7793084E+00   0.1230607E+00   0.1154007E+00

 * 13 selected distances

     #   Z          #   Z                                           value/Å
     1   6 C        2   1 H                                       1.0876625
     1   6 C        3   1 H                                       1.0880267
     1   6 C        4   1 H                                       1.0880236
     1   6 C        5   6 C                                       1.5237758
     5   6 C        6   1 H                                       1.0926065
     5   6 C        7   1 H                                       1.0925510
     5   6 C        8   6 C                                       1.5268357 (max)
     8   6 C        9   1 H                                       1.0925906
     8   6 C       10   1 H                                       1.0925671
     8   6 C       11   6 C                                       1.5237139
    11   6 C       12   1 H                                       1.0880197
    11   6 C       13   1 H                                       1.0883063
    11   6 C       14   1 H                                       1.0874529 (min)

 * 2 distinct bonds (by element types)

   Z      Z             #   av. dist./Å        max./Å        min./Å
   1 H    6 C          10     1.0897807     1.0926065     1.0874529
   6 C    6 C           3     1.5247751     1.5268357     1.5237139


optimized geometry written to: xtbopt.xyz


           -------------------------------------------------
          | TOTAL ENERGY              -13.665127334022 Eh   |
          | GRADIENT NORM               0.000315277281 Eh/α |
          | HOMO-LUMO GAP              13.802404736677 eV   |
           -------------------------------------------------

------------------------------------------------------------------------
 * finished run on 2026/08/11 at 11:11:56.688     
------------------------------------------------------------------------
 total:
 * wall-time:     0 d,  0 h,  0 min,  0.248 sec
 *  cpu-time:     0 d,  0 h,  0 min,  0.945 sec
 * ratio c/w:     3.814 speedup
 SCF:
 * wall-time:     0 d,  0 h,  0 min,  0.087 sec
 *  cpu-time:     0 d,  0 h,  0 min,  0.341 sec
 * ratio c/w:     3.911 speedup
 ANC optimizer:
 * wall-time:     0 d,  0 h,  0 min,  0.122 sec
 *  cpu-time:     0 d,  0 h,  0 min,  0.458 sec
 * ratio c/w:     3.765 speedup

