14
 energy: -13.665127334022 gnorm: 0.000315277281 xtb: 6.7.1 (edcfbbe)
C           -2.50579848146398        0.36087174547101        0.00748892709684
H           -2.21405449318906       -0.68646837701062        0.03869292433625
H           -2.06659565611388        0.81324602719881       -0.87922429535532
H           -3.58873444725219        0.41296325360220       -0.08378657581958
C           -2.04038226110476        1.08672754960456        1.26383814012922
H           -0.95421131594004        1.00467452233454        1.34921165410773
H           -2.47797257519666        0.60758992491374        2.14282016475861
C           -2.43304879987418        2.56212748887043        1.24851830309023
H           -1.99080645436119        3.04260822695221        0.37255372675713
H           -3.51872451157303        2.64410332730598        1.15746414188088
C           -1.97469722562941        3.28605252447806        2.50849847874608
H           -2.42103942910407        2.83407883591251        3.39183589512453
H           -0.89224706051181        3.23171700886068        2.60728986188682
H           -2.26386288868573        4.33384571150587        2.47584368326056
