14
 energy: -13.665127250848 gnorm: 0.000367999251 xtb: 6.7.1 (edcfbbe)
C           -2.50597268023657        0.36082315999785        0.00755535891614
H           -2.21469029507647       -0.68660278566826        0.03883097465975
H           -2.06665867737235        0.81300910462760       -0.87914082391327
H           -3.58885224557533        0.41344492889469       -0.08348224757562
C           -2.04006254306406        1.08674243104969        1.26374221237551
H           -0.95387933401253        1.00481612349611        1.34865453951189
H           -2.47723912799641        0.60772166870808        2.14292641257745
C           -2.43287280470282        2.56213331232668        1.24838552712865
H           -1.99046567697842        3.04260594360373        0.37256637265412
H           -3.51852277171868        2.64403144445576        1.15710382982206
C           -1.97490642587839        3.28607669044742        2.50854321780965
H           -2.42142009868399        2.83391844808104        3.39174689248108
H           -0.89253545412073        3.23162145476216        2.60764488064140
H           -2.26409746458324        4.33379584521742        2.47596788291117
