      -----------------------------------------------------------      
     |                   =====================                   |     
     |                           x T B                           |     
     |                   =====================                   |     
     |                         S. Grimme                         |     
     |          Mulliken Center for Theoretical Chemistry        |     
     |                    University of Bonn                     |     
      -----------------------------------------------------------      

   * xtb version 6.7.1 (edcfbbe) compiled by 'conda@5dfe00f5fb80' on 2026-06-10

   xtb is free software: you can redistribute it and/or modify it under
   the terms of the GNU Lesser General Public License as published by
   the Free Software Foundation, either version 3 of the License, or
   (at your option) any later version.
   
   xtb is distributed in the hope that it will be useful,
   but WITHOUT ANY WARRANTY; without even the implied warranty of
   MERCHANTABILITY or FITNESS FOR A PARTICULAR PURPOSE.  See the
   GNU Lesser General Public License for more details.
   
   Cite this work as:
   * C. Bannwarth, E. Caldeweyher, S. Ehlert, A. Hansen, P. Pracht,
     J. Seibert, S. Spicher, S. Grimme, WIREs Comput. Mol. Sci., 2020, 11,
     e01493. DOI: 10.1002/wcms.1493
   
   for GFN2-xTB:
   * C. Bannwarth, S. Ehlert and S. Grimme., J. Chem. Theory Comput., 2019,
     15, 1652-1671. DOI: 10.1021/acs.jctc.8b01176
   for GFN1-xTB:
   * S. Grimme, C. Bannwarth, P. Shushkov, J. Chem. Theory Comput., 2017,
     13, 1989-2009. DOI: 10.1021/acs.jctc.7b00118
   for GFN0-xTB:
   * P. Pracht, E. Caldeweyher, S. Ehlert, S. Grimme, ChemRxiv, 2019, preprint.
     DOI: 10.26434/chemrxiv.8326202.v1
   for GFN-FF:
   * S. Spicher and S. Grimme, Angew. Chem. Int. Ed., 2020, 59, 15665-15673.
     DOI: 10.1002/anie.202004239
   
   for ALPB and GBSA implicit solvation:
   * S. Ehlert, M. Stahn, S. Spicher, S. Grimme, J. Chem. Theory Comput.,
     2021, 17, 4250-4261. DOI: 10.1021/acs.jctc.1c00471
   
   for ddCOSMO and CPCM-X implicit solvation:
   * M. Stahn, S. Ehlert, S. Grimme, J. Phys. Chem. A,
     2023, XX, XXXX-XXXX. DOI: 10.1021/acs.jpca.3c04382
   
   for DFT-D4:
   * E. Caldeweyher, C. Bannwarth and S. Grimme, J. Chem. Phys., 2017,
     147, 034112. DOI: 10.1063/1.4993215
   * E. Caldeweyher, S. Ehlert, A. Hansen, H. Neugebauer, S. Spicher,
     C. Bannwarth and S. Grimme, J. Chem. Phys., 2019, 150, 154122.
     DOI: 10.1063/1.5090222
   * E. Caldeweyher, J.-M. Mewes, S. Ehlert and S. Grimme, Phys. Chem. Chem. Phys.
     2020, 22, 8499-8512. DOI: 10.1039/D0CP00502A
   
   for sTDA-xTB:
   * S. Grimme and C. Bannwarth, J. Chem. Phys., 2016, 145, 054103.
     DOI: 10.1063/1.4959605
   
   in the mass-spec context:
   * V. Asgeirsson, C. Bauer and S. Grimme, Chem. Sci., 2017, 8, 4879.
     DOI: 10.1039/c7sc00601b
   * J. Koopman and S. Grimme, ACS Omega 2019, 4, 12, 15120-15133.
     DOI: 10.1021/acsomega.9b02011
   
   for metadynamics refer to:
   * S. Grimme, J. Chem. Theory Comput., 2019, 155, 2847-2862
     DOI: 10.1021/acs.jctc.9b00143
   
   for SPH calculations refer to:
   * S. Spicher and S. Grimme, J. Chem. Theory Comput., 2021, 17, 1701-1714
     DOI: 10.1021/acs.jctc.0c01306
   
   for ONIOM refer to:
   * C. Plett, A. Katbashev, S. Ehlert, S. Grimme, M. Bursch,
     Phys. Chem. Chem. Phys., 2023, 25, 17860-17868. DOI: 10.1039/D3CP02178E
   
   for DIPRO refer to:
   * J. Kohn, N. Gildemeister, S. Grimme, D. Fazzi, A. Hansen,
     J. Chem. Phys., 2023, just accepted.
   
   for PTB refer to:
   * S. Grimme, M. Mueller, A. Hansen, J. Chem. Phys., 2023, 158, 124111.
     DOI: 10.1063/5.0137838
   
   with help from (in alphabetical order)
   P. Atkinson, C. Bannwarth, F. Bohle, G. Brandenburg, E. Caldeweyher
   M. Checinski, S. Dohm, S. Ehlert, S. Ehrlich, I. Gerasimov, C. Hölzer
   A. Katbashev, J. Kohn, J. Koopman, C. Lavigne, S. Lehtola, F. März, M. Müller,
   F. Musil, H. Neugebauer, J. Pisarek, C. Plett, P. Pracht, F. Pultar,
   J. Seibert, P. Shushkov, S. Spicher, M. Stahn, M. Steiner, T. Strunk,
   J. Stückrath, T. Rose, and J. Unsleber
   
 * started run on 2026/08/11 at 11:11:56.704     
   ID    Z sym.   atoms
    1    6 C      1, 5, 8, 11
    2    1 H      2-4, 6, 7, 9, 10, 12-14

           -------------------------------------------------
          |                Calculation Setup                |
           -------------------------------------------------

          program call               : xtb input.xyz --gfn2 --opt tight --chrg 0 --uhf 0 --iterations 250
          coordinate file            : input.xyz
          omp threads                :                     4


           -------------------------------------------------
          |                 G F N 2 - x T B                 |
           -------------------------------------------------

        Reference                      10.1021/acs.jctc.8b01176
      * Hamiltonian:
        H0-scaling (s, p, d)           1.850000    2.230000    2.230000
        zeta-weighting                 0.500000
      * Dispersion:
        s8                             2.700000
        a1                             0.520000
        a2                             5.000000
        s9                             5.000000
      * Repulsion:
        kExp                           1.500000    1.000000
        rExp                           1.000000
      * Coulomb:
        alpha                          2.000000
        third order                    shell-resolved
        anisotropic                    true
        a3                             3.000000
        a5                             4.000000
        cn-shift                       1.200000
        cn-exp                         4.000000
        max-rad                        5.000000


          ...................................................
          :                      SETUP                      :
          :.................................................:
          :  # basis functions                  26          :
          :  # atomic orbitals                  26          :
          :  # shells                           18          :
          :  # electrons                        26          :
          :  max. iterations                   250          :
          :  Hamiltonian                  GFN2-xTB          :
          :  restarted?                      false          :
          :  GBSA solvation                  false          :
          :  PC potential                    false          :
          :  electronic temp.          300.0000000     K    :
          :  accuracy                    1.0000000          :
          :  -> integral cutoff          0.2500000E+02      :
          :  -> integral neglect         0.1000000E-07      :
          :  -> SCF convergence          0.1000000E-05 Eh   :
          :  -> wf. convergence          0.1000000E-03 e    :
          :  Broyden damping             0.4000000          :
          :  net charge                          0          :
          :  unpaired electrons                  0          :
          ...................................................

 iter      E             dE          RMSdq      gap      omega  full diag
   1    -13.8266235 -0.138266E+02  0.254E+00   13.85       0.0  T
   2    -13.8660373 -0.394139E-01  0.131E+00   13.48       1.0  T
   3    -13.8664551 -0.417719E-03  0.701E-01   13.47       1.0  T
   4    -13.8665678 -0.112735E-03  0.911E-02   13.47       1.0  T
   5    -13.8665736 -0.579829E-05  0.498E-02   13.47       1.0  T
   6    -13.8665740 -0.454421E-06  0.268E-03   13.47      10.0  T
   7    -13.8665741 -0.107841E-07  0.705E-04   13.47      37.9  T
   8    -13.8665741 -0.846425E-09  0.170E-04   13.47     157.5  T

   *** convergence criteria satisfied after 8 iterations ***

         #    Occupation            Energy/Eh            Energy/eV
      -------------------------------------------------------------
         1        2.0000           -0.6167888             -16.7837
       ...           ...                  ...                  ...
         7        2.0000           -0.4885798             -13.2949
         8        2.0000           -0.4723712             -12.8539
         9        2.0000           -0.4533703             -12.3368
        10        2.0000           -0.4529676             -12.3259
        11        2.0000           -0.4278085             -11.6413
        12        2.0000           -0.4265607             -11.6073
        13        2.0000           -0.4156430             -11.3102 (HOMO)
        14                          0.0795373               2.1643 (LUMO)
        15                          0.1136008               3.0912
        16                          0.1274106               3.4670
        17                          0.1472912               4.0080
        18                          0.1532394               4.1699
       ...                                ...                  ...
        26                          0.3207691               8.7286
      -------------------------------------------------------------
                  HL-Gap            0.4951803 Eh           13.4745 eV
             Fermi-level           -0.1680529 Eh           -4.5730 eV

 SCC (total)                   0 d,  0 h,  0 min,  0.013 sec
 SCC setup                      ...        0 min,  0.000 sec (  1.678%)
 Dispersion                     ...        0 min,  0.000 sec (  2.027%)
 classical contributions        ...        0 min,  0.000 sec (  0.842%)
 integral evaluation            ...        0 min,  0.002 sec ( 13.262%)
 iterations                     ...        0 min,  0.006 sec ( 45.898%)
 molecular gradient             ...        0 min,  0.005 sec ( 34.818%)
 printout                       ...        0 min,  0.000 sec (  1.331%)

         :::::::::::::::::::::::::::::::::::::::::::::::::::::
         ::                     SUMMARY                     ::
         :::::::::::::::::::::::::::::::::::::::::::::::::::::
         :: total energy             -13.660533267230 Eh    ::
         :: gradient norm              0.014376352173 Eh/a0 ::
         :: HOMO-LUMO gap             13.474542887302 eV    ::
         ::.................................................::
         :: SCC energy               -13.866568178504 Eh    ::
         :: -> isotropic ES            0.002919550329 Eh    ::
         :: -> anisotropic ES          0.005013948144 Eh    ::
         :: -> anisotropic XC          0.009067679882 Eh    ::
         :: -> dispersion             -0.006087198020 Eh    ::
         :: repulsion energy           0.206034911274 Eh    ::
         :: add. restraining           0.000000000000 Eh    ::
         :: total charge              -0.000000000000 e     ::
         :::::::::::::::::::::::::::::::::::::::::::::::::::::

      ----------------------------------------------------------- 
     |                   =====================                   |
     |                        A N C O P T                        |
     |                   =====================                   |
     |               Approximate Normal Coordinate               |
     |                Rational Function Optimizer                |
      ----------------------------------------------------------- 
      ----------------------------------------------------------- 
     |                   =====================                   |
     |                        A N C O P T                        |
     |                   =====================                   |
     |               Approximate Normal Coordinate               |
     |                Rational Function Optimizer                |
      ----------------------------------------------------------- 

          ...................................................
          :                      SETUP                      :
          :.................................................:
          :   optimization level             tight          :
          :   max. optcycles                   200          :
          :   ANC micro-cycles                  20          :
          :   degrees of freedom                36          :
          :.................................................:
          :   RF solver                   davidson          :
          :   write xtbopt.log                true          :
          :   linear?                        false          :
          :   energy convergence         0.1000000E-05 Eh   :
          :   grad. convergence          0.8000000E-03 Eh/α :
          :   maxmium RF displ.          1.0000000          :
          :   Hlow (freq-cutoff)         0.1000000E-01      :
          :   Hmax (freq-cutoff)         5.0000000          :
          :   S6 in model hess.         20.0000000          :
          ...................................................

generating ANC from exact Hessian ...
Using Lindh-Hessian (1995)
 Shifting diagonal of input Hessian by    6.1745387200866989E-003
 Lowest  eigenvalues of input Hessian
    0.000000    0.000000    0.000000    0.000000    0.000000    0.000000
    0.010000    0.013458    0.013565    0.020124    0.021554    0.046599
    0.047636    0.057757    0.058702    0.060042    0.062602    0.067058
 Highest eigenvalues
    1.110596    1.130596    1.149954    1.209632    1.219298    1.284699


........................................................................
.............................. CYCLE    1 ..............................
........................................................................

 iter      E             dE          RMSdq      gap      omega  full diag
   1    -13.8665741 -0.138666E+02  0.223E-05   13.47       0.0  T
   2    -13.8665741 -0.183675E-11  0.951E-06   13.47    2811.8  T
   3    -13.8665741 -0.301981E-13  0.416E-06   13.47    6428.3  T
     SCC iter.                  ...        0 min,  0.002 sec
     gradient                   ...        0 min,  0.005 sec
 * total energy  :   -13.6605333 Eh     change       -0.1017142E-10 Eh
   gradient norm :     0.0143760 Eh/α   predicted     0.0000000E+00 (-100.00%)
   displ. norm   :     0.1252147 α      lambda       -0.9289343E-03
   maximum displ.:     0.0985546 α      in ANC's #8, #5, #2, ...

........................................................................
.............................. CYCLE    2 ..............................
........................................................................

 iter      E             dE          RMSdq      gap      omega  full diag
   1    -13.8697282 -0.138697E+02  0.141E-01   13.66       0.0  T
   2    -13.8697294 -0.115820E-05  0.823E-02   13.66       1.0  T
   3    -13.8697296 -0.251981E-06  0.247E-03   13.66      10.8  T
   4    -13.8697296 -0.874930E-08  0.116E-03   13.66      23.0  T
   5    -13.8697296 -0.629360E-09  0.448E-04   13.66      59.6  T
   6    -13.8697296 -0.128631E-09  0.102E-04   13.66     262.2  T
     SCC iter.                  ...        0 min,  0.004 sec
     gradient                   ...        0 min,  0.005 sec
 * total energy  :   -13.6610186 Eh     change       -0.4853492E-03 Eh
   gradient norm :     0.0052502 Eh/α   predicted    -0.4717501E-03 (  -2.80%)
   displ. norm   :     0.0262081 α      lambda       -0.4819703E-04
   maximum displ.:     0.0154020 α      in ANC's #2, #5, #14, ...

........................................................................
.............................. CYCLE    3 ..............................
........................................................................

 iter      E             dE          RMSdq      gap      omega  full diag
   1    -13.8708908 -0.138709E+02  0.223E-02   13.65       0.0  T
   2    -13.8708912 -0.398937E-06  0.126E-02   13.66       2.1  T
   3    -13.8708912 -0.860197E-08  0.266E-03   13.65      10.0  T
   4    -13.8708912 -0.425519E-08  0.386E-04   13.65      69.2  T
   5    -13.8708912 -0.309695E-09  0.181E-04   13.65     147.9  T
     SCC iter.                  ...        0 min,  0.003 sec
     gradient                   ...        0 min,  0.005 sec
 * total energy  :   -13.6610491 Eh     change       -0.3052127E-04 Eh
   gradient norm :     0.0016780 Eh/α   predicted    -0.2411432E-04 ( -20.99%)
   displ. norm   :     0.0364582 α      lambda       -0.9994505E-05
   maximum displ.:     0.0310925 α      in ANC's #1, #2, #5, ...

........................................................................
.............................. CYCLE    4 ..............................
........................................................................

 iter      E             dE          RMSdq      gap      omega  full diag
   1    -13.8714510 -0.138715E+02  0.141E-02   13.63       0.0  T
   2    -13.8714512 -0.188041E-06  0.834E-03   13.63       3.2  T
   3    -13.8714512 -0.195080E-08  0.187E-03   13.63      14.3  T
   4    -13.8714512 -0.227076E-08  0.238E-04   13.63     112.3  T
   5    -13.8714512 -0.162999E-09  0.105E-04   13.63     255.2  T
     SCC iter.                  ...        0 min,  0.003 sec
     gradient                   ...        0 min,  0.005 sec
 * total energy  :   -13.6610573 Eh     change       -0.8206019E-05 Eh
   gradient norm :     0.0012039 Eh/α   predicted    -0.5001286E-05 ( -39.05%)
   displ. norm   :     0.0383383 α      lambda       -0.5242482E-05
   maximum displ.:     0.0368981 α      in ANC's #1, #2, #5, ...

........................................................................
.............................. CYCLE    5 ..............................
........................................................................

 iter      E             dE          RMSdq      gap      omega  full diag
   1    -13.8713793 -0.138714E+02  0.117E-02   13.63       0.0  T
   2    -13.8713793 -0.264873E-08  0.695E-03   13.63       3.8  T
   3    -13.8713793 -0.110895E-08  0.232E-04   13.63     115.3  T
   4    -13.8713793 -0.327081E-10  0.109E-04   13.63     245.6  T
     SCC iter.                  ...        0 min,  0.003 sec
     gradient                   ...        0 min,  0.005 sec
 * total energy  :   -13.6610657 Eh     change       -0.8321143E-05 Eh
   gradient norm :     0.0014339 Eh/α   predicted    -0.2624325E-05 ( -68.46%)
   displ. norm   :     0.0441608 α      lambda       -0.6868001E-05
   maximum displ.:     0.0430057 α      in ANC's #1, #5, #2, ...

........................................................................
.............................. CYCLE    6 ..............................
........................................................................

 iter      E             dE          RMSdq      gap      omega  full diag
   1    -13.8714337 -0.138714E+02  0.123E-02   13.62       0.0  T
   2    -13.8714337 -0.338616E-08  0.734E-03   13.62       3.6  T
   3    -13.8714337 -0.113444E-08  0.237E-04   13.62     112.9  T
   4    -13.8714337 -0.191758E-10  0.106E-04   13.62     252.3  T
     SCC iter.                  ...        0 min,  0.003 sec
     gradient                   ...        0 min,  0.005 sec
 * total energy  :   -13.6610768 Eh     change       -0.1114798E-04 Eh
   gradient norm :     0.0016134 Eh/α   predicted    -0.3437500E-05 ( -69.16%)
   displ. norm   :     0.0515309 α      lambda       -0.9358753E-05
   maximum displ.:     0.0501588 α      in ANC's #1, #5, #7, ...

........................................................................
.............................. CYCLE    7 ..............................
........................................................................

 iter      E             dE          RMSdq      gap      omega  full diag
   1    -13.8714541 -0.138715E+02  0.152E-02   13.62       0.0  T
   2    -13.8714541 -0.450032E-08  0.906E-03   13.62       3.0  T
   3    -13.8714541 -0.172734E-08  0.284E-04   13.62      94.1  T
   4    -13.8714541 -0.252882E-10  0.115E-04   13.62     233.1  T
     SCC iter.                  ...        0 min,  0.004 sec
     gradient                   ...        0 min,  0.005 sec
 * total energy  :   -13.6610920 Eh     change       -0.1521572E-04 Eh
   gradient norm :     0.0018801 Eh/α   predicted    -0.4684364E-05 ( -69.21%)
   displ. norm   :     0.0600454 α      lambda       -0.1279526E-04
   maximum displ.:     0.0585409 α      in ANC's #1, #5, #7, ...

........................................................................
.............................. CYCLE    8 ..............................
........................................................................

 iter      E             dE          RMSdq      gap      omega  full diag
   1    -13.8714816 -0.138715E+02  0.172E-02   13.62       0.0  T
   2    -13.8714817 -0.561432E-08  0.102E-02   13.62       2.6  T
   3    -13.8714817 -0.217898E-08  0.322E-04   13.62      82.9  T
   4    -13.8714817 -0.335181E-10  0.125E-04   13.62     213.9  T
     SCC iter.                  ...        0 min,  0.005 sec
     gradient                   ...        0 min,  0.005 sec
 * total energy  :   -13.6611128 Eh     change       -0.2080923E-04 Eh
   gradient norm :     0.0021480 Eh/α   predicted    -0.6407784E-05 ( -69.21%)
   displ. norm   :     0.0466954 α      lambda       -0.1747216E-04
   maximum displ.:     0.0454654 α      in ANC's #1, #5, #7, ...

........................................................................
.............................. CYCLE    9 ..............................
........................................................................

 iter      E             dE          RMSdq      gap      omega  full diag
   1    -13.8714992 -0.138715E+02  0.137E-02   13.61       0.0  T
   2    -13.8714992 -0.346725E-08  0.815E-03   13.61       3.3  T
   3    -13.8714992 -0.138973E-08  0.254E-04   13.61     105.0  T
   4    -13.8714992 -0.205045E-10  0.952E-05   13.61     280.8  T
     SCC iter.                  ...        0 min,  0.002 sec
     gradient                   ...        0 min,  0.005 sec
 * total energy  :   -13.6611313 Eh     change       -0.1844050E-04 Eh
   gradient norm :     0.0023758 Eh/α   predicted    -0.8754793E-05 ( -52.52%)
   displ. norm   :     0.0517204 α      lambda       -0.2155068E-04
   maximum displ.:     0.0503773 α      in ANC's #1, #5, #7, ...

........................................................................
.............................. CYCLE   10 ..............................
........................................................................

 iter      E             dE          RMSdq      gap      omega  full diag
   1    -13.8715092 -0.138715E+02  0.151E-02   13.61       0.0  T
   2    -13.8715092 -0.401650E-08  0.895E-03   13.61       3.0  T
   3    -13.8715092 -0.166514E-08  0.279E-04   13.61      95.7  T
   4    -13.8715092 -0.255227E-10  0.984E-05   13.61     271.5  T
     SCC iter.                  ...        0 min,  0.002 sec
     gradient                   ...        0 min,  0.003 sec
 * total energy  :   -13.6611540 Eh     change       -0.2272827E-04 Eh
   gradient norm :     0.0026097 Eh/α   predicted    -0.1080534E-04 ( -52.46%)
   displ. norm   :     0.0571566 α      lambda       -0.2648032E-04
   maximum displ.:     0.0556514 α      in ANC's #1, #5, #7, ...

........................................................................
.............................. CYCLE   11 ..............................
........................................................................

 iter      E             dE          RMSdq      gap      omega  full diag
   1    -13.8715110 -0.138715E+02  0.167E-02   13.61       0.0  T
   2    -13.8715110 -0.481005E-08  0.992E-03   13.61       2.7  T
   3    -13.8715110 -0.204103E-08  0.309E-04   13.61      86.4  T
   4    -13.8715110 -0.330918E-10  0.110E-04   13.61     242.1  T
     SCC iter.                  ...        0 min,  0.002 sec
     gradient                   ...        0 min,  0.003 sec
 * total energy  :   -13.6611819 Eh     change       -0.2788933E-04 Eh
   gradient norm :     0.0028635 Eh/α   predicted    -0.1328528E-04 ( -52.36%)
   displ. norm   :     0.0628983 α      lambda       -0.3236462E-04
   maximum displ.:     0.0612271 α      in ANC's #1, #5, #7, ...

........................................................................
.............................. CYCLE   12 ..............................
........................................................................

 iter      E             dE          RMSdq      gap      omega  full diag
   1    -13.8715039 -0.138715E+02  0.184E-02   13.60       0.0  T
   2    -13.8715039 -0.574410E-08  0.109E-02   13.60       2.4  T
   3    -13.8715039 -0.246811E-08  0.341E-04   13.60      78.3  T
   4    -13.8715039 -0.451266E-10  0.129E-04   13.60     206.5  T
     SCC iter.                  ...        0 min,  0.002 sec
     gradient                   ...        0 min,  0.003 sec
 * total energy  :   -13.6612159 Eh     change       -0.3401747E-04 Eh
   gradient norm :     0.0031322 Eh/α   predicted    -0.1624502E-04 ( -52.25%)
   displ. norm   :     0.0688680 α      lambda       -0.3925785E-04
   maximum displ.:     0.0670159 α      in ANC's #1, #5, #7, ...

........................................................................
.............................. CYCLE   13 ..............................
........................................................................

 iter      E             dE          RMSdq      gap      omega  full diag
   1    -13.8714858 -0.138715E+02  0.202E-02   13.60       0.0  T
   2    -13.8714858 -0.688907E-08  0.120E-02   13.60       2.2  T
   3    -13.8714858 -0.295631E-08  0.375E-04   13.60      71.2  T
   4    -13.8714858 -0.679776E-10  0.157E-04   13.60     170.3  T
     SCC iter.                  ...        0 min,  0.002 sec
     gradient                   ...        0 min,  0.003 sec
 * total energy  :   -13.6612571 Eh     change       -0.4117092E-04 Eh
   gradient norm :     0.0034147 Eh/α   predicted    -0.1972194E-04 ( -52.10%)
   displ. norm   :     0.0749068 α      lambda       -0.4718561E-04
   maximum displ.:     0.0728645 α      in ANC's #1, #5, #7, ...

........................................................................
.............................. CYCLE   14 ..............................
........................................................................

 iter      E             dE          RMSdq      gap      omega  full diag
   1    -13.8714553 -0.138715E+02  0.220E-02   13.59       0.0  T
   2    -13.8714553 -0.829598E-08  0.131E-02   13.59       2.0  T
   3    -13.8714553 -0.349012E-08  0.411E-04   13.59      65.0  T
   4    -13.8714553 -0.109520E-09  0.190E-04   13.59     140.8  T
     SCC iter.                  ...        0 min,  0.002 sec
     gradient                   ...        0 min,  0.002 sec
 * total energy  :   -13.6613064 Eh     change       -0.4934405E-04 Eh
   gradient norm :     0.0037071 Eh/α   predicted    -0.2372541E-04 ( -51.92%)
   displ. norm   :     0.0808263 α      lambda       -0.5607665E-04
   maximum displ.:     0.0785854 α      in ANC's #1, #5, #7, ...

........................................................................
.............................. CYCLE   15 ..............................
........................................................................

 iter      E             dE          RMSdq      gap      omega  full diag
   1    -13.8714118 -0.138714E+02  0.238E-02   13.59       0.0  T
   2    -13.8714118 -0.100364E-07  0.141E-02   13.59       1.9  T
   3    -13.8714118 -0.404718E-08  0.448E-04   13.59      59.6  T
   4    -13.8714118 -0.177097E-09  0.223E-04   13.59     119.8  T
     SCC iter.                  ...        0 min,  0.002 sec
     gradient                   ...        0 min,  0.002 sec
 * total energy  :   -13.6613649 Eh     change       -0.5844504E-04 Eh
   gradient norm :     0.0040048 Eh/α   predicted    -0.2822276E-04 ( -51.71%)
   displ. norm   :     0.0863875 α      lambda       -0.6576652E-04
   maximum displ.:     0.0839421 α      in ANC's #1, #5, #7, ...

........................................................................
.............................. CYCLE   16 ..............................
........................................................................

 iter      E             dE          RMSdq      gap      omega  full diag
   1    -13.8713560 -0.138714E+02  0.255E-02   13.58       0.0  T
   2    -13.8713560 -0.121586E-07  0.151E-02   13.58       1.8  T
   3    -13.8713560 -0.459178E-08  0.485E-04   13.58      55.1  T
   4    -13.8713560 -0.276399E-09  0.253E-04   13.58     105.8  T
     SCC iter.                  ...        0 min,  0.002 sec
     gradient                   ...        0 min,  0.002 sec
 * total energy  :   -13.6614331 Eh     change       -0.6826810E-04 Eh
   gradient norm :     0.0043018 Eh/α   predicted    -0.3312650E-04 ( -51.48%)
   displ. norm   :     0.0913402 α      lambda       -0.7593862E-04
   maximum displ.:     0.0886863 α      in ANC's #1, #5, #7, ...

........................................................................
.............................. CYCLE   17 ..............................
........................................................................

 iter      E             dE          RMSdq      gap      omega  full diag
   1    -13.8712904 -0.138713E+02  0.270E-02   13.58       0.0  T
   2    -13.8712904 -0.146595E-07  0.160E-02   13.58       1.7  T
   3    -13.8712904 -0.508250E-08  0.521E-04   13.58      51.3  T
   4    -13.8712904 -0.410294E-09  0.277E-04   13.58      96.4  T
     SCC iter.                  ...        0 min,  0.002 sec
     gradient                   ...        0 min,  0.002 sec
 * total energy  :   -13.6615116 Eh     change       -0.7849352E-04 Eh
   gradient norm :     0.0045906 Eh/α   predicted    -0.3828798E-04 ( -51.22%)
   displ. norm   :     0.0954431 α      lambda       -0.8622299E-04
   maximum displ.:     0.0925778 α      in ANC's #1, #5, #7, ...

........................................................................
.............................. CYCLE   18 ..............................
........................................................................

 iter      E             dE          RMSdq      gap      omega  full diag
   1    -13.8712196 -0.138712E+02  0.282E-02   13.58       0.0  T
   2    -13.8712196 -0.174445E-07  0.167E-02   13.58       1.6  T
   3    -13.8712196 -0.547677E-08  0.555E-04   13.58      48.2  T
   4    -13.8712196 -0.576451E-09  0.296E-04   13.58      90.3  T
     SCC iter.                  ...        0 min,  0.002 sec
     gradient                   ...        0 min,  0.002 sec
 * total energy  :   -13.6616003 Eh     change       -0.8870225E-04 Eh
   gradient norm :     0.0048631 Eh/α   predicted    -0.4350312E-04 ( -50.96%)
   displ. norm   :     0.0985105 α      lambda       -0.9613036E-04
   maximum displ.:     0.0954319 α      in ANC's #1, #5, #7, ...

........................................................................
.............................. CYCLE   19 ..............................
........................................................................

 iter      E             dE          RMSdq      gap      omega  full diag
   1    -13.8711492 -0.138711E+02  0.291E-02   13.57       0.0  T
   2    -13.8711493 -0.203177E-07  0.173E-02   13.57       1.5  T
   3    -13.8711493 -0.574293E-08  0.584E-04   13.57      45.8  T
   4    -13.8711493 -0.764533E-09  0.310E-04   13.57      86.3  T
     SCC iter.                  ...        0 min,  0.002 sec
     gradient                   ...        0 min,  0.002 sec
 * total energy  :   -13.6616988 Eh     change       -0.9842383E-04 Eh
   gradient norm :     0.0051111 Eh/α   predicted    -0.4853218E-04 ( -50.69%)
   displ. norm   :     0.1004388 α      lambda       -0.1052038E-03
   maximum displ.:     0.0971454 α      in ANC's #1, #5, #7, ...

........................................................................
.............................. CYCLE   20 ..............................
........................................................................

 iter      E             dE          RMSdq      gap      omega  full diag
   1    -13.8710861 -0.138711E+02  0.297E-02   13.57       0.0  T
   2    -13.8710861 -0.230092E-07  0.176E-02   13.57       1.5  T
   3    -13.8710861 -0.586649E-08  0.607E-04   13.57      44.0  T
   4    -13.8710861 -0.957360E-09  0.318E-04   13.57      84.1  T
     SCC iter.                  ...        0 min,  0.002 sec
     gradient                   ...        0 min,  0.002 sec
 * total energy  :   -13.6618060 Eh     change       -0.1071974E-03 Eh
   gradient norm :     0.0053270 Eh/α   predicted    -0.5313122E-04 ( -50.44%)
   displ. norm   :     0.1012209 α      lambda       -0.1130142E-03
   maximum displ.:     0.0977132 α      in ANC's #1, #5, #7, ...
 * RMSD in coord.:     0.3394100 α      energy gain  -0.1272691E-02 Eh

generating ANC from exact Hessian ...
Using Lindh-Hessian (1995)
 Shifting diagonal of input Hessian by    6.1068967705163006E-003
 Lowest  eigenvalues of input Hessian
    0.000000    0.000000    0.000000    0.000000    0.000000    0.000000
    0.010000    0.013324    0.013695    0.019335    0.021502    0.046775
    0.047211    0.057128    0.058819    0.059326    0.061573    0.067739
 Highest eigenvalues
    1.131474    1.151354    1.169821    1.207926    1.208277    1.260291


........................................................................
.............................. CYCLE   21 ..............................
........................................................................

 iter      E             dE          RMSdq      gap      omega  full diag
   1    -13.8710361 -0.138710E+02  0.299E-02   13.57       0.0  T
   2    -13.8710362 -0.252395E-07  0.177E-02   13.57       1.5  T
   3    -13.8710362 -0.585297E-08  0.623E-04   13.57      42.9  T
   4    -13.8710362 -0.113435E-08  0.322E-04   13.57      83.1  T
     SCC iter.                  ...        0 min,  0.002 sec
     gradient                   ...        0 min,  0.002 sec
 * total energy  :   -13.6619206 Eh     change       -0.1146328E-03 Eh
   gradient norm :     0.0055053 Eh/α   predicted     0.0000000E+00 (-100.00%)
   displ. norm   :     0.1158128 α      lambda       -0.1920711E-03
   maximum displ.:     0.1123580 α      in ANC's #1, #3, #8, ...

........................................................................
.............................. CYCLE   22 ..............................
........................................................................

 iter      E             dE          RMSdq      gap      omega  full diag
   1    -13.8722185 -0.138722E+02  0.363E-02   13.63       0.0  T
   2    -13.8722186 -0.934430E-07  0.216E-02   13.63       1.2  T
   3    -13.8722186 -0.177436E-07  0.114E-03   13.63      23.4  T
   4    -13.8722186 -0.404970E-08  0.577E-04   13.63      46.3  T
   5    -13.8722186 -0.189704E-09  0.158E-04   13.63     168.9  T
     SCC iter.                  ...        0 min,  0.003 sec
     gradient                   ...        0 min,  0.002 sec
 * total energy  :   -13.6620914 Eh     change       -0.1708187E-03 Eh
   gradient norm :     0.0024702 Eh/α   predicted    -0.9732223E-04 ( -43.03%)
   displ. norm   :     0.1638844 α      lambda       -0.2245954E-03
   maximum displ.:     0.1557187 α      in ANC's #1, #5, #3, ...

........................................................................
.............................. CYCLE   23 ..............................
........................................................................

 iter      E             dE          RMSdq      gap      omega  full diag
   1    -13.8730106 -0.138730E+02  0.553E-02   13.70       0.0  T
   2    -13.8730109 -0.245783E-06  0.328E-02   13.70       1.0  T
   3    -13.8730109 -0.195664E-07  0.148E-03   13.70      18.0  T
   4    -13.8730109 -0.111058E-07  0.651E-04   13.70      41.1  T
   5    -13.8730109 -0.250456E-09  0.269E-04   13.70      99.5  T
     SCC iter.                  ...        0 min,  0.003 sec
     gradient                   ...        0 min,  0.002 sec
 * total energy  :   -13.6623037 Eh     change       -0.2122686E-03 Eh
   gradient norm :     0.0023452 Eh/α   predicted    -0.1153115E-03 ( -45.68%)
   displ. norm   :     0.2384262 α      lambda       -0.3065038E-03
   maximum displ.:     0.2240467 α      in ANC's #1, #5, #3, ...

........................................................................
.............................. CYCLE   24 ..............................
........................................................................

 iter      E             dE          RMSdq      gap      omega  full diag
   1    -13.8730921 -0.138731E+02  0.747E-02   13.76       0.0  T
   2    -13.8730926 -0.510919E-06  0.443E-02   13.76       1.0  T
   3    -13.8730927 -0.271454E-07  0.214E-03   13.76      12.5  T
   4    -13.8730927 -0.229521E-07  0.806E-04   13.76      33.2  T
   5    -13.8730927 -0.401833E-09  0.362E-04   13.76      73.9  T
     SCC iter.                  ...        0 min,  0.004 sec
     gradient                   ...        0 min,  0.002 sec
 * total energy  :   -13.6626077 Eh     change       -0.3040347E-03 Eh
   gradient norm :     0.0054966 Eh/α   predicted    -0.1619633E-03 ( -46.73%)
   displ. norm   :     0.5652273 α      lambda       -0.7321059E-03
   maximum displ.:     0.5310910 α      in ANC's #1, #5, #3, ...

........................................................................
.............................. CYCLE   25 ..............................
........................................................................

 iter      E             dE          RMSdq      gap      omega  full diag
   1    -13.8700380 -0.138700E+02  0.175E-01   13.79       0.0  T
   2    -13.8700430 -0.493431E-05  0.103E-01   13.79       1.0  T
   3    -13.8700431 -0.133477E-06  0.733E-03   13.78       3.6  T
   4    -13.8700433 -0.219854E-06  0.213E-03   13.79      12.5  T
   5    -13.8700433 -0.284437E-08  0.107E-03   13.79      25.0  T
   6    -13.8700433 -0.247237E-09  0.119E-04   13.79     225.2  T
   7    -13.8700433 -0.647482E-11  0.657E-06   13.79    4065.0  T
     SCC iter.                  ...        0 min,  0.004 sec
     gradient                   ...        0 min,  0.002 sec
 * total energy  :   -13.6632480 Eh     change       -0.6402437E-03 Eh
   gradient norm :     0.0134424 Eh/α   predicted    -0.4830197E-03 ( -24.56%)
   displ. norm   :     0.3376724 α      lambda       -0.3892462E-03
   maximum displ.:     0.3180153 α      in ANC's #1, #5, #3, ...

........................................................................
.............................. CYCLE   26 ..............................
........................................................................

 iter      E             dE          RMSdq      gap      omega  full diag
   1    -13.8685288 -0.138685E+02  0.971E-02   13.76       0.0  T
   2    -13.8685297 -0.907148E-06  0.574E-02   13.76       1.0  T
   3    -13.8685298 -0.562123E-07  0.327E-03   13.76       8.2  T
   4    -13.8685298 -0.470201E-07  0.121E-03   13.76      22.0  T
   5    -13.8685298 -0.644802E-09  0.522E-04   13.76      51.2  T
   6    -13.8685298 -0.724789E-10  0.724E-05   13.76     369.0  T
     SCC iter.                  ...        0 min,  0.004 sec
     gradient                   ...        0 min,  0.002 sec
 * total energy  :   -13.6635639 Eh     change       -0.3159176E-03 Eh
   gradient norm :     0.0164227 Eh/α   predicted    -0.2168144E-03 ( -31.37%)
   displ. norm   :     0.3049106 α      lambda       -0.4469214E-03
   maximum displ.:     0.2894644 α      in ANC's #1, #5, #3, ...

........................................................................
.............................. CYCLE   27 ..............................
........................................................................

 iter      E             dE          RMSdq      gap      omega  full diag
   1    -13.8692955 -0.138693E+02  0.839E-02   13.75       0.0  T
   2    -13.8692956 -0.161447E-06  0.498E-02   13.75       1.0  T
   3    -13.8692957 -0.550396E-07  0.156E-03   13.75      17.1  T
   4    -13.8692957 -0.884397E-09  0.704E-04   13.75      37.9  T
   5    -13.8692957 -0.141505E-09  0.102E-04   13.75     262.5  T
     SCC iter.                  ...        0 min,  0.003 sec
     gradient                   ...        0 min,  0.002 sec
 * total energy  :   -13.6639433 Eh     change       -0.3793930E-03 Eh
   gradient norm :     0.0144605 Eh/α   predicted    -0.2442353E-03 ( -35.62%)
   displ. norm   :     0.4494569 α      lambda       -0.7627237E-03
   maximum displ.:     0.4293886 α      in ANC's #1, #5, #24, ...

........................................................................
.............................. CYCLE   28 ..............................
........................................................................

 iter      E             dE          RMSdq      gap      omega  full diag
   1    -13.8720420 -0.138720E+02  0.132E-01   13.74       0.0  T
   2    -13.8720436 -0.160875E-05  0.782E-02   13.74       1.0  T
   3    -13.8720437 -0.110243E-06  0.380E-03   13.74       7.0  T
   4    -13.8720437 -0.480412E-07  0.144E-03   13.74      18.6  T
   5    -13.8720437 -0.174268E-08  0.641E-04   13.74      41.7  T
   6    -13.8720437 -0.162524E-09  0.107E-04   13.74     250.2  T
     SCC iter.                  ...        0 min,  0.003 sec
     gradient                   ...        0 min,  0.002 sec
 * total energy  :   -13.6644946 Eh     change       -0.5512986E-03 Eh
   gradient norm :     0.0071861 Eh/α   predicted    -0.4583941E-03 ( -16.85%)
   displ. norm   :     0.2921828 α      lambda       -0.3657216E-03
   maximum displ.:     0.2740199 α      in ANC's #1, #24, #8, ...

........................................................................
.............................. CYCLE   29 ..............................
........................................................................

 iter      E             dE          RMSdq      gap      omega  full diag
   1    -13.8748526 -0.138749E+02  0.947E-02   13.74       0.0  T
   2    -13.8748540 -0.142769E-05  0.560E-02   13.74       1.0  T
   3    -13.8748541 -0.491035E-07  0.348E-03   13.74       7.7  T
   4    -13.8748541 -0.366898E-07  0.104E-03   13.74      25.8  T
   5    -13.8748541 -0.107846E-08  0.539E-04   13.74      49.6  T
   6    -13.8748541 -0.735572E-10  0.676E-05   13.74     395.6  T
     SCC iter.                  ...        0 min,  0.003 sec
     gradient                   ...        0 min,  0.002 sec
 * total energy  :   -13.6647452 Eh     change       -0.2506094E-03 Eh
   gradient norm :     0.0054491 Eh/α   predicted    -0.1984735E-03 ( -20.80%)
   displ. norm   :     0.2804541 α      lambda       -0.1646687E-03
   maximum displ.:     0.2634463 α      in ANC's #1, #3, #24, ...

........................................................................
.............................. CYCLE   30 ..............................
........................................................................

 iter      E             dE          RMSdq      gap      omega  full diag
   1    -13.8739983 -0.138740E+02  0.901E-02   13.71       0.0  T
   2    -13.8739984 -0.154554E-06  0.535E-02   13.71       1.0  T
   3    -13.8739985 -0.711902E-07  0.173E-03   13.71      15.5  T
   4    -13.8739985 -0.926724E-09  0.290E-04   13.71      92.3  T
   5    -13.8739985 -0.497735E-11  0.101E-04   13.71     264.4  T
     SCC iter.                  ...        0 min,  0.003 sec
     gradient                   ...        0 min,  0.002 sec
 * total energy  :   -13.6648511 Eh     change       -0.1059543E-03 Eh
   gradient norm :     0.0077673 Eh/α   predicted    -0.8881011E-04 ( -16.18%)
   displ. norm   :     0.2123879 α      lambda       -0.2033121E-03
   maximum displ.:     0.1532876 α      in ANC's #1, #3, #24, ...

........................................................................
.............................. CYCLE   31 ..............................
........................................................................

 iter      E             dE          RMSdq      gap      omega  full diag
   1    -13.8773571 -0.138774E+02  0.711E-02   13.74       0.0  T
   2    -13.8773581 -0.973511E-06  0.421E-02   13.74       1.0  T
   3    -13.8773581 -0.474836E-07  0.317E-03   13.74       8.4  T
   4    -13.8773581 -0.253505E-07  0.105E-03   13.74      25.4  T
   5    -13.8773581 -0.531990E-09  0.561E-04   13.74      47.7  T
   6    -13.8773581 -0.543885E-10  0.422E-05   13.74     633.1  T
     SCC iter.                  ...        0 min,  0.003 sec
     gradient                   ...        0 min,  0.002 sec
 * total energy  :   -13.6649598 Eh     change       -0.1087149E-03 Eh
   gradient norm :     0.0089870 Eh/α   predicted    -0.1062417E-03 (  -2.27%)
   displ. norm   :     0.2229314 α      lambda       -0.1201465E-03
   maximum displ.:     0.1830645 α      in ANC's #1, #3, #24, ...

........................................................................
.............................. CYCLE   32 ..............................
........................................................................

 iter      E             dE          RMSdq      gap      omega  full diag
   1    -13.8754666 -0.138755E+02  0.655E-02   13.74       0.0  T
   2    -13.8754671 -0.540037E-06  0.390E-02   13.74       1.0  T
   3    -13.8754671 -0.395896E-07  0.212E-03   13.74      12.6  T
   4    -13.8754672 -0.910377E-08  0.868E-04   13.74      30.8  T
   5    -13.8754672 -0.331912E-09  0.415E-04   13.74      64.4  T
     SCC iter.                  ...        0 min,  0.003 sec
     gradient                   ...        0 min,  0.002 sec
 * total energy  :   -13.6650441 Eh     change       -0.8420660E-04 Eh
   gradient norm :     0.0067414 Eh/α   predicted    -0.6305868E-04 ( -25.11%)
   displ. norm   :     0.1553484 α      lambda       -0.1194887E-03
   maximum displ.:     0.1275523 α      in ANC's #3, #1, #11, ...

........................................................................
.............................. CYCLE   33 ..............................
........................................................................

 iter      E             dE          RMSdq      gap      omega  full diag
   1    -13.8751361 -0.138751E+02  0.456E-02   13.77       0.0  T
   2    -13.8751367 -0.598010E-06  0.274E-02   13.77       1.0  T
   3    -13.8751367  0.360330E-08  0.311E-03   13.77       8.6  T
   4    -13.8751367 -0.376209E-07  0.546E-04   13.77      48.9  T
   5    -13.8751367 -0.235262E-09  0.272E-04   13.77      98.2  T
     SCC iter.                  ...        0 min,  0.003 sec
     gradient                   ...        0 min,  0.002 sec
 * total energy  :   -13.6651147 Eh     change       -0.7065708E-04 Eh
   gradient norm :     0.0020055 Eh/α   predicted    -0.6118764E-04 ( -13.40%)
   displ. norm   :     0.0462513 α      lambda       -0.1998634E-04
   maximum displ.:     0.0398497 α      in ANC's #3, #6, #1, ...

........................................................................
.............................. CYCLE   34 ..............................
........................................................................

 iter      E             dE          RMSdq      gap      omega  full diag
   1    -13.8758429 -0.138758E+02  0.169E-02   13.80       0.0  T
   2    -13.8758430 -0.133059E-07  0.101E-02   13.80       2.7  T
   3    -13.8758430 -0.615641E-08  0.548E-04   13.80      48.8  T
   4    -13.8758430 -0.737757E-10  0.214E-04   13.80     124.7  T
     SCC iter.                  ...        0 min,  0.002 sec
     gradient                   ...        0 min,  0.002 sec
 * total energy  :   -13.6651251 Eh     change       -0.1043938E-04 Eh
   gradient norm :     0.0012797 Eh/α   predicted    -0.1001677E-04 (  -4.05%)
   displ. norm   :     0.0139225 α      lambda       -0.3271626E-05
   maximum displ.:     0.0096316 α      in ANC's #3, #10, #11, ...

........................................................................
.............................. CYCLE   35 ..............................
........................................................................

 iter      E             dE          RMSdq      gap      omega  full diag
   1    -13.8762114 -0.138762E+02  0.807E-03   13.81       0.0  T
   2    -13.8762115 -0.378888E-07  0.451E-03   13.81       5.9  T
   3    -13.8762115 -0.192150E-08  0.106E-03   13.81      25.1  T
   4    -13.8762115 -0.147697E-08  0.227E-04   13.81     117.9  T
   5    -13.8762115 -0.695977E-11  0.105E-04   13.81     253.4  T
     SCC iter.                  ...        0 min,  0.002 sec
     gradient                   ...        0 min,  0.002 sec
 * total energy  :   -13.6651264 Eh     change       -0.1247581E-05 Eh
   gradient norm :     0.0008589 Eh/α   predicted    -0.1637439E-05 (  31.25%)
   displ. norm   :     0.0375290 α      lambda       -0.1932719E-05
   maximum displ.:     0.0298944 α      in ANC's #1, #3, #24, ...

........................................................................
.............................. CYCLE   36 ..............................
........................................................................

 iter      E             dE          RMSdq      gap      omega  full diag
   1    -13.8758183 -0.138758E+02  0.131E-02   13.81       0.0  T
   2    -13.8758183 -0.343554E-07  0.770E-03   13.81       3.5  T
   3    -13.8758183 -0.172633E-08  0.794E-04   13.81      33.6  T
   4    -13.8758183 -0.173282E-08  0.234E-04   13.81     114.3  T
     SCC iter.                  ...        0 min,  0.005 sec
     gradient                   ...        0 min,  0.002 sec
 * total energy  :   -13.6651268 Eh     change       -0.3853092E-06 Eh
   gradient norm :     0.0007830 Eh/α   predicted    -0.9669305E-06 ( 150.95%)
   displ. norm   :     0.0233391 α      lambda       -0.1146070E-05
   maximum displ.:     0.0169419 α      in ANC's #1, #3, #24, ...

   *** GEOMETRY OPTIMIZATION CONVERGED AFTER 36 ITERATIONS ***

------------------------------------------------------------------------
 total energy gain   :        -0.0045935 Eh       -2.8825 kcal/mol
 total RMSD          :         1.1709094 a0        0.6196 Å
 total power (kW/mol):        -0.3350074 (step)  -41.5381 (real)
------------------------------------------------------------------------

 ANCopt (total)                0 d,  0 h,  0 min,  0.290 sec
 optimizer setup                ...        0 min,  0.000 sec (  0.042%)
 model hessian                  ...        0 min,  0.012 sec (  4.129%)
 ANC generation                 ...        0 min,  0.001 sec (  0.357%)
 coordinate transformation      ...        0 min,  0.000 sec (  0.111%)
 single point calculation       ...        0 min,  0.260 sec ( 89.640%)
 optimization log               ...        0 min,  0.006 sec (  1.948%)
 hessian update                 ...        0 min,  0.002 sec (  0.838%)
 rational function              ...        0 min,  0.006 sec (  2.102%)

================
 final structure:
================
14
 xtb: 6.7.1 (edcfbbe)
C           -3.06322602588598        0.07141853866573        0.84421454039435
H           -2.64733633079567       -0.93347653791659        0.85112314441732
H           -3.19144995325438        0.38298486807252       -0.19078568750338
H           -4.04416819096660        0.04059710693442        1.31492968416034
C           -2.14627811034665        1.03733623361107        1.58392517754131
H           -1.16239661637262        1.03981670177156        1.10855061366153
H           -2.01435156804543        0.69602297792651        2.61355591792913
C           -2.70258918561232        2.45893265025021        1.59240460241343
H           -2.83785802251516        2.79751800637457        0.56232100649070
H           -3.68481580655935        2.45850182908316        2.07122551942647
C           -1.78234397072677        3.42617572034829        2.32626550548671
H           -0.80322927271861        3.45659097195122        1.85176599736359
H           -2.19834693071973        4.43102526566945        2.31955750170080
H           -1.65010030548087        3.11589686725783        3.36116110651729

 Bond Distances (Angstroems)
 ---------------------------
C1-H2=1.0876         C1-H3=1.0885         C1-H4=1.0885         C1-C5=1.5235         H2-C1=1.0876         H3-C1=1.0885         
H4-C1=1.0885         C5-C1=1.5235         C5-H6=1.0927         C5-H7=1.0927         C5-C8=1.5266         H6-C5=1.0927         
H7-C5=1.0927         C8-C5=1.5266         C8-H9=1.0927         C8-H10=1.0927        C8-C11=1.5235        H9-C8=1.0927         
H10-C8=1.0927        C11-C8=1.5235        C11-H12=1.0885       C11-H13=1.0876       C11-H14=1.0885       H12-C11=1.0885       
H13-C11=1.0876       H14-C11=1.0885       
 C  H  Rav=1.0900 sigma=0.0023  Rmin=1.0876  Rmax=1.0927    10
 C  C  Rav=1.5245 sigma=0.0015  Rmin=1.5235  Rmax=1.5266     3

 selected bond angles (degree)
 --------------------
H3-C1-H2=108.40                H4-C1-H2=108.40                H4-C1-H3=108.25                C5-C1-H2=110.65                
C5-C1-H3=110.56                C5-C1-H4=110.51                H6-C5-C1=109.40                H7-C5-C1=109.40                
H7-C5-H6=107.57                C8-C5-C1=111.95                C8-C5-H6=109.17                C8-C5-H7=109.25                
H9-C8-C5=109.17                H10-C8-C5=109.25               H10-C8-H9=107.57               C11-C8-C5=111.95               
C11-C8-H9=109.40               C11-C8-H10=109.40              

 selected dihedral angles (degree)
 ---------------------------------
H6-C5-C1-H2= 58.85            H6-C5-C1-H3=298.76            H6-C5-C1-H4=178.93            H7-C5-C1-H2=301.25            
H7-C5-C1-H3=181.15            H7-C5-C1-H4= 61.32            C8-C5-C1-H2=180.00            C8-C5-C1-H3= 59.91            
C8-C5-C1-H4=300.08            H9-C8-C5-C1=301.56            H9-C8-C5-H6= 62.84            H9-C8-C5-H7=180.23            
H10-C8-C5-C1= 58.95           H10-C8-C5-H6=180.23           H10-C8-C5-H7=297.61           C11-C8-C5-C1=180.28           
C11-C8-C5-H6=301.56           C11-C8-C5-H7= 58.95           
           -------------------------------------------------
          |                Final Singlepoint                |
           -------------------------------------------------

          ...................................................
          :                      SETUP                      :
          :.................................................:
          :  # basis functions                  26          :
          :  # atomic orbitals                  26          :
          :  # shells                           18          :
          :  # electrons                        26          :
          :  max. iterations                   250          :
          :  Hamiltonian                  GFN2-xTB          :
          :  restarted?                      false          :
          :  GBSA solvation                  false          :
          :  PC potential                    false          :
          :  electronic temp.          300.0000000     K    :
          :  accuracy                    1.0000000          :
          :  -> integral cutoff          0.2500000E+02      :
          :  -> integral neglect         0.1000000E-07      :
          :  -> SCF convergence          0.1000000E-05 Eh   :
          :  -> wf. convergence          0.1000000E-03 e    :
          :  Broyden damping             0.4000000          :
          :  net charge                          0          :
          :  unpaired electrons                  0          :
          ...................................................

 iter      E             dE          RMSdq      gap      omega  full diag
   1    -13.8758183 -0.138758E+02  0.103E-04   13.81       0.0  T
   2    -13.8758183 -0.224532E-11  0.591E-05   13.81     452.3  T
   3    -13.8758183 -0.136779E-12  0.721E-06   13.81    3708.6  T

   *** convergence criteria satisfied after 3 iterations ***

         #    Occupation            Energy/Eh            Energy/eV
      -------------------------------------------------------------
         1        2.0000           -0.6179894             -16.8163
       ...           ...                  ...                  ...
         7        2.0000           -0.4878933             -13.2763
         8        2.0000           -0.4789598             -13.0332
         9        2.0000           -0.4546728             -12.3723
        10        2.0000           -0.4394796             -11.9588
        11        2.0000           -0.4367401             -11.8843
        12        2.0000           -0.4258103             -11.5869
        13        2.0000           -0.4195281             -11.4159 (HOMO)
        14                          0.0879311               2.3927 (LUMO)
        15                          0.1268051               3.4505
        16                          0.1273836               3.4663
        17                          0.1525806               4.1519
        18                          0.1626427               4.4257
       ...                                ...                  ...
        26                          0.3110735               8.4647
      -------------------------------------------------------------
                  HL-Gap            0.5074591 Eh           13.8087 eV
             Fermi-level           -0.1657985 Eh           -4.5116 eV

 SCC (total)                   0 d,  0 h,  0 min,  0.005 sec
 SCC setup                      ...        0 min,  0.000 sec (  2.688%)
 Dispersion                     ...        0 min,  0.000 sec (  2.146%)
 classical contributions        ...        0 min,  0.000 sec (  0.916%)
 integral evaluation            ...        0 min,  0.001 sec ( 13.209%)
 iterations                     ...        0 min,  0.002 sec ( 35.577%)
 molecular gradient             ...        0 min,  0.002 sec ( 38.722%)
 printout                       ...        0 min,  0.000 sec (  6.346%)

         :::::::::::::::::::::::::::::::::::::::::::::::::::::
         ::                     SUMMARY                     ::
         :::::::::::::::::::::::::::::::::::::::::::::::::::::
         :: total energy             -13.665126780623 Eh    ::
         :: gradient norm              0.000782292006 Eh/a0 ::
         :: HOMO-LUMO gap             13.808666280249 eV    ::
         ::.................................................::
         :: SCC energy               -13.875814416534 Eh    ::
         :: -> isotropic ES            0.002994201687 Eh    ::
         :: -> anisotropic ES          0.004915010710 Eh    ::
         :: -> anisotropic XC          0.009068192979 Eh    ::
         :: -> dispersion             -0.006049407079 Eh    ::
         :: repulsion energy           0.210687635911 Eh    ::
         :: add. restraining           0.000000000000 Eh    ::
         :: total charge              -0.000000000000 e     ::
         :::::::::::::::::::::::::::::::::::::::::::::::::::::

           -------------------------------------------------
          |                Property Printout                |
           -------------------------------------------------

    * Orbital Energies and Occupations

         #    Occupation            Energy/Eh            Energy/eV
      -------------------------------------------------------------
         1        2.0000           -0.6179894             -16.8163
         2        2.0000           -0.5989791             -16.2991
         3        2.0000           -0.5678998             -15.4533
         4        2.0000           -0.5523920             -15.0314
         5        2.0000           -0.5138401             -13.9823
         6        2.0000           -0.4918820             -13.3848
         7        2.0000           -0.4878933             -13.2763
         8        2.0000           -0.4789598             -13.0332
         9        2.0000           -0.4546728             -12.3723
        10        2.0000           -0.4394796             -11.9588
        11        2.0000           -0.4367401             -11.8843
        12        2.0000           -0.4258103             -11.5869
        13        2.0000           -0.4195281             -11.4159 (HOMO)
        14                          0.0879311               2.3927 (LUMO)
        15                          0.1268051               3.4505
        16                          0.1273836               3.4663
        17                          0.1525806               4.1519
        18                          0.1626427               4.4257
        19                          0.1833327               4.9887
        20                          0.1933990               5.2627
        21                          0.1965271               5.3478
        22                          0.2245463               6.1102
        23                          0.2548993               6.9362
        24                          0.2639735               7.1831
       ...                                ...                  ...
        26                          0.3110735               8.4647
      -------------------------------------------------------------
                  HL-Gap            0.5074591 Eh           13.8087 eV
             Fermi-level           -0.1657985 Eh           -4.5116 eV

     #   Z          covCN         q      C6AA      α(0)
     1   6 C        3.752    -0.102    22.509     6.766
     2   1 H        0.925     0.032     2.553     2.499
     3   1 H        0.925     0.033     2.551     2.498
     4   1 H        0.925     0.033     2.551     2.498
     5   6 C        3.801    -0.053    21.533     6.607
     6   1 H        0.924     0.029     2.600     2.522
     7   1 H        0.924     0.029     2.601     2.522
     8   6 C        3.801    -0.053    21.533     6.607
     9   1 H        0.924     0.029     2.600     2.522
    10   1 H        0.924     0.029     2.601     2.522
    11   6 C        3.752    -0.102    22.509     6.766
    12   1 H        0.925     0.033     2.551     2.498
    13   1 H        0.925     0.032     2.553     2.499
    14   1 H        0.925     0.033     2.551     2.498

 Mol. C6AA /au·bohr⁶  :       1207.544133
 Mol. C8AA /au·bohr⁸  :      24480.949131
 Mol. α(0) /au        :         51.820559


Wiberg/Mayer (AO) data.
largest (>0.10) Wiberg bond orders for each atom

 ---------------------------------------------------------------------------
     #   Z sym  total        # sym  WBO       # sym  WBO       # sym  WBO
 ---------------------------------------------------------------------------
     1   6 C    3.997 --     5 C    1.019     4 H    0.988     3 H    0.988
                             2 H    0.988
     2   1 H    0.999 --     1 C    0.988
     3   1 H    0.999 --     1 C    0.988
     4   1 H    0.999 --     1 C    0.988
     5   6 C    3.998 --     1 C    1.019     8 C    1.009     7 H    0.979
                             6 H    0.979
     6   1 H    0.999 --     5 C    0.979
     7   1 H    0.999 --     5 C    0.979
     8   6 C    3.998 --    11 C    1.019     5 C    1.009    10 H    0.979
                             9 H    0.979
     9   1 H    0.999 --     8 C    0.979
    10   1 H    0.999 --     8 C    0.979
    11   6 C    3.997 --     8 C    1.019    14 H    0.988    12 H    0.988
                            13 H    0.988
    12   1 H    0.999 --    11 C    0.988
    13   1 H    0.999 --    11 C    0.988
    14   1 H    0.999 --    11 C    0.988
 ---------------------------------------------------------------------------

Topologies differ in total number of bonds
Writing topology from bond orders to xtbtopo.mol

molecular dipole:
                 x           y           z       tot (Debye)
 q only:        0.000       0.000      -0.000
   full:        0.000       0.000      -0.000       0.000
molecular quadrupole (traceless):
                xx          xy          yy          xz          yz          zz
 q only:       -0.007       0.067       0.098       0.111       0.098      -0.091
  q+dip:        0.114      -0.388      -0.620      -0.560      -0.576       0.506
   full:        0.044      -0.169      -0.264      -0.248      -0.250       0.221

           -------------------------------------------------
          |                Geometry Summary                 |
           -------------------------------------------------

      molecular mass/u    :       58.1223511
   center of mass at/Å    :       -2.4235742       1.7484802       1.5866398
Note: The following floating-point exceptions are signalling: IEEE_UNDERFLOW_FLAG IEEE_DENORMAL
normal termination of xtb
  moments of inertia/u·Å² :        0.2163070E+02   0.1369720E+03   0.1460624E+03
rotational constants/cm⁻¹ :        0.7793381E+00   0.1230736E+00   0.1154139E+00

 * 13 selected distances

     #   Z          #   Z                                           value/Å
     1   6 C        2   1 H                                       1.0875782
     1   6 C        3   1 H                                       1.0884579
     1   6 C        4   1 H                                       1.0884716
     1   6 C        5   6 C                                       1.5234706
     5   6 C        6   1 H                                       1.0927077
     5   6 C        7   1 H                                       1.0927209
     5   6 C        8   6 C                                       1.5265945 (max)
     8   6 C        9   1 H                                       1.0927077
     8   6 C       10   1 H                                       1.0927209
     8   6 C       11   6 C                                       1.5234706
    11   6 C       12   1 H                                       1.0884579
    11   6 C       13   1 H                                       1.0875782 (min)
    11   6 C       14   1 H                                       1.0884716

 * 2 distinct bonds (by element types)

   Z      Z             #   av. dist./Å        max./Å        min./Å
   1 H    6 C          10     1.0899873     1.0927209     1.0875782
   6 C    6 C           3     1.5245119     1.5265945     1.5234706


optimized geometry written to: xtbopt.xyz


           -------------------------------------------------
          | TOTAL ENERGY              -13.665126780623 Eh   |
          | GRADIENT NORM               0.000782292006 Eh/α |
          | HOMO-LUMO GAP              13.808666280249 eV   |
           -------------------------------------------------

------------------------------------------------------------------------
 * finished run on 2026/08/11 at 11:11:57.028     
------------------------------------------------------------------------
 total:
 * wall-time:     0 d,  0 h,  0 min,  0.324 sec
 *  cpu-time:     0 d,  0 h,  0 min,  1.185 sec
 * ratio c/w:     3.656 speedup
 SCF:
 * wall-time:     0 d,  0 h,  0 min,  0.013 sec
 *  cpu-time:     0 d,  0 h,  0 min,  0.051 sec
 * ratio c/w:     3.815 speedup
 ANC optimizer:
 * wall-time:     0 d,  0 h,  0 min,  0.297 sec
 *  cpu-time:     0 d,  0 h,  0 min,  1.081 sec
 * ratio c/w:     3.646 speedup

