14
 energy: -13.665126780623 gnorm: 0.000782292006 xtb: 6.7.1 (edcfbbe)
C           -3.06322602588598        0.07141853866573        0.84421454039435
H           -2.64733633079567       -0.93347653791659        0.85112314441732
H           -3.19144995325438        0.38298486807252       -0.19078568750338
H           -4.04416819096660        0.04059710693442        1.31492968416034
C           -2.14627811034665        1.03733623361107        1.58392517754131
H           -1.16239661637262        1.03981670177156        1.10855061366153
H           -2.01435156804543        0.69602297792651        2.61355591792913
C           -2.70258918561232        2.45893265025021        1.59240460241343
H           -2.83785802251516        2.79751800637457        0.56232100649070
H           -3.68481580655935        2.45850182908316        2.07122551942647
C           -1.78234397072677        3.42617572034829        2.32626550548671
H           -0.80322927271861        3.45659097195122        1.85176599736359
H           -2.19834693071973        4.43102526566945        2.31955750170080
H           -1.65010030548087        3.11589686725783        3.36116110651729
