%mem=1GB
%nprocshared=1
%chk=SmartField4gau.chk
#p Amber=(HardFirst,Print) nosymm geom=nocrowd opt Freq

Title

0 1
O-OW--0.406659  -0.000000  0.000000  0.117107
H-HW-+0.203329  0.000000  0.761712  -0.468429
H-HW-+0.203329  -0.000000  -0.761712  -0.468429

! Master function
NonBon 3 1 0 0 0.000 0.000 0.500 0.000 0.000 -1.2
! SMARTFIELD FF

