      -----------------------------------------------------------      
     |                   =====================                   |     
     |                           x T B                           |     
     |                   =====================                   |     
     |                         S. Grimme                         |     
     |          Mulliken Center for Theoretical Chemistry        |     
     |                    University of Bonn                     |     
      -----------------------------------------------------------      

   * xtb version 6.7.1 (edcfbbe) compiled by 'conda@5dfe00f5fb80' on 2026-06-10

   xtb is free software: you can redistribute it and/or modify it under
   the terms of the GNU Lesser General Public License as published by
   the Free Software Foundation, either version 3 of the License, or
   (at your option) any later version.
   
   xtb is distributed in the hope that it will be useful,
   but WITHOUT ANY WARRANTY; without even the implied warranty of
   MERCHANTABILITY or FITNESS FOR A PARTICULAR PURPOSE.  See the
   GNU Lesser General Public License for more details.
   
   Cite this work as:
   * C. Bannwarth, E. Caldeweyher, S. Ehlert, A. Hansen, P. Pracht,
     J. Seibert, S. Spicher, S. Grimme, WIREs Comput. Mol. Sci., 2020, 11,
     e01493. DOI: 10.1002/wcms.1493
   
   for GFN2-xTB:
   * C. Bannwarth, S. Ehlert and S. Grimme., J. Chem. Theory Comput., 2019,
     15, 1652-1671. DOI: 10.1021/acs.jctc.8b01176
   for GFN1-xTB:
   * S. Grimme, C. Bannwarth, P. Shushkov, J. Chem. Theory Comput., 2017,
     13, 1989-2009. DOI: 10.1021/acs.jctc.7b00118
   for GFN0-xTB:
   * P. Pracht, E. Caldeweyher, S. Ehlert, S. Grimme, ChemRxiv, 2019, preprint.
     DOI: 10.26434/chemrxiv.8326202.v1
   for GFN-FF:
   * S. Spicher and S. Grimme, Angew. Chem. Int. Ed., 2020, 59, 15665-15673.
     DOI: 10.1002/anie.202004239
   
   for ALPB and GBSA implicit solvation:
   * S. Ehlert, M. Stahn, S. Spicher, S. Grimme, J. Chem. Theory Comput.,
     2021, 17, 4250-4261. DOI: 10.1021/acs.jctc.1c00471
   
   for ddCOSMO and CPCM-X implicit solvation:
   * M. Stahn, S. Ehlert, S. Grimme, J. Phys. Chem. A,
     2023, XX, XXXX-XXXX. DOI: 10.1021/acs.jpca.3c04382
   
   for DFT-D4:
   * E. Caldeweyher, C. Bannwarth and S. Grimme, J. Chem. Phys., 2017,
     147, 034112. DOI: 10.1063/1.4993215
   * E. Caldeweyher, S. Ehlert, A. Hansen, H. Neugebauer, S. Spicher,
     C. Bannwarth and S. Grimme, J. Chem. Phys., 2019, 150, 154122.
     DOI: 10.1063/1.5090222
   * E. Caldeweyher, J.-M. Mewes, S. Ehlert and S. Grimme, Phys. Chem. Chem. Phys.
     2020, 22, 8499-8512. DOI: 10.1039/D0CP00502A
   
   for sTDA-xTB:
   * S. Grimme and C. Bannwarth, J. Chem. Phys., 2016, 145, 054103.
     DOI: 10.1063/1.4959605
   
   in the mass-spec context:
   * V. Asgeirsson, C. Bauer and S. Grimme, Chem. Sci., 2017, 8, 4879.
     DOI: 10.1039/c7sc00601b
   * J. Koopman and S. Grimme, ACS Omega 2019, 4, 12, 15120-15133.
     DOI: 10.1021/acsomega.9b02011
   
   for metadynamics refer to:
   * S. Grimme, J. Chem. Theory Comput., 2019, 155, 2847-2862
     DOI: 10.1021/acs.jctc.9b00143
   
   for SPH calculations refer to:
   * S. Spicher and S. Grimme, J. Chem. Theory Comput., 2021, 17, 1701-1714
     DOI: 10.1021/acs.jctc.0c01306
   
   for ONIOM refer to:
   * C. Plett, A. Katbashev, S. Ehlert, S. Grimme, M. Bursch,
     Phys. Chem. Chem. Phys., 2023, 25, 17860-17868. DOI: 10.1039/D3CP02178E
   
   for DIPRO refer to:
   * J. Kohn, N. Gildemeister, S. Grimme, D. Fazzi, A. Hansen,
     J. Chem. Phys., 2023, just accepted.
   
   for PTB refer to:
   * S. Grimme, M. Mueller, A. Hansen, J. Chem. Phys., 2023, 158, 124111.
     DOI: 10.1063/5.0137838
   
   with help from (in alphabetical order)
   P. Atkinson, C. Bannwarth, F. Bohle, G. Brandenburg, E. Caldeweyher
   M. Checinski, S. Dohm, S. Ehlert, S. Ehrlich, I. Gerasimov, C. Hölzer
   A. Katbashev, J. Kohn, J. Koopman, C. Lavigne, S. Lehtola, F. März, M. Müller,
   F. Musil, H. Neugebauer, J. Pisarek, C. Plett, P. Pracht, F. Pultar,
   J. Seibert, P. Shushkov, S. Spicher, M. Stahn, M. Steiner, T. Strunk,
   J. Stückrath, T. Rose, and J. Unsleber
   
 * started run on 2026/08/11 at 11:11:57.331     
   ID    Z sym.   atoms
    1    6 C      1, 5, 8, 11
    2    1 H      2-4, 6, 7, 9, 10, 12-14

           -------------------------------------------------
          |                Calculation Setup                |
           -------------------------------------------------

          program call               : xtb input.xyz --gfn2 --opt tight --chrg 0 --uhf 0 --iterations 250
          coordinate file            : input.xyz
          omp threads                :                     4


           -------------------------------------------------
          |                 G F N 2 - x T B                 |
           -------------------------------------------------

        Reference                      10.1021/acs.jctc.8b01176
      * Hamiltonian:
        H0-scaling (s, p, d)           1.850000    2.230000    2.230000
        zeta-weighting                 0.500000
      * Dispersion:
        s8                             2.700000
        a1                             0.520000
        a2                             5.000000
        s9                             5.000000
      * Repulsion:
        kExp                           1.500000    1.000000
        rExp                           1.000000
      * Coulomb:
        alpha                          2.000000
        third order                    shell-resolved
        anisotropic                    true
        a3                             3.000000
        a5                             4.000000
        cn-shift                       1.200000
        cn-exp                         4.000000
        max-rad                        5.000000


          ...................................................
          :                      SETUP                      :
          :.................................................:
          :  # basis functions                  26          :
          :  # atomic orbitals                  26          :
          :  # shells                           18          :
          :  # electrons                        26          :
          :  max. iterations                   250          :
          :  Hamiltonian                  GFN2-xTB          :
          :  restarted?                      false          :
          :  GBSA solvation                  false          :
          :  PC potential                    false          :
          :  electronic temp.          300.0000000     K    :
          :  accuracy                    1.0000000          :
          :  -> integral cutoff          0.2500000E+02      :
          :  -> integral neglect         0.1000000E-07      :
          :  -> SCF convergence          0.1000000E-05 Eh   :
          :  -> wf. convergence          0.1000000E-03 e    :
          :  Broyden damping             0.4000000          :
          :  net charge                          0          :
          :  unpaired electrons                  0          :
          ...................................................

 iter      E             dE          RMSdq      gap      omega  full diag
   1    -13.8251228 -0.138251E+02  0.251E+00   14.25       0.0  T
   2    -13.8653610 -0.402382E-01  0.130E+00   13.86       1.0  T
   3    -13.8657271 -0.366023E-03  0.701E-01   13.83       1.0  T
   4    -13.8658455 -0.118380E-03  0.898E-02   13.82       1.0  T
   5    -13.8658486 -0.316755E-05  0.458E-02   13.82       1.0  T
   6    -13.8658494 -0.739036E-06  0.298E-03   13.82       9.0  T
   7    -13.8658494 -0.108626E-07  0.684E-04   13.82      39.1  T
   8    -13.8658494 -0.508576E-09  0.166E-04   13.82     161.2  T

   *** convergence criteria satisfied after 8 iterations ***

         #    Occupation            Energy/Eh            Energy/eV
      -------------------------------------------------------------
         1        2.0000           -0.6172596             -16.7965
       ...           ...                  ...                  ...
         7        2.0000           -0.4793179             -13.0429
         8        2.0000           -0.4715794             -12.8323
         9        2.0000           -0.4557851             -12.4025
        10        2.0000           -0.4487148             -12.2102
        11        2.0000           -0.4291383             -11.6774
        12        2.0000           -0.4282029             -11.6520
        13        2.0000           -0.4127152             -11.2306 (HOMO)
        14                          0.0952175               2.5910 (LUMO)
        15                          0.1008735               2.7449
        16                          0.1197051               3.2573
        17                          0.1458630               3.9691
        18                          0.1525452               4.1510
       ...                                ...                  ...
        26                          0.3258688               8.8673
      -------------------------------------------------------------
                  HL-Gap            0.5079328 Eh           13.8216 eV
             Fermi-level           -0.1587488 Eh           -4.3198 eV

 SCC (total)                   0 d,  0 h,  0 min,  0.084 sec
 SCC setup                      ...        0 min,  0.005 sec (  5.546%)
 Dispersion                     ...        0 min,  0.006 sec (  7.135%)
 classical contributions        ...        0 min,  0.003 sec (  3.450%)
 integral evaluation            ...        0 min,  0.006 sec (  7.375%)
 iterations                     ...        0 min,  0.062 sec ( 73.896%)
 molecular gradient             ...        0 min,  0.002 sec (  2.216%)
 printout                       ...        0 min,  0.000 sec (  0.230%)

         :::::::::::::::::::::::::::::::::::::::::::::::::::::
         ::                     SUMMARY                     ::
         :::::::::::::::::::::::::::::::::::::::::::::::::::::
         :: total energy             -13.659774661259 Eh    ::
         :: gradient norm              0.014126966038 Eh/a0 ::
         :: HOMO-LUMO gap             13.821553663425 eV    ::
         ::.................................................::
         :: SCC energy               -13.865842346818 Eh    ::
         :: -> isotropic ES            0.002884188160 Eh    ::
         :: -> anisotropic ES          0.005153526036 Eh    ::
         :: -> anisotropic XC          0.009051457053 Eh    ::
         :: -> dispersion             -0.006392688151 Eh    ::
         :: repulsion energy           0.206067685559 Eh    ::
         :: add. restraining           0.000000000000 Eh    ::
         :: total charge               0.000000000000 e     ::
         :::::::::::::::::::::::::::::::::::::::::::::::::::::

      ----------------------------------------------------------- 
     |                   =====================                   |
     |                        A N C O P T                        |
     |                   =====================                   |
     |               Approximate Normal Coordinate               |
     |                Rational Function Optimizer                |
      ----------------------------------------------------------- 
      ----------------------------------------------------------- 
     |                   =====================                   |
     |                        A N C O P T                        |
     |                   =====================                   |
     |               Approximate Normal Coordinate               |
     |                Rational Function Optimizer                |
      ----------------------------------------------------------- 

          ...................................................
          :                      SETUP                      :
          :.................................................:
          :   optimization level             tight          :
          :   max. optcycles                   200          :
          :   ANC micro-cycles                  20          :
          :   degrees of freedom                36          :
          :.................................................:
          :   RF solver                   davidson          :
          :   write xtbopt.log                true          :
          :   linear?                        false          :
          :   energy convergence         0.1000000E-05 Eh   :
          :   grad. convergence          0.8000000E-03 Eh/α :
          :   maxmium RF displ.          1.0000000          :
          :   Hlow (freq-cutoff)         0.1000000E-01      :
          :   Hmax (freq-cutoff)         5.0000000          :
          :   S6 in model hess.         20.0000000          :
          ...................................................

generating ANC from exact Hessian ...
Using Lindh-Hessian (1995)
 Shifting diagonal of input Hessian by    5.6891830584208589E-003
 Lowest  eigenvalues of input Hessian
    0.000000    0.000000    0.000000    0.000000    0.000000    0.000000
    0.010000    0.011620    0.014089    0.019750    0.026807    0.041983
    0.050475    0.056712    0.057624    0.059467    0.060004    0.068771
 Highest eigenvalues
    1.110035    1.129247    1.154204    1.187319    1.251363    1.267451


........................................................................
.............................. CYCLE    1 ..............................
........................................................................

 iter      E             dE          RMSdq      gap      omega  full diag
   1    -13.8658494 -0.138658E+02  0.193E-05   13.82       0.0  T
   2    -13.8658494 -0.203038E-11  0.824E-06   13.82    3244.8  T
   3    -13.8658494 -0.110134E-12  0.459E-06   13.82    5817.5  T
     SCC iter.                  ...        0 min,  0.009 sec
     gradient                   ...        0 min,  0.007 sec
 * total energy  :   -13.6597747 Eh     change       -0.5895728E-11 Eh
   gradient norm :     0.0141251 Eh/α   predicted     0.0000000E+00 (-100.00%)
   displ. norm   :     0.3123129 α      lambda       -0.1875079E-02
   maximum displ.:     0.2349406 α      in ANC's #1, #2, #3, ...

........................................................................
.............................. CYCLE    2 ..............................
........................................................................

 iter      E             dE          RMSdq      gap      omega  full diag
   1    -13.8696372 -0.138696E+02  0.135E-01   13.91       0.0  T
   2    -13.8696388 -0.156276E-05  0.796E-02   13.91       1.0  T
   3    -13.8696391 -0.316712E-06  0.436E-03   13.91       6.1  T
   4    -13.8696392 -0.433947E-07  0.210E-03   13.91      12.7  T
   5    -13.8696392 -0.416339E-08  0.489E-04   13.91      54.6  T
   6    -13.8696392 -0.153101E-09  0.180E-04   13.91     148.1  T
     SCC iter.                  ...        0 min,  0.005 sec
     gradient                   ...        0 min,  0.002 sec
 * total energy  :   -13.6610603 Eh     change       -0.1285643E-02 Eh
   gradient norm :     0.0063563 Eh/α   predicted    -0.1028981E-02 ( -19.96%)
   displ. norm   :     0.2970420 α      lambda       -0.8839474E-03
   maximum displ.:     0.2510650 α      in ANC's #1, #3, #4, ...

........................................................................
.............................. CYCLE    3 ..............................
........................................................................

 iter      E             dE          RMSdq      gap      omega  full diag
   1    -13.8707767 -0.138708E+02  0.100E-01   13.96       0.0  T
   2    -13.8707771 -0.406765E-06  0.596E-02   13.96       1.0  T
   3    -13.8707772 -0.124970E-06  0.260E-03   13.96      10.3  T
   4    -13.8707772 -0.885606E-08  0.128E-03   13.96      20.9  T
   5    -13.8707772 -0.131919E-08  0.246E-04   13.96     108.7  T
   6    -13.8707772 -0.196323E-10  0.972E-05   13.96     274.9  T
     SCC iter.                  ...        0 min,  0.003 sec
     gradient                   ...        0 min,  0.002 sec
 * total energy  :   -13.6617832 Eh     change       -0.7228489E-03 Eh
   gradient norm :     0.0044237 Eh/α   predicted    -0.4809695E-03 ( -33.46%)
   displ. norm   :     0.3461296 α      lambda       -0.7777623E-03
   maximum displ.:     0.2843279 α      in ANC's #1, #3, #4, ...

........................................................................
.............................. CYCLE    4 ..............................
........................................................................

 iter      E             dE          RMSdq      gap      omega  full diag
   1    -13.8706628 -0.138707E+02  0.103E-01   14.01       0.0  T
   2    -13.8706631 -0.340935E-06  0.615E-02   14.01       1.0  T
   3    -13.8706633 -0.115977E-06  0.261E-03   14.01      10.3  T
   4    -13.8706633 -0.769711E-08  0.133E-03   14.01      20.1  T
   5    -13.8706633 -0.872818E-09  0.202E-04   14.01     132.6  T
   6    -13.8706633 -0.247873E-10  0.840E-05   14.01     318.1  T
     SCC iter.                  ...        0 min,  0.004 sec
     gradient                   ...        0 min,  0.002 sec
 * total energy  :   -13.6624461 Eh     change       -0.6629213E-03 Eh
   gradient norm :     0.0064011 Eh/α   predicted    -0.4354760E-03 ( -34.31%)
   displ. norm   :     0.3988403 α      lambda       -0.7667569E-03
   maximum displ.:     0.3251317 α      in ANC's #1, #3, #4, ...

........................................................................
.............................. CYCLE    5 ..............................
........................................................................

 iter      E             dE          RMSdq      gap      omega  full diag
   1    -13.8700759 -0.138701E+02  0.115E-01   14.10       0.0  T
   2    -13.8700767 -0.816963E-06  0.688E-02   14.10       1.0  T
   3    -13.8700769 -0.120034E-06  0.362E-03   14.10       7.4  T
   4    -13.8700769 -0.484796E-07  0.169E-03   14.10      15.8  T
   5    -13.8700769 -0.126788E-08  0.425E-04   14.10      62.9  T
   6    -13.8700769 -0.753069E-10  0.106E-04   14.10     253.3  T
     SCC iter.                  ...        0 min,  0.005 sec
     gradient                   ...        0 min,  0.002 sec
 * total energy  :   -13.6630516 Eh     change       -0.6055033E-03 Eh
   gradient norm :     0.0073622 Eh/α   predicted    -0.4443618E-03 ( -26.61%)
   displ. norm   :     0.3944642 α      lambda       -0.6131716E-03
   maximum displ.:     0.3368210 α      in ANC's #1, #3, #4, ...

........................................................................
.............................. CYCLE    6 ..............................
........................................................................

 iter      E             dE          RMSdq      gap      omega  full diag
   1    -13.8704319 -0.138704E+02  0.113E-01   14.20       0.0  T
   2    -13.8704327 -0.717250E-06  0.677E-02   14.20       1.0  T
   3    -13.8704328 -0.112931E-06  0.360E-03   14.20       7.4  T
   4    -13.8704328 -0.547505E-07  0.168E-03   14.20      15.9  T
   5    -13.8704328 -0.142773E-08  0.256E-04   14.20     104.3  T
   6    -13.8704328 -0.194902E-10  0.107E-04   14.20     250.2  T
     SCC iter.                  ...        0 min,  0.004 sec
     gradient                   ...        0 min,  0.002 sec
 * total energy  :   -13.6634788 Eh     change       -0.4271791E-03 Eh
   gradient norm :     0.0071583 Eh/α   predicted    -0.3542930E-03 ( -17.06%)
   displ. norm   :     0.2370667 α      lambda       -0.3354276E-03
   maximum displ.:     0.2165274 α      in ANC's #1, #24, #4, ...

........................................................................
.............................. CYCLE    7 ..............................
........................................................................

 iter      E             dE          RMSdq      gap      omega  full diag
   1    -13.8735348 -0.138735E+02  0.709E-02   14.29       0.0  T
   2    -13.8735355 -0.661263E-06  0.422E-02   14.29       1.0  T
   3    -13.8735355 -0.802266E-07  0.250E-03   14.29      10.7  T
   4    -13.8735355 -0.403061E-08  0.117E-03   14.29      22.9  T
   5    -13.8735355 -0.309530E-09  0.309E-04   14.29      86.6  T
   6    -13.8735355 -0.165556E-09  0.745E-05   14.29     358.6  T
     SCC iter.                  ...        0 min,  0.003 sec
     gradient                   ...        0 min,  0.002 sec
 * total energy  :   -13.6637111 Eh     change       -0.2323013E-03 Eh
   gradient norm :     0.0038827 Eh/α   predicted    -0.1771362E-03 ( -23.75%)
   displ. norm   :     0.2634256 α      lambda       -0.1862443E-03
   maximum displ.:     0.2484836 α      in ANC's #1, #24, #3, ...

........................................................................
.............................. CYCLE    8 ..............................
........................................................................

 iter      E             dE          RMSdq      gap      omega  full diag
   1    -13.8731054 -0.138731E+02  0.758E-02   14.32       0.0  T
   2    -13.8731057 -0.300004E-06  0.452E-02   14.32       1.0  T
   3    -13.8731058 -0.636317E-07  0.208E-03   14.32      12.9  T
   4    -13.8731058 -0.608974E-08  0.105E-03   14.32      25.6  T
   5    -13.8731058 -0.380101E-09  0.260E-04   14.32     102.9  T
   6    -13.8731058 -0.128582E-09  0.703E-05   14.32     380.4  T
     SCC iter.                  ...        0 min,  0.003 sec
     gradient                   ...        0 min,  0.002 sec
 * total energy  :   -13.6638330 Eh     change       -0.1219327E-03 Eh
   gradient norm :     0.0049612 Eh/α   predicted    -0.9958430E-04 ( -18.33%)
   displ. norm   :     0.2393206 α      lambda       -0.2070457E-03
   maximum displ.:     0.2207147 α      in ANC's #1, #24, #3, ...

........................................................................
.............................. CYCLE    9 ..............................
........................................................................

 iter      E             dE          RMSdq      gap      omega  full diag
   1    -13.8757669 -0.138758E+02  0.721E-02   14.33       0.0  T
   2    -13.8757682 -0.126070E-05  0.426E-02   14.33       1.0  T
   3    -13.8757682 -0.766362E-07  0.404E-03   14.33       6.6  T
   4    -13.8757682 -0.107191E-07  0.119E-03   14.33      22.5  T
   5    -13.8757682 -0.360894E-09  0.448E-04   14.33      59.6  T
   6    -13.8757682 -0.174280E-09  0.802E-05   14.33     333.0  T
     SCC iter.                  ...        0 min,  0.003 sec
     gradient                   ...        0 min,  0.002 sec
 * total energy  :   -13.6639515 Eh     change       -0.1185142E-03 Eh
   gradient norm :     0.0043991 Eh/α   predicted    -0.1094472E-03 (  -7.65%)
   displ. norm   :     0.2326032 α      lambda       -0.1121434E-03
   maximum displ.:     0.2207082 α      in ANC's #1, #4, #24, ...

........................................................................
.............................. CYCLE   10 ..............................
........................................................................

 iter      E             dE          RMSdq      gap      omega  full diag
   1    -13.8739594 -0.138740E+02  0.665E-02   14.29       0.0  T
   2    -13.8739598 -0.472464E-06  0.395E-02   14.29       1.0  T
   3    -13.8739599 -0.475711E-07  0.249E-03   14.29      10.7  T
   4    -13.8739599 -0.131428E-07  0.994E-04   14.29      26.9  T
   5    -13.8739599 -0.313356E-09  0.398E-04   14.29      67.2  T
     SCC iter.                  ...        0 min,  0.003 sec
     gradient                   ...        0 min,  0.002 sec
 * total energy  :   -13.6640246 Eh     change       -0.7305241E-04 Eh
   gradient norm :     0.0046649 Eh/α   predicted    -0.5910621E-04 ( -19.09%)
   displ. norm   :     0.1400709 α      lambda       -0.9908855E-04
   maximum displ.:     0.1002788 α      in ANC's #1, #4, #3, ...

........................................................................
.............................. CYCLE   11 ..............................
........................................................................

 iter      E             dE          RMSdq      gap      omega  full diag
   1    -13.8744240 -0.138744E+02  0.389E-02   14.24       0.0  T
   2    -13.8744241 -0.103549E-06  0.233E-02   14.24       1.1  T
   3    -13.8744242 -0.158761E-07  0.107E-03   14.24      25.0  T
   4    -13.8744242 -0.282379E-08  0.508E-04   14.24      52.6  T
   5    -13.8744242 -0.700862E-10  0.174E-04   14.24     153.7  T
     SCC iter.                  ...        0 min,  0.003 sec
     gradient                   ...        0 min,  0.002 sec
 * total energy  :   -13.6640942 Eh     change       -0.6964567E-04 Eh
   gradient norm :     0.0038433 Eh/α   predicted    -0.5051630E-04 ( -27.47%)
   displ. norm   :     0.1386071 α      lambda       -0.8052196E-04
   maximum displ.:     0.0985099 α      in ANC's #1, #4, #3, ...

........................................................................
.............................. CYCLE   12 ..............................
........................................................................

 iter      E             dE          RMSdq      gap      omega  full diag
   1    -13.8740297 -0.138740E+02  0.413E-02   14.21       0.0  T
   2    -13.8740298 -0.175442E-06  0.246E-02   14.21       1.1  T
   3    -13.8740299 -0.250834E-07  0.187E-03   14.21      14.3  T
   4    -13.8740299 -0.109962E-07  0.768E-04   14.21      34.8  T
   5    -13.8740299 -0.166619E-09  0.180E-04   14.21     148.2  T
     SCC iter.                  ...        0 min,  0.003 sec
     gradient                   ...        0 min,  0.002 sec
 * total energy  :   -13.6641413 Eh     change       -0.4708623E-04 Eh
   gradient norm :     0.0029150 Eh/α   predicted    -0.4103611E-04 ( -12.85%)
   displ. norm   :     0.0720537 α      lambda       -0.4394497E-04
   maximum displ.:     0.0585972 α      in ANC's #4, #3, #7, ...

........................................................................
.............................. CYCLE   13 ..............................
........................................................................

 iter      E             dE          RMSdq      gap      omega  full diag
   1    -13.8753441 -0.138753E+02  0.264E-02   14.24       0.0  T
   2    -13.8753444 -0.254277E-06  0.154E-02   14.24       1.7  T
   3    -13.8753444 -0.171080E-07  0.222E-03   14.24      12.0  T
   4    -13.8753444 -0.307901E-08  0.594E-04   14.24      45.0  T
   5    -13.8753444 -0.129202E-09  0.245E-04   14.24     108.9  T
     SCC iter.                  ...        0 min,  0.003 sec
     gradient                   ...        0 min,  0.002 sec
 * total energy  :   -13.6641601 Eh     change       -0.1882660E-04 Eh
   gradient norm :     0.0020889 Eh/α   predicted    -0.2208747E-04 (  17.32%)
   displ. norm   :     0.0907905 α      lambda       -0.1688220E-04
   maximum displ.:     0.0813462 α      in ANC's #1, #4, #2, ...

........................................................................
.............................. CYCLE   14 ..............................
........................................................................

 iter      E             dE          RMSdq      gap      omega  full diag
   1    -13.8742788 -0.138743E+02  0.274E-02   14.25       0.0  T
   2    -13.8742789 -0.162166E-06  0.162E-02   14.24       1.7  T
   3    -13.8742789 -0.123152E-07  0.139E-03   14.24      19.2  T
   4    -13.8742789 -0.803993E-09  0.460E-04   14.24      58.1  T
   5    -13.8742789 -0.292175E-10  0.153E-04   14.24     174.6  T
     SCC iter.                  ...        0 min,  0.003 sec
     gradient                   ...        0 min,  0.002 sec
 * total energy  :   -13.6641665 Eh     change       -0.6353234E-05 Eh
   gradient norm :     0.0020038 Eh/α   predicted    -0.8510428E-05 (  33.95%)
   displ. norm   :     0.0228050 α      lambda       -0.1078974E-04
   maximum displ.:     0.0183057 α      in ANC's #4, #3, #2, ...

........................................................................
.............................. CYCLE   15 ..............................
........................................................................

 iter      E             dE          RMSdq      gap      omega  full diag
   1    -13.8745350 -0.138745E+02  0.109E-02   14.26       0.0  T
   2    -13.8745351 -0.131226E-06  0.602E-03   14.26       4.4  T
   3    -13.8745351 -0.577211E-08  0.210E-03   14.26      12.7  T
   4    -13.8745351 -0.491848E-08  0.358E-04   14.26      74.7  T
   5    -13.8745351 -0.632827E-10  0.114E-04   14.26     234.6  T
     SCC iter.                  ...        0 min,  0.003 sec
     gradient                   ...        0 min,  0.002 sec
 * total energy  :   -13.6641704 Eh     change       -0.3971536E-05 Eh
   gradient norm :     0.0012817 Eh/α   predicted    -0.5396890E-05 (  35.89%)
   displ. norm   :     0.0133036 α      lambda       -0.3998143E-05
   maximum displ.:     0.0087925 α      in ANC's #4, #2, #6, ...

........................................................................
.............................. CYCLE   16 ..............................
........................................................................

 iter      E             dE          RMSdq      gap      omega  full diag
   1    -13.8750198 -0.138750E+02  0.855E-03   14.26       0.0  T
   2    -13.8750199 -0.348530E-07  0.486E-03   14.26       5.5  T
   3    -13.8750199 -0.209617E-08  0.912E-04   14.26      29.3  T
   4    -13.8750199 -0.130341E-08  0.229E-04   14.26     116.8  T
     SCC iter.                  ...        0 min,  0.002 sec
     gradient                   ...        0 min,  0.002 sec
 * total energy  :   -13.6641726 Eh     change       -0.2183772E-05 Eh
   gradient norm :     0.0006543 Eh/α   predicted    -0.2000727E-05 (  -8.38%)
   displ. norm   :     0.0325233 α      lambda       -0.1826885E-05
   maximum displ.:     0.0292815 α      in ANC's #1, #24, #2, ...

........................................................................
.............................. CYCLE   17 ..............................
........................................................................

 iter      E             dE          RMSdq      gap      omega  full diag
   1    -13.8748829 -0.138749E+02  0.968E-03   14.26       0.0  T
   2    -13.8748829 -0.115774E-07  0.573E-03   14.26       4.7  T
   3    -13.8748829  0.604139E-11  0.601E-04   14.26      44.5  T
   4    -13.8748829 -0.187680E-08  0.166E-04   14.26     161.4  T
     SCC iter.                  ...        0 min,  0.002 sec
     gradient                   ...        0 min,  0.002 sec
 * total energy  :   -13.6641740 Eh     change       -0.1425040E-05 Eh
   gradient norm :     0.0006392 Eh/α   predicted    -0.9138932E-06 ( -35.87%)
   displ. norm   :     0.0323742 α      lambda       -0.1201160E-05
   maximum displ.:     0.0290224 α      in ANC's #1, #24, #3, ...

........................................................................
.............................. CYCLE   18 ..............................
........................................................................

 iter      E             dE          RMSdq      gap      omega  full diag
   1    -13.8747631 -0.138748E+02  0.938E-03   14.25       0.0  T
   2    -13.8747631 -0.639101E-08  0.560E-03   14.25       4.8  T
   3    -13.8747631 -0.755332E-09  0.328E-04   14.25      81.5  T
   4    -13.8747631 -0.459735E-09  0.141E-04   14.25     190.0  T
     SCC iter.                  ...        0 min,  0.002 sec
     gradient                   ...        0 min,  0.002 sec
 * total energy  :   -13.6641749 Eh     change       -0.8706140E-06 Eh
   gradient norm :     0.0006013 Eh/α   predicted    -0.6014791E-06 ( -30.91%)
   displ. norm   :     0.0120155 α      lambda       -0.8391011E-06
   maximum displ.:     0.0093257 α      in ANC's #1, #24, #3, ...

   *** GEOMETRY OPTIMIZATION CONVERGED AFTER 18 ITERATIONS ***

------------------------------------------------------------------------
 total energy gain   :        -0.0044003 Eh       -2.7612 kcal/mol
 total RMSD          :         0.7457420 a0        0.3946 Å
 total power (kW/mol):        -0.6418266 (step)  -72.7964 (real)
------------------------------------------------------------------------

 ANCopt (total)                0 d,  0 h,  0 min,  0.159 sec
 optimizer setup                ...        0 min,  0.000 sec (  0.124%)
 model hessian                  ...        0 min,  0.010 sec (  6.364%)
 ANC generation                 ...        0 min,  0.001 sec (  0.337%)
 coordinate transformation      ...        0 min,  0.000 sec (  0.098%)
 single point calculation       ...        0 min,  0.139 sec ( 87.384%)
 optimization log               ...        0 min,  0.004 sec (  2.499%)
 hessian update                 ...        0 min,  0.001 sec (  0.556%)
 rational function              ...        0 min,  0.003 sec (  1.919%)

================
 final structure:
================
14
 xtb: 6.7.1 (edcfbbe)
C           -2.01643567753620        0.30374825936214        2.57073325856426
H           -1.57463558435778       -0.67984710480819        2.42611955130266
H           -3.06857532694552        0.17394615766109        2.81587265465758
H           -1.52153373992104        0.77514764952635        3.41549014542585
C           -1.86324776973466        1.14362736650809        1.30775799491750
H           -2.29780869512790        0.59724757462363        0.46671617053445
H           -0.80125423938712        1.28736473744627        1.09395751996673
C           -2.54471537823243        2.50865058460399        1.40695731594799
H           -2.51981573022424        2.98314131910843        0.42268328884985
H           -3.59366258592602        2.36720153204298        1.67836652723330
C           -1.88144884399616        3.43727003486505        2.41769972892026
H           -1.97858083972874        3.04818531763420        3.42806922169003
H           -0.82263611027613        3.55105112995812        2.19201538326723
H           -2.34550855860603        4.42112295146790        2.38823455872220

 Bond Distances (Angstroems)
 ---------------------------
C1-H2=1.0879         C1-H3=1.0881         C1-H4=1.0866         C1-C5=1.5245         H2-C1=1.0879         H3-C1=1.0881         
H4-C1=1.0866         C5-C1=1.5245         C5-H6=1.0930         C5-H7=1.0928         C5-C8=1.5289         H6-C5=1.0930         
H7-C5=1.0928         C8-C5=1.5289         C8-H9=1.0930         C8-H10=1.0927        C8-C11=1.5244        H9-C8=1.0930         
H10-C8=1.0927        C11-C8=1.5244        C11-H12=1.0870       C11-H13=1.0886       C11-H14=1.0882       H12-C11=1.0870       
H13-C11=1.0886       H14-C11=1.0882       
 C  H  Rav=1.0898 sigma=0.0026  Rmin=1.0866  Rmax=1.0930    10
 C  C  Rav=1.5259 sigma=0.0021  Rmin=1.5244  Rmax=1.5289     3

 selected bond angles (degree)
 --------------------
H3-C1-H2=108.35                H4-C1-H2=108.10                H4-C1-H3=108.48                C5-C1-H2=110.31                
C5-C1-H3=110.46                C5-C1-H4=111.06                H6-C5-C1=108.79                H7-C5-C1=109.40                
H7-C5-H6=107.55                C8-C5-C1=113.16                C8-C5-H6=108.60                C8-C5-H7=109.17                
H9-C8-C5=108.60                H10-C8-C5=109.17               H10-C8-H9=107.56               C11-C8-C5=113.14               
C11-C8-H9=108.83               C11-C8-H10=109.38              

 selected dihedral angles (degree)
 ---------------------------------
H6-C5-C1-H2= 55.36            H6-C5-C1-H3=295.60            H6-C5-C1-H4=175.19            H7-C5-C1-H2=298.13            
H7-C5-C1-H3=178.37            H7-C5-C1-H4= 57.96            C8-C5-C1-H2=176.17            C8-C5-C1-H3= 56.41            
C8-C5-C1-H4=296.00            H9-C8-C5-C1=188.37            H9-C8-C5-H6=309.28            H9-C8-C5-H7= 66.27            
H10-C8-C5-C1=305.38           H10-C8-C5-H6= 66.29           H10-C8-C5-H7=183.28           C11-C8-C5-C1= 67.43           
C11-C8-C5-H6=188.34           C11-C8-C5-H7=305.33           
           -------------------------------------------------
          |                Final Singlepoint                |
           -------------------------------------------------

          ...................................................
          :                      SETUP                      :
          :.................................................:
          :  # basis functions                  26          :
          :  # atomic orbitals                  26          :
          :  # shells                           18          :
          :  # electrons                        26          :
          :  max. iterations                   250          :
          :  Hamiltonian                  GFN2-xTB          :
          :  restarted?                      false          :
          :  GBSA solvation                  false          :
          :  PC potential                    false          :
          :  electronic temp.          300.0000000     K    :
          :  accuracy                    1.0000000          :
          :  -> integral cutoff          0.2500000E+02      :
          :  -> integral neglect         0.1000000E-07      :
          :  -> SCF convergence          0.1000000E-05 Eh   :
          :  -> wf. convergence          0.1000000E-03 e    :
          :  Broyden damping             0.4000000          :
          :  net charge                          0          :
          :  unpaired electrons                  0          :
          ...................................................

 iter      E             dE          RMSdq      gap      omega  full diag
   1    -13.8747631 -0.138748E+02  0.439E-05   14.25       0.0  T
   2    -13.8747631 -0.156675E-11  0.248E-05   14.25    1077.2  T
   3    -13.8747631 -0.177636E-13  0.780E-06   14.25    3424.7  T

   *** convergence criteria satisfied after 3 iterations ***

         #    Occupation            Energy/Eh            Energy/eV
      -------------------------------------------------------------
         1        2.0000           -0.6178026             -16.8113
       ...           ...                  ...                  ...
         7        2.0000           -0.4849221             -13.1954
         8        2.0000           -0.4662945             -12.6885
         9        2.0000           -0.4619432             -12.5701
        10        2.0000           -0.4481225             -12.1940
        11        2.0000           -0.4258295             -11.5874
        12        2.0000           -0.4235188             -11.5245
        13        2.0000           -0.4221427             -11.4871 (HOMO)
        14                          0.1016323               2.7656 (LUMO)
        15                          0.1111100               3.0235
        16                          0.1369381               3.7263
        17                          0.1484282               4.0389
        18                          0.1498760               4.0783
       ...                                ...                  ...
        26                          0.2996611               8.1542
      -------------------------------------------------------------
                  HL-Gap            0.5237750 Eh           14.2526 eV
             Fermi-level           -0.1602552 Eh           -4.3608 eV

 SCC (total)                   0 d,  0 h,  0 min,  0.012 sec
 SCC setup                      ...        0 min,  0.000 sec (  1.247%)
 Dispersion                     ...        0 min,  0.000 sec (  1.099%)
 classical contributions        ...        0 min,  0.000 sec (  0.479%)
 integral evaluation            ...        0 min,  0.001 sec (  6.001%)
 iterations                     ...        0 min,  0.002 sec ( 14.249%)
 molecular gradient             ...        0 min,  0.009 sec ( 74.158%)
 printout                       ...        0 min,  0.000 sec (  2.565%)

         :::::::::::::::::::::::::::::::::::::::::::::::::::::
         ::                     SUMMARY                     ::
         :::::::::::::::::::::::::::::::::::::::::::::::::::::
         :: total energy             -13.664174920408 Eh    ::
         :: gradient norm              0.000603267260 Eh/a0 ::
         :: HOMO-LUMO gap             14.252642363855 eV    ::
         ::.................................................::
         :: SCC energy               -13.874756048354 Eh    ::
         :: -> isotropic ES            0.002968852793 Eh    ::
         :: -> anisotropic ES          0.004975720899 Eh    ::
         :: -> anisotropic XC          0.009002665363 Eh    ::
         :: -> dispersion             -0.006303166734 Eh    ::
         :: repulsion energy           0.210581127946 Eh    ::
         :: add. restraining           0.000000000000 Eh    ::
         :: total charge               0.000000000000 e     ::
         :::::::::::::::::::::::::::::::::::::::::::::::::::::

           -------------------------------------------------
          |                Property Printout                |
           -------------------------------------------------

    * Orbital Energies and Occupations

         #    Occupation            Energy/Eh            Energy/eV
      -------------------------------------------------------------
         1        2.0000           -0.6178026             -16.8113
         2        2.0000           -0.5960197             -16.2185
         3        2.0000           -0.5731201             -15.5954
         4        2.0000           -0.5475025             -14.8983
         5        2.0000           -0.5064687             -13.7817
         6        2.0000           -0.5059020             -13.7663
         7        2.0000           -0.4849221             -13.1954
         8        2.0000           -0.4662945             -12.6885
         9        2.0000           -0.4619432             -12.5701
        10        2.0000           -0.4481225             -12.1940
        11        2.0000           -0.4258295             -11.5874
        12        2.0000           -0.4235188             -11.5245
        13        2.0000           -0.4221427             -11.4871 (HOMO)
        14                          0.1016323               2.7656 (LUMO)
        15                          0.1111100               3.0235
        16                          0.1369381               3.7263
        17                          0.1484282               4.0389
        18                          0.1498760               4.0783
        19                          0.1574555               4.2846
        20                          0.2025317               5.5112
        21                          0.2063420               5.6149
        22                          0.2343799               6.3778
        23                          0.2483124               6.7569
        24                          0.2783485               7.5742
       ...                                ...                  ...
        26                          0.2996611               8.1542
      -------------------------------------------------------------
                  HL-Gap            0.5237750 Eh           14.2526 eV
             Fermi-level           -0.1602552 Eh           -4.3608 eV

     #   Z          covCN         q      C6AA      α(0)
     1   6 C        3.751    -0.101    22.493     6.764
     2   1 H        0.925     0.030     2.586     2.515
     3   1 H        0.925     0.033     2.551     2.498
     4   1 H        0.925     0.036     2.509     2.477
     5   6 C        3.800    -0.052    21.517     6.604
     6   1 H        0.924     0.026     2.644     2.543
     7   1 H        0.924     0.030     2.593     2.518
     8   6 C        3.800    -0.053    21.518     6.605
     9   1 H        0.924     0.026     2.644     2.543
    10   1 H        0.924     0.030     2.592     2.517
    11   6 C        3.751    -0.101    22.491     6.763
    12   1 H        0.925     0.035     2.513     2.479
    13   1 H        0.925     0.033     2.550     2.497
    14   1 H        0.925     0.030     2.586     2.515

 Mol. C6AA /au·bohr⁶  :       1208.224922
 Mol. C8AA /au·bohr⁸  :      24487.486841
 Mol. α(0) /au        :         51.837564


Wiberg/Mayer (AO) data.
largest (>0.10) Wiberg bond orders for each atom

 ---------------------------------------------------------------------------
     #   Z sym  total        # sym  WBO       # sym  WBO       # sym  WBO
 ---------------------------------------------------------------------------
     1   6 C    3.997 --     5 C    1.020     3 H    0.988     2 H    0.988
                             4 H    0.986
     2   1 H    0.999 --     1 C    0.988
     3   1 H    0.999 --     1 C    0.988
     4   1 H    0.999 --     1 C    0.986
     5   6 C    3.998 --     1 C    1.020     8 C    1.008     6 H    0.979
                             7 H    0.978
     6   1 H    0.999 --     5 C    0.979
     7   1 H    0.999 --     5 C    0.978
     8   6 C    3.998 --    11 C    1.020     5 C    1.008     9 H    0.979
                            10 H    0.978
     9   1 H    0.999 --     8 C    0.979
    10   1 H    0.999 --     8 C    0.978
    11   6 C    3.997 --     8 C    1.020    14 H    0.988    13 H    0.988
                            12 H    0.986
    12   1 H    0.999 --    11 C    0.986
    13   1 H    0.999 --    11 C    0.988
    14   1 H    0.999 --    11 C    0.988
 ---------------------------------------------------------------------------

Topologies differ in total number of bonds
Writing topology from bond orders to xtbtopo.mol

molecular dipole:
                 x           y           z       tot (Debye)
 q only:        0.003       0.001       0.015
   full:        0.003       0.001       0.012       0.032
molecular quadrupole (traceless):
                xx          xy          yy          xz          yz          zz
 q only:       -0.144       0.010      -0.067      -0.037       0.090       0.211
  q+dip:        0.527       0.092      -0.523      -0.226       0.061      -0.004
   full:        0.199       0.045      -0.265      -0.130       0.065       0.066

           -------------------------------------------------
          |                Geometry Summary                 |
           -------------------------------------------------

      molecular mass/u    :       58.1223511
   center of mass at/Å    :       -2.0722896       1.8490408       1.9443369
Note: The following floating-point exceptions are signalling: IEEE_INVALID_FLAG IEEE_UNDERFLOW_FLAG IEEE_DENORMAL
normal termination of xtb
  moments of inertia/u·Å² :        0.3765300E+02   0.1054475E+03   0.1228231E+03
rotational constants/cm⁻¹ :        0.4477103E+00   0.1598676E+00   0.1372513E+00

 * 13 selected distances

     #   Z          #   Z                                           value/Å
     1   6 C        2   1 H                                       1.0879157
     1   6 C        3   1 H                                       1.0880901
     1   6 C        4   1 H                                       1.0866277 (min)
     1   6 C        5   6 C                                       1.5244574
     5   6 C        6   1 H                                       1.0930351
     5   6 C        7   1 H                                       1.0927953
     5   6 C        8   6 C                                       1.5288975 (max)
     8   6 C        9   1 H                                       1.0929579
     8   6 C       10   1 H                                       1.0926853
     8   6 C       11   6 C                                       1.5244203
    11   6 C       12   1 H                                       1.0870457
    11   6 C       13   1 H                                       1.0885606
    11   6 C       14   1 H                                       1.0882033

 * 2 distinct bonds (by element types)

   Z      Z             #   av. dist./Å        max./Å        min./Å
   1 H    6 C          10     1.0897917     1.0930351     1.0866277
   6 C    6 C           3     1.5259251     1.5288975     1.5244203


optimized geometry written to: xtbopt.xyz


           -------------------------------------------------
          | TOTAL ENERGY              -13.664174920408 Eh   |
          | GRADIENT NORM               0.000603267260 Eh/α |
          | HOMO-LUMO GAP              14.252642363855 eV   |
           -------------------------------------------------

------------------------------------------------------------------------
 * finished run on 2026/08/11 at 11:11:57.631     
------------------------------------------------------------------------
 total:
 * wall-time:     0 d,  0 h,  0 min,  0.300 sec
 *  cpu-time:     0 d,  0 h,  0 min,  1.099 sec
 * ratio c/w:     3.663 speedup
 SCF:
 * wall-time:     0 d,  0 h,  0 min,  0.084 sec
 *  cpu-time:     0 d,  0 h,  0 min,  0.319 sec
 * ratio c/w:     3.794 speedup
 ANC optimizer:
 * wall-time:     0 d,  0 h,  0 min,  0.171 sec
 *  cpu-time:     0 d,  0 h,  0 min,  0.629 sec
 * ratio c/w:     3.667 speedup

