14
 energy: -13.664174920408 gnorm: 0.000603267260 xtb: 6.7.1 (edcfbbe)
C           -2.01643567753620        0.30374825936214        2.57073325856426
H           -1.57463558435778       -0.67984710480819        2.42611955130266
H           -3.06857532694552        0.17394615766109        2.81587265465758
H           -1.52153373992104        0.77514764952635        3.41549014542585
C           -1.86324776973466        1.14362736650809        1.30775799491750
H           -2.29780869512790        0.59724757462363        0.46671617053445
H           -0.80125423938712        1.28736473744627        1.09395751996673
C           -2.54471537823243        2.50865058460399        1.40695731594799
H           -2.51981573022424        2.98314131910843        0.42268328884985
H           -3.59366258592602        2.36720153204298        1.67836652723330
C           -1.88144884399616        3.43727003486505        2.41769972892026
H           -1.97858083972874        3.04818531763420        3.42806922169003
H           -0.82263611027613        3.55105112995812        2.19201538326723
H           -2.34550855860603        4.42112295146790        2.38823455872220
