      -----------------------------------------------------------      
     |                   =====================                   |     
     |                           x T B                           |     
     |                   =====================                   |     
     |                         S. Grimme                         |     
     |          Mulliken Center for Theoretical Chemistry        |     
     |                    University of Bonn                     |     
      -----------------------------------------------------------      

   * xtb version 6.7.1 (edcfbbe) compiled by 'conda@5dfe00f5fb80' on 2026-06-10

   xtb is free software: you can redistribute it and/or modify it under
   the terms of the GNU Lesser General Public License as published by
   the Free Software Foundation, either version 3 of the License, or
   (at your option) any later version.
   
   xtb is distributed in the hope that it will be useful,
   but WITHOUT ANY WARRANTY; without even the implied warranty of
   MERCHANTABILITY or FITNESS FOR A PARTICULAR PURPOSE.  See the
   GNU Lesser General Public License for more details.
   
   Cite this work as:
   * C. Bannwarth, E. Caldeweyher, S. Ehlert, A. Hansen, P. Pracht,
     J. Seibert, S. Spicher, S. Grimme, WIREs Comput. Mol. Sci., 2020, 11,
     e01493. DOI: 10.1002/wcms.1493
   
   for GFN2-xTB:
   * C. Bannwarth, S. Ehlert and S. Grimme., J. Chem. Theory Comput., 2019,
     15, 1652-1671. DOI: 10.1021/acs.jctc.8b01176
   for GFN1-xTB:
   * S. Grimme, C. Bannwarth, P. Shushkov, J. Chem. Theory Comput., 2017,
     13, 1989-2009. DOI: 10.1021/acs.jctc.7b00118
   for GFN0-xTB:
   * P. Pracht, E. Caldeweyher, S. Ehlert, S. Grimme, ChemRxiv, 2019, preprint.
     DOI: 10.26434/chemrxiv.8326202.v1
   for GFN-FF:
   * S. Spicher and S. Grimme, Angew. Chem. Int. Ed., 2020, 59, 15665-15673.
     DOI: 10.1002/anie.202004239
   
   for ALPB and GBSA implicit solvation:
   * S. Ehlert, M. Stahn, S. Spicher, S. Grimme, J. Chem. Theory Comput.,
     2021, 17, 4250-4261. DOI: 10.1021/acs.jctc.1c00471
   
   for ddCOSMO and CPCM-X implicit solvation:
   * M. Stahn, S. Ehlert, S. Grimme, J. Phys. Chem. A,
     2023, XX, XXXX-XXXX. DOI: 10.1021/acs.jpca.3c04382
   
   for DFT-D4:
   * E. Caldeweyher, C. Bannwarth and S. Grimme, J. Chem. Phys., 2017,
     147, 034112. DOI: 10.1063/1.4993215
   * E. Caldeweyher, S. Ehlert, A. Hansen, H. Neugebauer, S. Spicher,
     C. Bannwarth and S. Grimme, J. Chem. Phys., 2019, 150, 154122.
     DOI: 10.1063/1.5090222
   * E. Caldeweyher, J.-M. Mewes, S. Ehlert and S. Grimme, Phys. Chem. Chem. Phys.
     2020, 22, 8499-8512. DOI: 10.1039/D0CP00502A
   
   for sTDA-xTB:
   * S. Grimme and C. Bannwarth, J. Chem. Phys., 2016, 145, 054103.
     DOI: 10.1063/1.4959605
   
   in the mass-spec context:
   * V. Asgeirsson, C. Bauer and S. Grimme, Chem. Sci., 2017, 8, 4879.
     DOI: 10.1039/c7sc00601b
   * J. Koopman and S. Grimme, ACS Omega 2019, 4, 12, 15120-15133.
     DOI: 10.1021/acsomega.9b02011
   
   for metadynamics refer to:
   * S. Grimme, J. Chem. Theory Comput., 2019, 155, 2847-2862
     DOI: 10.1021/acs.jctc.9b00143
   
   for SPH calculations refer to:
   * S. Spicher and S. Grimme, J. Chem. Theory Comput., 2021, 17, 1701-1714
     DOI: 10.1021/acs.jctc.0c01306
   
   for ONIOM refer to:
   * C. Plett, A. Katbashev, S. Ehlert, S. Grimme, M. Bursch,
     Phys. Chem. Chem. Phys., 2023, 25, 17860-17868. DOI: 10.1039/D3CP02178E
   
   for DIPRO refer to:
   * J. Kohn, N. Gildemeister, S. Grimme, D. Fazzi, A. Hansen,
     J. Chem. Phys., 2023, just accepted.
   
   for PTB refer to:
   * S. Grimme, M. Mueller, A. Hansen, J. Chem. Phys., 2023, 158, 124111.
     DOI: 10.1063/5.0137838
   
   with help from (in alphabetical order)
   P. Atkinson, C. Bannwarth, F. Bohle, G. Brandenburg, E. Caldeweyher
   M. Checinski, S. Dohm, S. Ehlert, S. Ehrlich, I. Gerasimov, C. Hölzer
   A. Katbashev, J. Kohn, J. Koopman, C. Lavigne, S. Lehtola, F. März, M. Müller,
   F. Musil, H. Neugebauer, J. Pisarek, C. Plett, P. Pracht, F. Pultar,
   J. Seibert, P. Shushkov, S. Spicher, M. Stahn, M. Steiner, T. Strunk,
   J. Stückrath, T. Rose, and J. Unsleber
   
 * started run on 2026/08/11 at 11:11:59.236     
   ID    Z sym.   atoms
    1    6 C      1, 5, 8, 11
    2    1 H      2-4, 6, 7, 9, 10, 12-14

           -------------------------------------------------
          |                Calculation Setup                |
           -------------------------------------------------

          program call               : xtb input.xyz --gfn2 --opt tight --chrg 0 --uhf 0 --iterations 250
          coordinate file            : input.xyz
          omp threads                :                     4


           -------------------------------------------------
          |                 G F N 2 - x T B                 |
           -------------------------------------------------

        Reference                      10.1021/acs.jctc.8b01176
      * Hamiltonian:
        H0-scaling (s, p, d)           1.850000    2.230000    2.230000
        zeta-weighting                 0.500000
      * Dispersion:
        s8                             2.700000
        a1                             0.520000
        a2                             5.000000
        s9                             5.000000
      * Repulsion:
        kExp                           1.500000    1.000000
        rExp                           1.000000
      * Coulomb:
        alpha                          2.000000
        third order                    shell-resolved
        anisotropic                    true
        a3                             3.000000
        a5                             4.000000
        cn-shift                       1.200000
        cn-exp                         4.000000
        max-rad                        5.000000


          ...................................................
          :                      SETUP                      :
          :.................................................:
          :  # basis functions                  26          :
          :  # atomic orbitals                  26          :
          :  # shells                           18          :
          :  # electrons                        26          :
          :  max. iterations                   250          :
          :  Hamiltonian                  GFN2-xTB          :
          :  restarted?                      false          :
          :  GBSA solvation                  false          :
          :  PC potential                    false          :
          :  electronic temp.          300.0000000     K    :
          :  accuracy                    1.0000000          :
          :  -> integral cutoff          0.2500000E+02      :
          :  -> integral neglect         0.1000000E-07      :
          :  -> SCF convergence          0.1000000E-05 Eh   :
          :  -> wf. convergence          0.1000000E-03 e    :
          :  Broyden damping             0.4000000          :
          :  net charge                          0          :
          :  unpaired electrons                  0          :
          ...................................................

 iter      E             dE          RMSdq      gap      omega  full diag
   1    -13.8248921 -0.138249E+02  0.252E+00   13.63       0.0  T
   2    -13.8638361 -0.389439E-01  0.129E+00   13.25       1.0  T
   3    -13.8642721 -0.436074E-03  0.692E-01   13.23       1.0  T
   4    -13.8643866 -0.114458E-03  0.908E-02   13.24       1.0  T
   5    -13.8643929 -0.632226E-05  0.504E-02   13.24       1.0  T
   6    -13.8643932 -0.316400E-06  0.168E-03   13.24      15.9  T
   7    -13.8643932 -0.381316E-08  0.718E-04   13.24      37.2  T
   8    -13.8643933 -0.415032E-09  0.108E-04   13.24     248.1  T

   *** convergence criteria satisfied after 8 iterations ***

         #    Occupation            Energy/Eh            Energy/eV
      -------------------------------------------------------------
         1        2.0000           -0.6168318             -16.7848
       ...           ...                  ...                  ...
         7        2.0000           -0.4888175             -13.3014
         8        2.0000           -0.4807982             -13.0832
         9        2.0000           -0.4517689             -12.2933
        10        2.0000           -0.4407457             -11.9933
        11        2.0000           -0.4386023             -11.9350
        12        2.0000           -0.4265403             -11.6068
        13        2.0000           -0.4133219             -11.2471 (HOMO)
        14                          0.0732175               1.9924 (LUMO)
        15                          0.1123500               3.0572
        16                          0.1196676               3.2563
        17                          0.1506594               4.0997
        18                          0.1604226               4.3653
       ...                                ...                  ...
        26                          0.3292252               8.9587
      -------------------------------------------------------------
                  HL-Gap            0.4865394 Eh           13.2394 eV
             Fermi-level           -0.1700522 Eh           -4.6274 eV

 SCC (total)                   0 d,  0 h,  0 min,  0.013 sec
 SCC setup                      ...        0 min,  0.000 sec (  1.743%)
 Dispersion                     ...        0 min,  0.000 sec (  2.104%)
 classical contributions        ...        0 min,  0.000 sec (  0.875%)
 integral evaluation            ...        0 min,  0.002 sec ( 13.035%)
 iterations                     ...        0 min,  0.006 sec ( 43.138%)
 molecular gradient             ...        0 min,  0.005 sec ( 37.446%)
 printout                       ...        0 min,  0.000 sec (  1.495%)

         :::::::::::::::::::::::::::::::::::::::::::::::::::::
         ::                     SUMMARY                     ::
         :::::::::::::::::::::::::::::::::::::::::::::::::::::
         :: total energy             -13.658343149074 Eh    ::
         :: gradient norm              0.015008680354 Eh/a0 ::
         :: HOMO-LUMO gap             13.239411053773 eV    ::
         ::.................................................::
         :: SCC energy               -13.864389346941 Eh    ::
         :: -> isotropic ES            0.002972061360 Eh    ::
         :: -> anisotropic ES          0.005133789757 Eh    ::
         :: -> anisotropic XC          0.009175864565 Eh    ::
         :: -> dispersion             -0.006011335021 Eh    ::
         :: repulsion energy           0.206046197868 Eh    ::
         :: add. restraining           0.000000000000 Eh    ::
         :: total charge               0.000000000000 e     ::
         :::::::::::::::::::::::::::::::::::::::::::::::::::::

      ----------------------------------------------------------- 
     |                   =====================                   |
     |                        A N C O P T                        |
     |                   =====================                   |
     |               Approximate Normal Coordinate               |
     |                Rational Function Optimizer                |
      ----------------------------------------------------------- 
      ----------------------------------------------------------- 
     |                   =====================                   |
     |                        A N C O P T                        |
     |                   =====================                   |
     |               Approximate Normal Coordinate               |
     |                Rational Function Optimizer                |
      ----------------------------------------------------------- 

          ...................................................
          :                      SETUP                      :
          :.................................................:
          :   optimization level             tight          :
          :   max. optcycles                   200          :
          :   ANC micro-cycles                  20          :
          :   degrees of freedom                36          :
          :.................................................:
          :   RF solver                   davidson          :
          :   write xtbopt.log                true          :
          :   linear?                        false          :
          :   energy convergence         0.1000000E-05 Eh   :
          :   grad. convergence          0.8000000E-03 Eh/α :
          :   maxmium RF displ.          1.0000000          :
          :   Hlow (freq-cutoff)         0.1000000E-01      :
          :   Hmax (freq-cutoff)         5.0000000          :
          :   S6 in model hess.         20.0000000          :
          ...................................................

generating ANC from exact Hessian ...
Using Lindh-Hessian (1995)
 Shifting diagonal of input Hessian by    5.8698668405670115E-003
 Lowest  eigenvalues of input Hessian
    0.000000    0.000000    0.000000    0.000000    0.000000    0.000000
    0.010000    0.013088    0.013448    0.017798    0.022018    0.044633
    0.046983    0.057079    0.059150    0.060161    0.061296    0.069874
 Highest eigenvalues
    1.107175    1.129991    1.174288    1.192191    1.211892    1.288943


........................................................................
.............................. CYCLE    1 ..............................
........................................................................

 iter      E             dE          RMSdq      gap      omega  full diag
   1    -13.8643933 -0.138644E+02  0.523E-05   13.24       0.0  T
   2    -13.8643933 -0.233591E-11  0.289E-05   13.24     924.2  T
   3    -13.8643933 -0.200728E-12  0.799E-06   13.24    3345.6  T
     SCC iter.                  ...        0 min,  0.002 sec
     gradient                   ...        0 min,  0.004 sec
 * total energy  :   -13.6583431 Eh     change       -0.1818634E-10 Eh
   gradient norm :     0.0150083 Eh/α   predicted     0.0000000E+00 (-100.00%)
   displ. norm   :     0.1621845 α      lambda       -0.8304416E-03
   maximum displ.:     0.1213233 α      in ANC's #4, #5, #3, ...

........................................................................
.............................. CYCLE    2 ..............................
........................................................................

 iter      E             dE          RMSdq      gap      omega  full diag
   1    -13.8674173 -0.138674E+02  0.870E-02   13.39       0.0  T
   2    -13.8674190 -0.172886E-05  0.509E-02   13.40       1.0  T
   3    -13.8674191 -0.831844E-07  0.433E-03   13.39       6.2  T
   4    -13.8674192 -0.284354E-07  0.102E-03   13.39      26.2  T
   5    -13.8674192 -0.961991E-09  0.529E-04   13.39      50.5  T
   6    -13.8674192 -0.116744E-09  0.736E-05   13.39     363.3  T
     SCC iter.                  ...        0 min,  0.004 sec
     gradient                   ...        0 min,  0.005 sec
 * total energy  :   -13.6589580 Eh     change       -0.6148991E-03 Eh
   gradient norm :     0.0057951 Eh/α   predicted    -0.4261426E-03 ( -30.70%)
   displ. norm   :     0.3384649 α      lambda       -0.9414994E-03
   maximum displ.:     0.3079194 α      in ANC's #4, #3, #5, ...

........................................................................
.............................. CYCLE    3 ..............................
........................................................................

 iter      E             dE          RMSdq      gap      omega  full diag
   1    -13.8693569 -0.138694E+02  0.115E-01   13.45       0.0  T
   2    -13.8693586 -0.174228E-05  0.685E-02   13.45       1.0  T
   3    -13.8693588 -0.150122E-06  0.436E-03   13.45       6.1  T
   4    -13.8693588 -0.401755E-07  0.158E-03   13.45      16.9  T
   5    -13.8693588 -0.765366E-09  0.592E-04   13.45      45.1  T
   6    -13.8693588 -0.165704E-09  0.920E-05   13.45     290.5  T
     SCC iter.                  ...        0 min,  0.004 sec
     gradient                   ...        0 min,  0.005 sec
 * total energy  :   -13.6597260 Eh     change       -0.7679212E-03 Eh
   gradient norm :     0.0075513 Eh/α   predicted    -0.5246746E-03 ( -31.68%)
   displ. norm   :     0.3685388 α      lambda       -0.8772553E-03
   maximum displ.:     0.3498091 α      in ANC's #4, #3, #2, ...

........................................................................
.............................. CYCLE    4 ..............................
........................................................................

 iter      E             dE          RMSdq      gap      omega  full diag
   1    -13.8683190 -0.138683E+02  0.116E-01   13.47       0.0  T
   2    -13.8683210 -0.201146E-05  0.690E-02   13.46       1.0  T
   3    -13.8683212 -0.125310E-06  0.564E-03   13.47       4.7  T
   4    -13.8683212 -0.881613E-07  0.183E-03   13.46      14.6  T
   5    -13.8683212 -0.559776E-09  0.680E-04   13.46      39.3  T
   6    -13.8683212 -0.267111E-09  0.833E-05   13.46     321.0  T
     SCC iter.                  ...        0 min,  0.004 sec
     gradient                   ...        0 min,  0.004 sec
 * total energy  :   -13.6604774 Eh     change       -0.7514132E-03 Eh
   gradient norm :     0.0135726 Eh/α   predicted    -0.4982017E-03 ( -33.70%)
   displ. norm   :     0.3167359 α      lambda       -0.9461191E-03
   maximum displ.:     0.3095466 α      in ANC's #4, #24, #5, ...

........................................................................
.............................. CYCLE    5 ..............................
........................................................................

 iter      E             dE          RMSdq      gap      omega  full diag
   1    -13.8679814 -0.138680E+02  0.105E-01   13.46       0.0  T
   2    -13.8679825 -0.106912E-05  0.623E-02   13.46       1.0  T
   3    -13.8679825 -0.846931E-07  0.380E-03   13.46       7.0  T
   4    -13.8679826 -0.445423E-07  0.140E-03   13.46      19.2  T
   5    -13.8679826 -0.115333E-08  0.626E-04   13.46      42.7  T
   6    -13.8679826 -0.234186E-09  0.972E-05   13.46     274.9  T
     SCC iter.                  ...        0 min,  0.004 sec
     gradient                   ...        0 min,  0.005 sec
 * total energy  :   -13.6613188 Eh     change       -0.8413723E-03 Eh
   gradient norm :     0.0125047 Eh/α   predicted    -0.5205190E-03 ( -38.13%)
   displ. norm   :     0.5719497 α      lambda       -0.1746346E-02
   maximum displ.:     0.5533403 α      in ANC's #4, #24, #5, ...

........................................................................
.............................. CYCLE    6 ..............................
........................................................................

 iter      E             dE          RMSdq      gap      omega  full diag
   1    -13.8650875 -0.138651E+02  0.189E-01   13.49       0.0  T
   2    -13.8650981 -0.106356E-04  0.111E-01   13.48       1.0  T
   3    -13.8650986 -0.465745E-06  0.134E-02   13.48       2.0  T
   4    -13.8650987 -0.151511E-06  0.303E-03   13.48       8.8  T
   5    -13.8650987 -0.352860E-08  0.137E-03   13.48      19.6  T
   6    -13.8650987 -0.970061E-09  0.210E-04   13.48     127.2  T
   7    -13.8650987 -0.670148E-10  0.973E-05   13.48     274.7  T
     SCC iter.                  ...        0 min,  0.006 sec
     gradient                   ...        0 min,  0.005 sec
 * total energy  :   -13.6625049 Eh     change       -0.1186151E-02 Eh
   gradient norm :     0.0155017 Eh/α   predicted    -0.1158820E-02 (  -2.30%)
   displ. norm   :     0.2657943 α      lambda       -0.8898175E-03
   maximum displ.:     0.2398209 α      in ANC's #4, #24, #5, ...

........................................................................
.............................. CYCLE    7 ..............................
........................................................................

 iter      E             dE          RMSdq      gap      omega  full diag
   1    -13.8684489 -0.138684E+02  0.932E-02   13.54       0.0  T
   2    -13.8684498 -0.868453E-06  0.554E-02   13.54       1.0  T
   3    -13.8684499 -0.121328E-06  0.450E-03   13.54       5.9  T
   4    -13.8684500 -0.927577E-07  0.194E-03   13.54      13.8  T
   5    -13.8684500 -0.136653E-08  0.325E-04   13.54      82.2  T
   6    -13.8684500 -0.170989E-09  0.124E-04   13.54     214.9  T
     SCC iter.                  ...        0 min,  0.004 sec
     gradient                   ...        0 min,  0.005 sec
 * total energy  :   -13.6631495 Eh     change       -0.6445485E-03 Eh
   gradient norm :     0.0135480 Eh/α   predicted    -0.4763371E-03 ( -26.10%)
   displ. norm   :     0.2695018 α      lambda       -0.7268095E-03
   maximum displ.:     0.2433102 α      in ANC's #4, #24, #11, ...

........................................................................
.............................. CYCLE    8 ..............................
........................................................................

 iter      E             dE          RMSdq      gap      omega  full diag
   1    -13.8719297 -0.138719E+02  0.816E-02   13.66       0.0  T
   2    -13.8719306 -0.911763E-06  0.488E-02   13.67       1.0  T
   3    -13.8719307 -0.809131E-07  0.379E-03   13.66       7.1  T
   4    -13.8719308 -0.458633E-07  0.143E-03   13.66      18.7  T
   5    -13.8719308 -0.479629E-09  0.481E-04   13.66      55.5  T
   6    -13.8719308 -0.955289E-10  0.697E-05   13.66     383.3  T
     SCC iter.                  ...        0 min,  0.004 sec
     gradient                   ...        0 min,  0.004 sec
 * total energy  :   -13.6636903 Eh     change       -0.5408365E-03 Eh
   gradient norm :     0.0116222 Eh/α   predicted    -0.3898003E-03 ( -27.93%)
   displ. norm   :     0.4159865 α      lambda       -0.6834673E-03
   maximum displ.:     0.3860108 α      in ANC's #4, #24, #1, ...

........................................................................
.............................. CYCLE    9 ..............................
........................................................................

 iter      E             dE          RMSdq      gap      omega  full diag
   1    -13.8684727 -0.138685E+02  0.128E-01   13.73       0.0  T
   2    -13.8684771 -0.448254E-05  0.758E-02   13.73       1.0  T
   3    -13.8684774 -0.260528E-06  0.930E-03   13.73       2.9  T
   4    -13.8684776 -0.158179E-06  0.265E-03   13.73      10.1  T
   5    -13.8684776 -0.422017E-08  0.130E-03   13.73      20.5  T
   6    -13.8684776 -0.881396E-09  0.149E-04   13.73     179.8  T
   7    -13.8684776 -0.227320E-10  0.663E-05   13.73     403.0  T
     SCC iter.                  ...        0 min,  0.004 sec
     gradient                   ...        0 min,  0.003 sec
 * total energy  :   -13.6639541 Eh     change       -0.2637902E-03 Eh
   gradient norm :     0.0158259 Eh/α   predicted    -0.4008789E-03 (  51.97%)
   displ. norm   :     0.2175899 α      lambda       -0.1091583E-02
   maximum displ.:     0.1175839 α      in ANC's #3, #4, #24, ...

........................................................................
.............................. CYCLE   10 ..............................
........................................................................

 iter      E             dE          RMSdq      gap      omega  full diag
   1    -13.8805306 -0.138805E+02  0.124E-01   13.84       0.0  T
   2    -13.8805511 -0.205392E-04  0.684E-02   13.85       1.0  T
   3    -13.8805517 -0.654402E-06  0.210E-02   13.84       1.3  T
   4    -13.8805519 -0.119263E-06  0.365E-03   13.84       7.3  T
   5    -13.8805519 -0.552430E-08  0.194E-03   13.84      13.8  T
   6    -13.8805519 -0.124879E-08  0.142E-04   13.84     188.8  T
   7    -13.8805519 -0.506901E-10  0.667E-05   13.84     400.4  T
     SCC iter.                  ...        0 min,  0.004 sec
     gradient                   ...        0 min,  0.003 sec
 * total energy  :   -13.6642192 Eh     change       -0.2650952E-03 Eh
   gradient norm :     0.0129769 Eh/α   predicted    -0.5716298E-03 ( 115.63%)
   displ. norm   :     0.2091692 α      lambda       -0.4952598E-03
   maximum displ.:     0.1905820 α      in ANC's #4, #3, #24, ...

........................................................................
.............................. CYCLE   11 ..............................
........................................................................

 iter      E             dE          RMSdq      gap      omega  full diag
   1    -13.8721208 -0.138721E+02  0.109E-01   13.76       0.0  T
   2    -13.8721328 -0.119936E-04  0.605E-02   13.75       1.0  T
   3    -13.8721333 -0.532153E-06  0.172E-02   13.75       1.6  T
   4    -13.8721335 -0.162887E-06  0.353E-03   13.76       7.6  T
   5    -13.8721335 -0.557694E-08  0.182E-03   13.76      14.7  T
   6    -13.8721335 -0.133644E-08  0.193E-04   13.75     138.3  T
   7    -13.8721335 -0.847589E-10  0.818E-05   13.75     326.9  T
     SCC iter.                  ...        0 min,  0.004 sec
     gradient                   ...        0 min,  0.002 sec
 * total energy  :   -13.6641854 Eh     change        0.3380128E-04 Eh
   gradient norm :     0.0163520 Eh/α   predicted    -0.2584666E-03 (-864.67%)
   displ. norm   :     0.1492637 α      lambda       -0.7221570E-03
   maximum displ.:     0.1005085 α      in ANC's #4, #3, #24, ...

........................................................................
.............................. CYCLE   12 ..............................
........................................................................

 iter      E             dE          RMSdq      gap      omega  full diag
   1    -13.8730030 -0.138730E+02  0.935E-02   13.73       0.0  T
   2    -13.8730160 -0.129984E-04  0.502E-02   13.73       1.0  T
   3    -13.8730166 -0.584005E-06  0.184E-02   13.73       1.5  T
   4    -13.8730167 -0.138656E-06  0.344E-03   13.73       7.8  T
   5    -13.8730167 -0.120186E-08  0.115E-03   13.73      23.2  T
   6    -13.8730167 -0.278423E-08  0.157E-04   13.73     169.9  T
   7    -13.8730167 -0.127240E-10  0.609E-05   13.73     438.9  T
     SCC iter.                  ...        0 min,  0.004 sec
     gradient                   ...        0 min,  0.002 sec
 * total energy  :   -13.6643539 Eh     change       -0.1685692E-03 Eh
   gradient norm :     0.0074133 Eh/α   predicted    -0.3691239E-03 ( 118.97%)
   displ. norm   :     0.0640670 α      lambda       -0.2651712E-03
   maximum displ.:     0.0499781 α      in ANC's #3, #6, #2, ...

........................................................................
.............................. CYCLE   13 ..............................
........................................................................

 iter      E             dE          RMSdq      gap      omega  full diag
   1    -13.8763350 -0.138763E+02  0.511E-02   13.76       0.0  T
   2    -13.8763377 -0.274098E-05  0.286E-02   13.76       1.0  T
   3    -13.8763379 -0.121973E-06  0.783E-03   13.76       3.4  T
   4    -13.8763379 -0.227362E-07  0.157E-03   13.76      17.0  T
   5    -13.8763379 -0.476966E-09  0.642E-04   13.76      41.7  T
   6    -13.8763379 -0.152728E-09  0.899E-05   13.76     297.3  T
     SCC iter.                  ...        0 min,  0.003 sec
     gradient                   ...        0 min,  0.002 sec
 * total energy  :   -13.6644801 Eh     change       -0.1261740E-03 Eh
   gradient norm :     0.0036666 Eh/α   predicted    -0.1331285E-03 (   5.51%)
   displ. norm   :     0.0518199 α      lambda       -0.5459278E-04
   maximum displ.:     0.0329015 α      in ANC's #3, #4, #1, ...

........................................................................
.............................. CYCLE   14 ..............................
........................................................................

 iter      E             dE          RMSdq      gap      omega  full diag
   1    -13.8758880 -0.138759E+02  0.202E-02   13.76       0.0  T
   2    -13.8758881 -0.120404E-06  0.118E-02   13.76       2.3  T
   3    -13.8758881 -0.878294E-08  0.167E-03   13.76      16.0  T
   4    -13.8758881 -0.547748E-08  0.501E-04   13.76      53.4  T
   5    -13.8758881 -0.144766E-09  0.186E-04   13.76     144.0  T
     SCC iter.                  ...        0 min,  0.003 sec
     gradient                   ...        0 min,  0.002 sec
 * total energy  :   -13.6645213 Eh     change       -0.4117504E-04 Eh
   gradient norm :     0.0042381 Eh/α   predicted    -0.2736785E-04 ( -33.53%)
   displ. norm   :     0.1199550 α      lambda       -0.1100461E-03
   maximum displ.:     0.0818222 α      in ANC's #3, #4, #1, ...

........................................................................
.............................. CYCLE   15 ..............................
........................................................................

 iter      E             dE          RMSdq      gap      omega  full diag
   1    -13.8747836 -0.138748E+02  0.381E-02   13.76       0.0  T
   2    -13.8747839 -0.276360E-06  0.225E-02   13.76       1.2  T
   3    -13.8747839 -0.217729E-07  0.223E-03   13.76      12.0  T
   4    -13.8747839 -0.116540E-07  0.759E-04   13.76      35.2  T
   5    -13.8747839 -0.232177E-09  0.316E-04   13.76      84.6  T
     SCC iter.                  ...        0 min,  0.003 sec
     gradient                   ...        0 min,  0.002 sec
 * total energy  :   -13.6646002 Eh     change       -0.7886876E-04 Eh
   gradient norm :     0.0052400 Eh/α   predicted    -0.5581353E-04 ( -29.23%)
   displ. norm   :     0.1562737 α      lambda       -0.1503938E-03
   maximum displ.:     0.1229587 α      in ANC's #3, #1, #25, ...

........................................................................
.............................. CYCLE   16 ..............................
........................................................................

 iter      E             dE          RMSdq      gap      omega  full diag
   1    -13.8745757 -0.138746E+02  0.505E-02   13.75       0.0  T
   2    -13.8745759 -0.157610E-06  0.301E-02   13.75       1.0  T
   3    -13.8745759 -0.291447E-07  0.164E-03   13.75      16.3  T
   4    -13.8745759 -0.777399E-08  0.768E-04   13.75      34.8  T
   5    -13.8745759 -0.408187E-09  0.157E-04   13.75     170.0  T
     SCC iter.                  ...        0 min,  0.003 sec
     gradient                   ...        0 min,  0.002 sec
 * total energy  :   -13.6647134 Eh     change       -0.1132780E-03 Eh
   gradient norm :     0.0061045 Eh/α   predicted    -0.7703188E-04 ( -32.00%)
   displ. norm   :     0.2233400 α      lambda       -0.2035197E-03
   maximum displ.:     0.1696566 α      in ANC's #3, #4, #25, ...

........................................................................
.............................. CYCLE   17 ..............................
........................................................................

 iter      E             dE          RMSdq      gap      omega  full diag
   1    -13.8743925 -0.138744E+02  0.660E-02   13.75       0.0  T
   2    -13.8743931 -0.637103E-06  0.393E-02   13.75       1.0  T
   3    -13.8743932 -0.490815E-07  0.309E-03   13.75       8.7  T
   4    -13.8743932 -0.215431E-07  0.104E-03   13.75      25.8  T
   5    -13.8743932 -0.208027E-09  0.332E-04   13.75      80.6  T
   6    -13.8743932 -0.174595E-09  0.626E-05   13.75     426.7  T
     SCC iter.                  ...        0 min,  0.003 sec
     gradient                   ...        0 min,  0.002 sec
 * total energy  :   -13.6648403 Eh     change       -0.1268176E-03 Eh
   gradient norm :     0.0059415 Eh/α   predicted    -0.1068390E-03 ( -15.75%)
   displ. norm   :     0.1068246 α      lambda       -0.1043856E-03
   maximum displ.:     0.0854212 α      in ANC's #3, #25, #6, ...

........................................................................
.............................. CYCLE   18 ..............................
........................................................................

 iter      E             dE          RMSdq      gap      omega  full diag
   1    -13.8752010 -0.138752E+02  0.356E-02   13.78       0.0  T
   2    -13.8752011 -0.921748E-07  0.213E-02   13.78       1.3  T
   3    -13.8752011 -0.108469E-07  0.143E-03   13.78      18.7  T
   4    -13.8752011 -0.998364E-08  0.571E-04   13.78      46.8  T
   5    -13.8752011 -0.116133E-09  0.132E-04   13.78     203.0  T
     SCC iter.                  ...        0 min,  0.003 sec
     gradient                   ...        0 min,  0.002 sec
 * total energy  :   -13.6649137 Eh     change       -0.7341891E-04 Eh
   gradient norm :     0.0040449 Eh/α   predicted    -0.5278864E-04 ( -28.10%)
   displ. norm   :     0.0953893 α      lambda       -0.9174607E-04
   maximum displ.:     0.0717676 α      in ANC's #3, #4, #25, ...

........................................................................
.............................. CYCLE   19 ..............................
........................................................................

 iter      E             dE          RMSdq      gap      omega  full diag
   1    -13.8765337 -0.138765E+02  0.350E-02   13.82       0.0  T
   2    -13.8765339 -0.202648E-06  0.207E-02   13.82       1.3  T
   3    -13.8765340 -0.227681E-07  0.198E-03   13.82      13.5  T
   4    -13.8765340 -0.949823E-08  0.729E-04   13.82      36.7  T
   5    -13.8765340 -0.267244E-09  0.253E-04   13.82     105.7  T
     SCC iter.                  ...        0 min,  0.003 sec
     gradient                   ...        0 min,  0.002 sec
 * total energy  :   -13.6649660 Eh     change       -0.5227549E-04 Eh
   gradient norm :     0.0028174 Eh/α   predicted    -0.4628995E-04 ( -11.45%)
   displ. norm   :     0.0831215 α      lambda       -0.3933805E-04
   maximum displ.:     0.0612377 α      in ANC's #3, #1, #25, ...

........................................................................
.............................. CYCLE   20 ..............................
........................................................................

 iter      E             dE          RMSdq      gap      omega  full diag
   1    -13.8759324 -0.138759E+02  0.264E-02   13.81       0.0  T
   2    -13.8759326 -0.111694E-06  0.157E-02   13.81       1.7  T
   3    -13.8759326 -0.842171E-08  0.112E-03   13.81      23.9  T
   4    -13.8759326 -0.197698E-08  0.379E-04   13.81      70.5  T
   5    -13.8759326 -0.180764E-09  0.172E-04   13.81     155.4  T
     SCC iter.                  ...        0 min,  0.003 sec
     gradient                   ...        0 min,  0.002 sec
 * total energy  :   -13.6649902 Eh     change       -0.2427701E-04 Eh
   gradient norm :     0.0030102 Eh/α   predicted    -0.1980589E-04 ( -18.42%)
   displ. norm   :     0.0633271 α      lambda       -0.2966869E-04
   maximum displ.:     0.0470402 α      in ANC's #1, #3, #2, ...
 * RMSD in coord.:     0.7529279 α      energy gain  -0.6647080E-02 Eh

generating ANC from exact Hessian ...
Using Lindh-Hessian (1995)
 Shifting diagonal of input Hessian by    5.7817897564926678E-003
 Lowest  eigenvalues of input Hessian
    0.000000    0.000000    0.000000    0.000000    0.000000    0.000000
    0.010000    0.013363    0.013766    0.018335    0.022482    0.045960
    0.048031    0.057717    0.060239    0.060585    0.062498    0.071010
 Highest eigenvalues
    1.131629    1.150488    1.194474    1.201581    1.226025    1.290427


........................................................................
.............................. CYCLE   21 ..............................
........................................................................

 iter      E             dE          RMSdq      gap      omega  full diag
   1    -13.8756808 -0.138757E+02  0.200E-02   13.80       0.0  T
   2    -13.8756808 -0.245723E-07  0.119E-02   13.80       2.2  T
   3    -13.8756808 -0.435573E-08  0.587E-04   13.80      45.5  T
   4    -13.8756808 -0.801748E-09  0.280E-04   13.80      95.5  T
     SCC iter.                  ...        0 min,  0.007 sec
     gradient                   ...        0 min,  0.002 sec
 * total energy  :   -13.6650138 Eh     change       -0.2361993E-04 Eh
   gradient norm :     0.0024202 Eh/α   predicted     0.0000000E+00 (-100.00%)
   displ. norm   :     0.0422127 α      lambda       -0.3080604E-04
   maximum displ.:     0.0387400 α      in ANC's #1, #6, #3, ...

........................................................................
.............................. CYCLE   22 ..............................
........................................................................

 iter      E             dE          RMSdq      gap      omega  full diag
   1    -13.8758150 -0.138758E+02  0.166E-02   13.80       0.0  T
   2    -13.8758150 -0.265228E-07  0.984E-03   13.80       2.7  T
   3    -13.8758150 -0.370599E-08  0.610E-04   13.80      43.8  T
   4    -13.8758150 -0.919394E-09  0.251E-04   13.80     106.5  T
     SCC iter.                  ...        0 min,  0.003 sec
     gradient                   ...        0 min,  0.002 sec
 * total energy  :   -13.6650390 Eh     change       -0.2518647E-04 Eh
   gradient norm :     0.0009604 Eh/α   predicted    -0.1542912E-04 ( -38.74%)
   displ. norm   :     0.0863927 α      lambda       -0.2626885E-04
   maximum displ.:     0.0800686 α      in ANC's #1, #4, #3, ...

........................................................................
.............................. CYCLE   23 ..............................
........................................................................

 iter      E             dE          RMSdq      gap      omega  full diag
   1    -13.8759805 -0.138760E+02  0.270E-02   13.79       0.0  T
   2    -13.8759805 -0.484140E-07  0.160E-02   13.80       1.7  T
   3    -13.8759805 -0.759950E-08  0.732E-04   13.80      36.5  T
   4    -13.8759805 -0.100005E-08  0.325E-04   13.80      82.3  T
     SCC iter.                  ...        0 min,  0.002 sec
     gradient                   ...        0 min,  0.002 sec
 * total energy  :   -13.6650675 Eh     change       -0.2848500E-04 Eh
   gradient norm :     0.0012614 Eh/α   predicted    -0.1317819E-04 ( -53.74%)
   displ. norm   :     0.0567570 α      lambda       -0.1247457E-04
   maximum displ.:     0.0539333 α      in ANC's #1, #4, #3, ...

........................................................................
.............................. CYCLE   24 ..............................
........................................................................

 iter      E             dE          RMSdq      gap      omega  full diag
   1    -13.8760173 -0.138760E+02  0.175E-02   13.80       0.0  T
   2    -13.8760174 -0.543902E-08  0.104E-02   13.80       2.6  T
   3    -13.8760174 -0.240475E-08  0.329E-04   13.80      81.2  T
   4    -13.8760174 -0.478302E-10  0.139E-04   13.80     192.4  T
     SCC iter.                  ...        0 min,  0.002 sec
     gradient                   ...        0 min,  0.002 sec
 * total energy  :   -13.6650845 Eh     change       -0.1699025E-04 Eh
   gradient norm :     0.0011773 Eh/α   predicted    -0.6245897E-05 ( -63.24%)
   displ. norm   :     0.0511226 α      lambda       -0.1092631E-04
   maximum displ.:     0.0483383 α      in ANC's #1, #4, #3, ...

........................................................................
.............................. CYCLE   25 ..............................
........................................................................

 iter      E             dE          RMSdq      gap      omega  full diag
   1    -13.8760104 -0.138760E+02  0.152E-02   13.80       0.0  T
   2    -13.8760104 -0.100224E-07  0.900E-03   13.80       3.0  T
   3    -13.8760104 -0.211939E-08  0.348E-04   13.80      76.7  T
   4    -13.8760104 -0.174881E-09  0.176E-04   13.80     152.0  T
     SCC iter.                  ...        0 min,  0.002 sec
     gradient                   ...        0 min,  0.008 sec
 * total energy  :   -13.6650986 Eh     change       -0.1403957E-04 Eh
   gradient norm :     0.0003942 Eh/α   predicted    -0.5468837E-05 ( -61.05%)
   displ. norm   :     0.0463201 α      lambda       -0.7093680E-05
   maximum displ.:     0.0436805 α      in ANC's #1, #3, #4, ...

........................................................................
.............................. CYCLE   26 ..............................
........................................................................

 iter      E             dE          RMSdq      gap      omega  full diag
   1    -13.8759549 -0.138760E+02  0.149E-02   13.80       0.0  T
   2    -13.8759549 -0.850437E-08  0.886E-03   13.80       3.0  T
   3    -13.8759549 -0.183237E-08  0.326E-04   13.80      82.0  T
   4    -13.8759549 -0.227493E-09  0.166E-04   13.80     161.1  T
     SCC iter.                  ...        0 min,  0.024 sec
     gradient                   ...        0 min,  0.009 sec
 * total energy  :   -13.6651077 Eh     change       -0.9134495E-05 Eh
   gradient norm :     0.0002961 Eh/α   predicted    -0.3550586E-05 ( -61.13%)
   displ. norm   :     0.0370156 α      lambda       -0.4492764E-05
   maximum displ.:     0.0348385 α      in ANC's #1, #3, #10, ...

........................................................................
.............................. CYCLE   27 ..............................
........................................................................

 iter      E             dE          RMSdq      gap      omega  full diag
   1    -13.8759899 -0.138760E+02  0.105E-02   13.80       0.0  T
   2    -13.8759899 -0.190401E-08  0.624E-03   13.80       4.3  T
   3    -13.8759899 -0.829152E-09  0.199E-04   13.80     134.5  T
   4    -13.8759899 -0.151488E-10  0.823E-05   13.80     324.6  T
     SCC iter.                  ...        0 min,  0.024 sec
     gradient                   ...        0 min,  0.006 sec
 * total energy  :   -13.6651136 Eh     change       -0.5917716E-05 Eh
   gradient norm :     0.0004205 Eh/α   predicted    -0.2248982E-05 ( -62.00%)
   displ. norm   :     0.0316010 α      lambda       -0.3314877E-05
   maximum displ.:     0.0293315 α      in ANC's #1, #3, #5, ...

........................................................................
.............................. CYCLE   28 ..............................
........................................................................

 iter      E             dE          RMSdq      gap      omega  full diag
   1    -13.8760030 -0.138760E+02  0.979E-03   13.80       0.0  T
   2    -13.8760030 -0.183673E-08  0.583E-03   13.80       4.6  T
   3    -13.8760030 -0.656085E-09  0.184E-04   13.80     145.1  T
   4    -13.8760030 -0.478426E-10  0.977E-05   13.80     273.6  T
     SCC iter.                  ...        0 min,  0.024 sec
     gradient                   ...        0 min,  0.009 sec
 * total energy  :   -13.6651180 Eh     change       -0.4410403E-05 Eh
   gradient norm :     0.0002634 Eh/α   predicted    -0.1658020E-05 ( -62.41%)
   displ. norm   :     0.0282144 α      lambda       -0.2492232E-05
   maximum displ.:     0.0261879 α      in ANC's #1, #3, #4, ...

........................................................................
.............................. CYCLE   29 ..............................
........................................................................

 iter      E             dE          RMSdq      gap      omega  full diag
   1    -13.8760193 -0.138760E+02  0.889E-03   13.80       0.0  T
   2    -13.8760193 -0.163841E-08  0.529E-03   13.80       5.1  T
   3    -13.8760193 -0.563357E-09  0.166E-04   13.80     161.2  T
   4    -13.8760193 -0.337490E-10  0.858E-05   13.80     311.3  T
     SCC iter.                  ...        0 min,  0.024 sec
     gradient                   ...        0 min,  0.009 sec
 * total energy  :   -13.6651213 Eh     change       -0.3297639E-05 Eh
   gradient norm :     0.0001445 Eh/α   predicted    -0.1247837E-05 ( -62.16%)
   displ. norm   :     0.0238690 α      lambda       -0.1705977E-05
   maximum displ.:     0.0223830 α      in ANC's #1, #3, #4, ...

........................................................................
.............................. CYCLE   30 ..............................
........................................................................

 iter      E             dE          RMSdq      gap      omega  full diag
   1    -13.8760461 -0.138760E+02  0.632E-03   13.80       0.0  T
   2    -13.8760461 -0.957877E-09  0.377E-03   13.80       7.1  T
   3    -13.8760461 -0.309596E-09  0.124E-04   13.80     215.1  T
   4    -13.8760461 -0.878764E-11  0.609E-05   13.80     438.9  T
     SCC iter.                  ...        0 min,  0.027 sec
     gradient                   ...        0 min,  0.009 sec
 * total energy  :   -13.6651235 Eh     change       -0.2229973E-05 Eh
   gradient norm :     0.0001314 Eh/α   predicted    -0.8536697E-06 ( -61.72%)
   displ. norm   :     0.0185311 α      lambda       -0.1066292E-05
   maximum displ.:     0.0176442 α      in ANC's #1, #4, #3, ...

........................................................................
.............................. CYCLE   31 ..............................
........................................................................

 iter      E             dE          RMSdq      gap      omega  full diag
   1    -13.8760469 -0.138760E+02  0.635E-03   13.80       0.0  T
   2    -13.8760469 -0.673559E-09  0.377E-03   13.80       7.1  T
   3    -13.8760469 -0.298703E-09  0.110E-04   13.80     242.1  T
   4    -13.8760469 -0.424727E-11  0.423E-05   13.80     631.9  T
     SCC iter.                  ...        0 min,  0.024 sec
     gradient                   ...        0 min,  0.009 sec
 * total energy  :   -13.6651249 Eh     change       -0.1408354E-05 Eh
   gradient norm :     0.0001083 Eh/α   predicted    -0.5338536E-06 ( -62.09%)
   displ. norm   :     0.0136495 α      lambda       -0.6430852E-06
   maximum displ.:     0.0133069 α      in ANC's #1, #4, #3, ...

........................................................................
.............................. CYCLE   32 ..............................
........................................................................

 iter      E             dE          RMSdq      gap      omega  full diag
   1    -13.8760482 -0.138760E+02  0.366E-03   13.80       0.0  T
   2    -13.8760482 -0.246535E-09  0.218E-03   13.80      12.3  T
   3    -13.8760482 -0.106690E-09  0.730E-05   13.80     366.0  T
   4    -13.8760482 -0.190248E-11  0.235E-05   13.80    1138.2  T
     SCC iter.                  ...        0 min,  0.005 sec
     gradient                   ...        0 min,  0.002 sec
 * total energy  :   -13.6651258 Eh     change       -0.8709642E-06 Eh
   gradient norm :     0.0000871 Eh/α   predicted    -0.3229776E-06 ( -62.92%)
   displ. norm   :     0.0104604 α      lambda       -0.4154743E-06
   maximum displ.:     0.0103551 α      in ANC's #1, #4, #10, ...

   *** GEOMETRY OPTIMIZATION CONVERGED AFTER 32 ITERATIONS ***

------------------------------------------------------------------------
 total energy gain   :        -0.0067827 Eh       -4.2562 kcal/mol
 total RMSD          :         0.7660112 a0        0.4054 Å
 total power (kW/mol):        -0.5564969 (step)  -33.9170 (real)
------------------------------------------------------------------------

 ANCopt (total)                0 d,  0 h,  0 min,  0.525 sec
 optimizer setup                ...        0 min,  0.000 sec (  0.025%)
 model hessian                  ...        0 min,  0.011 sec (  2.028%)
 ANC generation                 ...        0 min,  0.001 sec (  0.198%)
 coordinate transformation      ...        0 min,  0.000 sec (  0.054%)
 single point calculation       ...        0 min,  0.478 sec ( 91.071%)
 optimization log               ...        0 min,  0.006 sec (  1.155%)
 hessian update                 ...        0 min,  0.021 sec (  3.929%)
 rational function              ...        0 min,  0.006 sec (  1.073%)

================
 final structure:
================
14
 xtb: 6.7.1 (edcfbbe)
C           -2.46827981819563        0.37750923867610       -0.01944794656127
H           -1.94140279299025       -0.56403658579273       -0.15653702071303
H           -2.39319850206461        0.95028677609968       -0.94141263466002
H           -3.51870871765577        0.15965883741259        0.16207760700073
C           -1.87642952018817        1.16056240225384        1.14600053813073
H           -0.81731134799153        1.34986980448285        0.95590079338664
H           -1.94657109865903        0.56237645292477        2.05760480772438
C           -2.59375015898861        2.49093502298440        1.36215418054048
H           -2.51198602474824        3.09499336965273        0.45544493492455
H           -3.65530348528541        2.30209368503478        1.53860538445941
C           -2.01511434176677        3.26476912092083        2.54030071546044
H           -2.10685612560838        2.68699402088561        3.45768212381517
H           -0.96105254865013        3.47856158617582        2.37595458243456
H           -2.53965630720750        4.20795635828867        2.67510408405717

 Bond Distances (Angstroems)
 ---------------------------
C1-H2=1.0876         C1-H3=1.0880         C1-H4=1.0880         C1-C5=1.5237         H2-C1=1.0876         H3-C1=1.0880         
H4-C1=1.0880         C5-C1=1.5237         C5-H6=1.0926         C5-H7=1.0926         C5-C8=1.5268         H6-C5=1.0926         
H7-C5=1.0926         C8-C5=1.5268         C8-H9=1.0926         C8-H10=1.0926        C8-C11=1.5237        H9-C8=1.0926         
H10-C8=1.0926        C11-C8=1.5237        C11-H12=1.0880       C11-H13=1.0880       C11-H14=1.0876       H12-C11=1.0880       
H13-C11=1.0880       H14-C11=1.0876       
 C  H  Rav=1.0898 sigma=0.0023  Rmin=1.0876  Rmax=1.0926    10
 C  C  Rav=1.5247 sigma=0.0015  Rmin=1.5237  Rmax=1.5268     3

 selected bond angles (degree)
 --------------------
H3-C1-H2=108.39                H4-C1-H2=108.38                H4-C1-H3=108.26                C5-C1-H2=110.68                
C5-C1-H3=110.54                C5-C1-H4=110.50                H6-C5-C1=109.42                H7-C5-C1=109.38                
H7-C5-H6=107.59                C8-C5-C1=111.94                C8-C5-H6=109.21                C8-C5-H7=109.19                
H9-C8-C5=109.21                H10-C8-C5=109.19               H10-C8-H9=107.60               C11-C8-C5=111.94               
C11-C8-H9=109.42               C11-C8-H10=109.38              

 selected dihedral angles (degree)
 ---------------------------------
H6-C5-C1-H2= 58.66            H6-C5-C1-H3=298.56            H6-C5-C1-H4=178.73            H7-C5-C1-H2=301.03            
H7-C5-C1-H3=180.93            H7-C5-C1-H4= 61.10            C8-C5-C1-H2=179.87            C8-C5-C1-H3= 59.77            
C8-C5-C1-H4=299.94            H9-C8-C5-C1=300.50            H9-C8-C5-H6= 61.82            H9-C8-C5-H7=179.23            
H10-C8-C5-C1= 57.90           H10-C8-C5-H6=179.23           H10-C8-C5-H7=296.63           C11-C8-C5-C1=179.17           
C11-C8-C5-H6=300.50           C11-C8-C5-H7= 57.90           
           -------------------------------------------------
          |                Final Singlepoint                |
           -------------------------------------------------

          ...................................................
          :                      SETUP                      :
          :.................................................:
          :  # basis functions                  26          :
          :  # atomic orbitals                  26          :
          :  # shells                           18          :
          :  # electrons                        26          :
          :  max. iterations                   250          :
          :  Hamiltonian                  GFN2-xTB          :
          :  restarted?                      false          :
          :  GBSA solvation                  false          :
          :  PC potential                    false          :
          :  electronic temp.          300.0000000     K    :
          :  accuracy                    1.0000000          :
          :  -> integral cutoff          0.2500000E+02      :
          :  -> integral neglect         0.1000000E-07      :
          :  -> SCF convergence          0.1000000E-05 Eh   :
          :  -> wf. convergence          0.1000000E-03 e    :
          :  Broyden damping             0.4000000          :
          :  net charge                          0          :
          :  unpaired electrons                  0          :
          ...................................................

 iter      E             dE          RMSdq      gap      omega  full diag
   1    -13.8760482 -0.138760E+02  0.536E-06   13.80       0.0  T
   2    -13.8760482 -0.159872E-13  0.303E-06   13.80    8814.3  T
   3    -13.8760482 -0.888178E-14  0.470E-07   13.80   56873.9  T

   *** convergence criteria satisfied after 3 iterations ***

         #    Occupation            Energy/Eh            Energy/eV
      -------------------------------------------------------------
         1        2.0000           -0.6179694             -16.8158
       ...           ...                  ...                  ...
         7        2.0000           -0.4878890             -13.2761
         8        2.0000           -0.4789796             -13.0337
         9        2.0000           -0.4546526             -12.3717
        10        2.0000           -0.4395305             -11.9602
        11        2.0000           -0.4367147             -11.8836
        12        2.0000           -0.4258126             -11.5869
        13        2.0000           -0.4195605             -11.4168 (HOMO)
        14                          0.0876246               2.3844 (LUMO)
        15                          0.1267221               3.4483
        16                          0.1278170               3.4781
        17                          0.1525757               4.1518
        18                          0.1629398               4.4338
       ...                                ...                  ...
        26                          0.3114414               8.4748
      -------------------------------------------------------------
                  HL-Gap            0.5071851 Eh           13.8012 eV
             Fermi-level           -0.1659680 Eh           -4.5162 eV

 SCC (total)                   0 d,  0 h,  0 min,  0.005 sec
 SCC setup                      ...        0 min,  0.000 sec (  2.791%)
 Dispersion                     ...        0 min,  0.000 sec (  2.231%)
 classical contributions        ...        0 min,  0.000 sec (  1.016%)
 integral evaluation            ...        0 min,  0.001 sec ( 13.800%)
 iterations                     ...        0 min,  0.002 sec ( 32.882%)
 molecular gradient             ...        0 min,  0.002 sec ( 40.766%)
 printout                       ...        0 min,  0.000 sec (  6.098%)

         :::::::::::::::::::::::::::::::::::::::::::::::::::::
         ::                     SUMMARY                     ::
         :::::::::::::::::::::::::::::::::::::::::::::::::::::
         :: total energy             -13.665125819954 Eh    ::
         :: gradient norm              0.000087101232 Eh/a0 ::
         :: HOMO-LUMO gap             13.801209692339 eV    ::
         ::.................................................::
         :: SCC energy               -13.876044376081 Eh    ::
         :: -> isotropic ES            0.002998870004 Eh    ::
         :: -> anisotropic ES          0.004908999871 Eh    ::
         :: -> anisotropic XC          0.009059348128 Eh    ::
         :: -> dispersion             -0.006049033199 Eh    ::
         :: repulsion energy           0.210918556126 Eh    ::
         :: add. restraining           0.000000000000 Eh    ::
         :: total charge               0.000000000000 e     ::
         :::::::::::::::::::::::::::::::::::::::::::::::::::::

           -------------------------------------------------
          |                Property Printout                |
           -------------------------------------------------

    * Orbital Energies and Occupations

         #    Occupation            Energy/Eh            Energy/eV
      -------------------------------------------------------------
         1        2.0000           -0.6179694             -16.8158
         2        2.0000           -0.5989717             -16.2988
         3        2.0000           -0.5679205             -15.4539
         4        2.0000           -0.5523999             -15.0316
         5        2.0000           -0.5138413             -13.9823
         6        2.0000           -0.4918448             -13.3838
         7        2.0000           -0.4878890             -13.2761
         8        2.0000           -0.4789796             -13.0337
         9        2.0000           -0.4546526             -12.3717
        10        2.0000           -0.4395305             -11.9602
        11        2.0000           -0.4367147             -11.8836
        12        2.0000           -0.4258126             -11.5869
        13        2.0000           -0.4195605             -11.4168 (HOMO)
        14                          0.0876246               2.3844 (LUMO)
        15                          0.1267221               3.4483
        16                          0.1278170               3.4781
        17                          0.1525757               4.1518
        18                          0.1629398               4.4338
        19                          0.1837312               4.9996
        20                          0.1937372               5.2719
        21                          0.1971788               5.3655
        22                          0.2245214               6.1095
        23                          0.2548780               6.9356
        24                          0.2646486               7.2015
       ...                                ...                  ...
        26                          0.3114414               8.4748
      -------------------------------------------------------------
                  HL-Gap            0.5071851 Eh           13.8012 eV
             Fermi-level           -0.1659680 Eh           -4.5162 eV

     #   Z          covCN         q      C6AA      α(0)
     1   6 C        3.752    -0.102    22.510     6.766
     2   1 H        0.925     0.032     2.554     2.499
     3   1 H        0.925     0.033     2.550     2.497
     4   1 H        0.925     0.033     2.550     2.497
     5   6 C        3.801    -0.053    21.534     6.607
     6   1 H        0.924     0.029     2.601     2.522
     7   1 H        0.924     0.029     2.599     2.521
     8   6 C        3.801    -0.053    21.534     6.607
     9   1 H        0.924     0.029     2.601     2.522
    10   1 H        0.924     0.029     2.599     2.521
    11   6 C        3.752    -0.102    22.510     6.766
    12   1 H        0.925     0.033     2.550     2.497
    13   1 H        0.925     0.033     2.550     2.497
    14   1 H        0.925     0.032     2.554     2.499

 Mol. C6AA /au·bohr⁶  :       1207.495756
 Mol. C8AA /au·bohr⁸  :      24480.511909
 Mol. α(0) /au        :         51.819346


Wiberg/Mayer (AO) data.
largest (>0.10) Wiberg bond orders for each atom

 ---------------------------------------------------------------------------
     #   Z sym  total        # sym  WBO       # sym  WBO       # sym  WBO
 ---------------------------------------------------------------------------
     1   6 C    3.997 --     5 C    1.019     3 H    0.988     4 H    0.988
                             2 H    0.988
     2   1 H    0.999 --     1 C    0.988
     3   1 H    0.999 --     1 C    0.988
     4   1 H    0.999 --     1 C    0.988
     5   6 C    3.998 --     1 C    1.019     8 C    1.009     6 H    0.979
                             7 H    0.979
     6   1 H    0.999 --     5 C    0.979
     7   1 H    0.999 --     5 C    0.979
     8   6 C    3.998 --    11 C    1.019     5 C    1.009     9 H    0.979
                            10 H    0.979
     9   1 H    0.999 --     8 C    0.979
    10   1 H    0.999 --     8 C    0.979
    11   6 C    3.997 --     8 C    1.019    13 H    0.988    12 H    0.988
                            14 H    0.988
    12   1 H    0.999 --    11 C    0.988
    13   1 H    0.999 --    11 C    0.988
    14   1 H    0.999 --    11 C    0.988
 ---------------------------------------------------------------------------

Topologies differ in total number of bonds
Writing topology from bond orders to xtbtopo.mol

molecular dipole:
                 x           y           z       tot (Debye)
 q only:       -0.000      -0.000       0.000
   full:       -0.000      -0.000       0.000       0.001
molecular quadrupole (traceless):
                xx          xy          yy          xz          yz          zz
 q only:       -0.067      -0.006       0.028       0.101       0.144       0.039
  q+dip:        0.444       0.030      -0.258      -0.512      -0.841      -0.186
   full:        0.191       0.015      -0.110      -0.229      -0.363      -0.081

           -------------------------------------------------
          |                Geometry Summary                 |
           -------------------------------------------------

      molecular mass/u    :       58.1223511
   center of mass at/Å    :       -2.2385343       1.8233455       1.2573891
Note: The following floating-point exceptions are signalling: IEEE_DENORMAL
normal termination of xtb
  moments of inertia/u·Å² :        0.2163019E+02   0.1369906E+03   0.1460814E+03
rotational constants/cm⁻¹ :        0.7793568E+00   0.1230568E+00   0.1153989E+00

 * 13 selected distances

     #   Z          #   Z                                           value/Å
     1   6 C        2   1 H                                       1.0876128 (min)
     1   6 C        3   1 H                                       1.0879938
     1   6 C        4   1 H                                       1.0880310
     1   6 C        5   6 C                                       1.5237223
     5   6 C        6   1 H                                       1.0925689
     5   6 C        7   1 H                                       1.0925973
     5   6 C        8   6 C                                       1.5268147 (max)
     8   6 C        9   1 H                                       1.0925629
     8   6 C       10   1 H                                       1.0925620
     8   6 C       11   6 C                                       1.5237022
    11   6 C       12   1 H                                       1.0880393
    11   6 C       13   1 H                                       1.0880089
    11   6 C       14   1 H                                       1.0876206

 * 2 distinct bonds (by element types)

   Z      Z             #   av. dist./Å        max./Å        min./Å
   1 H    6 C          10     1.0897597     1.0925973     1.0876128
   6 C    6 C           3     1.5247464     1.5268147     1.5237022


optimized geometry written to: xtbopt.xyz


           -------------------------------------------------
          | TOTAL ENERGY              -13.665125819954 Eh   |
          | GRADIENT NORM               0.000087101232 Eh/α |
          | HOMO-LUMO GAP              13.801209692339 eV   |
           -------------------------------------------------

------------------------------------------------------------------------
 * finished run on 2026/08/11 at 11:11:59.801     
------------------------------------------------------------------------
 total:
 * wall-time:     0 d,  0 h,  0 min,  0.564 sec
 *  cpu-time:     0 d,  0 h,  0 min,  2.140 sec
 * ratio c/w:     3.792 speedup
 SCF:
 * wall-time:     0 d,  0 h,  0 min,  0.014 sec
 *  cpu-time:     0 d,  0 h,  0 min,  0.048 sec
 * ratio c/w:     3.507 speedup
 ANC optimizer:
 * wall-time:     0 d,  0 h,  0 min,  0.531 sec
 *  cpu-time:     0 d,  0 h,  0 min,  2.023 sec
 * ratio c/w:     3.807 speedup

