14
 energy: -13.665125819954 gnorm: 0.000087101232 xtb: 6.7.1 (edcfbbe)
C           -2.46827981819563        0.37750923867610       -0.01944794656127
H           -1.94140279299025       -0.56403658579273       -0.15653702071303
H           -2.39319850206461        0.95028677609968       -0.94141263466002
H           -3.51870871765577        0.15965883741259        0.16207760700073
C           -1.87642952018817        1.16056240225384        1.14600053813073
H           -0.81731134799153        1.34986980448285        0.95590079338664
H           -1.94657109865903        0.56237645292477        2.05760480772438
C           -2.59375015898861        2.49093502298440        1.36215418054048
H           -2.51198602474824        3.09499336965273        0.45544493492455
H           -3.65530348528541        2.30209368503478        1.53860538445941
C           -2.01511434176677        3.26476912092083        2.54030071546044
H           -2.10685612560838        2.68699402088561        3.45768212381517
H           -0.96105254865013        3.47856158617582        2.37595458243456
H           -2.53965630720750        4.20795635828867        2.67510408405717
