      -----------------------------------------------------------      
     |                   =====================                   |     
     |                           x T B                           |     
     |                   =====================                   |     
     |                         S. Grimme                         |     
     |          Mulliken Center for Theoretical Chemistry        |     
     |                    University of Bonn                     |     
      -----------------------------------------------------------      

   * xtb version 6.7.1 (edcfbbe) compiled by 'conda@5dfe00f5fb80' on 2026-06-10

   xtb is free software: you can redistribute it and/or modify it under
   the terms of the GNU Lesser General Public License as published by
   the Free Software Foundation, either version 3 of the License, or
   (at your option) any later version.
   
   xtb is distributed in the hope that it will be useful,
   but WITHOUT ANY WARRANTY; without even the implied warranty of
   MERCHANTABILITY or FITNESS FOR A PARTICULAR PURPOSE.  See the
   GNU Lesser General Public License for more details.
   
   Cite this work as:
   * C. Bannwarth, E. Caldeweyher, S. Ehlert, A. Hansen, P. Pracht,
     J. Seibert, S. Spicher, S. Grimme, WIREs Comput. Mol. Sci., 2020, 11,
     e01493. DOI: 10.1002/wcms.1493
   
   for GFN2-xTB:
   * C. Bannwarth, S. Ehlert and S. Grimme., J. Chem. Theory Comput., 2019,
     15, 1652-1671. DOI: 10.1021/acs.jctc.8b01176
   for GFN1-xTB:
   * S. Grimme, C. Bannwarth, P. Shushkov, J. Chem. Theory Comput., 2017,
     13, 1989-2009. DOI: 10.1021/acs.jctc.7b00118
   for GFN0-xTB:
   * P. Pracht, E. Caldeweyher, S. Ehlert, S. Grimme, ChemRxiv, 2019, preprint.
     DOI: 10.26434/chemrxiv.8326202.v1
   for GFN-FF:
   * S. Spicher and S. Grimme, Angew. Chem. Int. Ed., 2020, 59, 15665-15673.
     DOI: 10.1002/anie.202004239
   
   for ALPB and GBSA implicit solvation:
   * S. Ehlert, M. Stahn, S. Spicher, S. Grimme, J. Chem. Theory Comput.,
     2021, 17, 4250-4261. DOI: 10.1021/acs.jctc.1c00471
   
   for ddCOSMO and CPCM-X implicit solvation:
   * M. Stahn, S. Ehlert, S. Grimme, J. Phys. Chem. A,
     2023, XX, XXXX-XXXX. DOI: 10.1021/acs.jpca.3c04382
   
   for DFT-D4:
   * E. Caldeweyher, C. Bannwarth and S. Grimme, J. Chem. Phys., 2017,
     147, 034112. DOI: 10.1063/1.4993215
   * E. Caldeweyher, S. Ehlert, A. Hansen, H. Neugebauer, S. Spicher,
     C. Bannwarth and S. Grimme, J. Chem. Phys., 2019, 150, 154122.
     DOI: 10.1063/1.5090222
   * E. Caldeweyher, J.-M. Mewes, S. Ehlert and S. Grimme, Phys. Chem. Chem. Phys.
     2020, 22, 8499-8512. DOI: 10.1039/D0CP00502A
   
   for sTDA-xTB:
   * S. Grimme and C. Bannwarth, J. Chem. Phys., 2016, 145, 054103.
     DOI: 10.1063/1.4959605
   
   in the mass-spec context:
   * V. Asgeirsson, C. Bauer and S. Grimme, Chem. Sci., 2017, 8, 4879.
     DOI: 10.1039/c7sc00601b
   * J. Koopman and S. Grimme, ACS Omega 2019, 4, 12, 15120-15133.
     DOI: 10.1021/acsomega.9b02011
   
   for metadynamics refer to:
   * S. Grimme, J. Chem. Theory Comput., 2019, 155, 2847-2862
     DOI: 10.1021/acs.jctc.9b00143
   
   for SPH calculations refer to:
   * S. Spicher and S. Grimme, J. Chem. Theory Comput., 2021, 17, 1701-1714
     DOI: 10.1021/acs.jctc.0c01306
   
   for ONIOM refer to:
   * C. Plett, A. Katbashev, S. Ehlert, S. Grimme, M. Bursch,
     Phys. Chem. Chem. Phys., 2023, 25, 17860-17868. DOI: 10.1039/D3CP02178E
   
   for DIPRO refer to:
   * J. Kohn, N. Gildemeister, S. Grimme, D. Fazzi, A. Hansen,
     J. Chem. Phys., 2023, just accepted.
   
   for PTB refer to:
   * S. Grimme, M. Mueller, A. Hansen, J. Chem. Phys., 2023, 158, 124111.
     DOI: 10.1063/5.0137838
   
   with help from (in alphabetical order)
   P. Atkinson, C. Bannwarth, F. Bohle, G. Brandenburg, E. Caldeweyher
   M. Checinski, S. Dohm, S. Ehlert, S. Ehrlich, I. Gerasimov, C. Hölzer
   A. Katbashev, J. Kohn, J. Koopman, C. Lavigne, S. Lehtola, F. März, M. Müller,
   F. Musil, H. Neugebauer, J. Pisarek, C. Plett, P. Pracht, F. Pultar,
   J. Seibert, P. Shushkov, S. Spicher, M. Stahn, M. Steiner, T. Strunk,
   J. Stückrath, T. Rose, and J. Unsleber
   
 * started run on 2026/08/17 at 12:14:21.716     
   ID    Z sym.   atoms
    1    6 C      1, 5, 8, 11
    2    1 H      2-4, 6, 7, 9, 10, 12-14

           -------------------------------------------------
          |                Calculation Setup                |
           -------------------------------------------------

          program call               : xtb input.xyz --gfn2 --opt tight --chrg 0 --uhf 0 --iterations 250
          coordinate file            : input.xyz
          omp threads                :                     4


           -------------------------------------------------
          |                 G F N 2 - x T B                 |
           -------------------------------------------------

        Reference                      10.1021/acs.jctc.8b01176
      * Hamiltonian:
        H0-scaling (s, p, d)           1.850000    2.230000    2.230000
        zeta-weighting                 0.500000
      * Dispersion:
        s8                             2.700000
        a1                             0.520000
        a2                             5.000000
        s9                             5.000000
      * Repulsion:
        kExp                           1.500000    1.000000
        rExp                           1.000000
      * Coulomb:
        alpha                          2.000000
        third order                    shell-resolved
        anisotropic                    true
        a3                             3.000000
        a5                             4.000000
        cn-shift                       1.200000
        cn-exp                         4.000000
        max-rad                        5.000000

q/qsh data taken from xtbrestart
CAMM data taken from xtbrestart

          ...................................................
          :                      SETUP                      :
          :.................................................:
          :  # basis functions                  26          :
          :  # atomic orbitals                  26          :
          :  # shells                           18          :
          :  # electrons                        26          :
          :  max. iterations                   250          :
          :  Hamiltonian                  GFN2-xTB          :
          :  restarted?                       true          :
          :  GBSA solvation                  false          :
          :  PC potential                    false          :
          :  electronic temp.          300.0000000     K    :
          :  accuracy                    1.0000000          :
          :  -> integral cutoff          0.2500000E+02      :
          :  -> integral neglect         0.1000000E-07      :
          :  -> SCF convergence          0.1000000E-05 Eh   :
          :  -> wf. convergence          0.1000000E-03 e    :
          :  Broyden damping             0.4000000          :
          :  net charge                          0          :
          :  unpaired electrons                  0          :
          ...................................................

 iter      E             dE          RMSdq      gap      omega  full diag
   1    -13.8658177 -0.138658E+02  0.743E-01   13.84       0.0  T
   2    -13.8658414 -0.237017E-04  0.444E-01   13.83       1.0  T
   3    -13.8658490 -0.755722E-05  0.208E-02   13.82       1.3  T
   4    -13.8658493 -0.318002E-06  0.103E-02   13.82       2.6  T
   5    -13.8658494 -0.481258E-07  0.185E-03   13.82      14.5  T
   6    -13.8658494 -0.562308E-08  0.742E-04   13.82      36.0  T
   7    -13.8658494 -0.301249E-09  0.982E-05   13.82     272.1  T

   *** convergence criteria satisfied after 7 iterations ***

         #    Occupation            Energy/Eh            Energy/eV
      -------------------------------------------------------------
         1        2.0000           -0.6172604             -16.7965
       ...           ...                  ...                  ...
         7        2.0000           -0.4793185             -13.0429
         8        2.0000           -0.4715801             -12.8323
         9        2.0000           -0.4557854             -12.4026
        10        2.0000           -0.4487155             -12.2102
        11        2.0000           -0.4291386             -11.6775
        12        2.0000           -0.4282032             -11.6520
        13        2.0000           -0.4127157             -11.2306 (HOMO)
        14                          0.0952173               2.5910 (LUMO)
        15                          0.1008733               2.7449
        16                          0.1197049               3.2573
        17                          0.1458628               3.9691
        18                          0.1525452               4.1510
       ...                                ...                  ...
        26                          0.3258686               8.8673
      -------------------------------------------------------------
                  HL-Gap            0.5079330 Eh           13.8216 eV
             Fermi-level           -0.1587492 Eh           -4.3198 eV

 SCC (total)                   0 d,  0 h,  0 min,  0.084 sec
 SCC setup                      ...        0 min,  0.003 sec (  3.725%)
 Dispersion                     ...        0 min,  0.005 sec (  6.430%)
 classical contributions        ...        0 min,  0.003 sec (  3.597%)
 integral evaluation            ...        0 min,  0.010 sec ( 11.432%)
 iterations                     ...        0 min,  0.048 sec ( 57.349%)
 molecular gradient             ...        0 min,  0.014 sec ( 17.213%)
 printout                       ...        0 min,  0.000 sec (  0.224%)

         :::::::::::::::::::::::::::::::::::::::::::::::::::::
         ::                     SUMMARY                     ::
         :::::::::::::::::::::::::::::::::::::::::::::::::::::
         :: total energy             -13.659774661244 Eh    ::
         :: gradient norm              0.014126697085 Eh/a0 ::
         :: HOMO-LUMO gap             13.821559759159 eV    ::
         ::.................................................::
         :: SCC energy               -13.865842346803 Eh    ::
         :: -> isotropic ES            0.002884130692 Eh    ::
         :: -> anisotropic ES          0.005153579025 Eh    ::
         :: -> anisotropic XC          0.009051494639 Eh    ::
         :: -> dispersion             -0.006392693724 Eh    ::
         :: repulsion energy           0.206067685559 Eh    ::
         :: add. restraining           0.000000000000 Eh    ::
         :: total charge               0.000000000000 e     ::
         :::::::::::::::::::::::::::::::::::::::::::::::::::::

      ----------------------------------------------------------- 
     |                   =====================                   |
     |                        A N C O P T                        |
     |                   =====================                   |
     |               Approximate Normal Coordinate               |
     |                Rational Function Optimizer                |
      ----------------------------------------------------------- 
      ----------------------------------------------------------- 
     |                   =====================                   |
     |                        A N C O P T                        |
     |                   =====================                   |
     |               Approximate Normal Coordinate               |
     |                Rational Function Optimizer                |
      ----------------------------------------------------------- 

          ...................................................
          :                      SETUP                      :
          :.................................................:
          :   optimization level             tight          :
          :   max. optcycles                   200          :
          :   ANC micro-cycles                  20          :
          :   degrees of freedom                36          :
          :.................................................:
          :   RF solver                   davidson          :
          :   write xtbopt.log                true          :
          :   linear?                        false          :
          :   energy convergence         0.1000000E-05 Eh   :
          :   grad. convergence          0.8000000E-03 Eh/α :
          :   maxmium RF displ.          1.0000000          :
          :   Hlow (freq-cutoff)         0.1000000E-01      :
          :   Hmax (freq-cutoff)         5.0000000          :
          :   S6 in model hess.         20.0000000          :
          ...................................................

generating ANC from exact Hessian ...
Using Lindh-Hessian (1995)
 Shifting diagonal of input Hessian by    5.6891830584208589E-003
 Lowest  eigenvalues of input Hessian
    0.000000    0.000000    0.000000    0.000000    0.000000    0.000000
    0.010000    0.011620    0.014089    0.019750    0.026807    0.041983
    0.050475    0.056712    0.057624    0.059467    0.060004    0.068771
 Highest eigenvalues
    1.110035    1.129247    1.154204    1.187319    1.251363    1.267451


........................................................................
.............................. CYCLE    1 ..............................
........................................................................

 iter      E             dE          RMSdq      gap      omega  full diag
   1    -13.8658494 -0.138658E+02  0.320E-05   13.82       0.0  T
   2    -13.8658494 -0.120792E-11  0.161E-05   13.82    1659.8  T
   3    -13.8658494 -0.174083E-12  0.389E-06   13.82    6866.6  T
     SCC iter.                  ...        0 min,  0.002 sec
     gradient                   ...        0 min,  0.002 sec
 * total energy  :   -13.6597747 Eh     change       -0.2080291E-10 Eh
   gradient norm :     0.0141251 Eh/α   predicted     0.0000000E+00 (-100.00%)
   displ. norm   :     0.3123104 α      lambda       -0.1875058E-02
   maximum displ.:     0.2349386 α      in ANC's #1, #2, #3, ...

........................................................................
.............................. CYCLE    2 ..............................
........................................................................

 iter      E             dE          RMSdq      gap      omega  full diag
   1    -13.8696372 -0.138696E+02  0.135E-01   13.91       0.0  T
   2    -13.8696388 -0.156272E-05  0.796E-02   13.91       1.0  T
   3    -13.8696391 -0.316703E-06  0.436E-03   13.91       6.1  T
   4    -13.8696391 -0.433946E-07  0.210E-03   13.91      12.7  T
   5    -13.8696391 -0.416317E-08  0.489E-04   13.91      54.6  T
   6    -13.8696391 -0.153117E-09  0.180E-04   13.91     148.1  T
     SCC iter.                  ...        0 min,  0.003 sec
     gradient                   ...        0 min,  0.002 sec
 * total energy  :   -13.6610603 Eh     change       -0.1285638E-02 Eh
   gradient norm :     0.0063563 Eh/α   predicted    -0.1028980E-02 ( -19.96%)
   displ. norm   :     0.2970417 α      lambda       -0.8839458E-03
   maximum displ.:     0.2510644 α      in ANC's #1, #3, #4, ...

........................................................................
.............................. CYCLE    3 ..............................
........................................................................

 iter      E             dE          RMSdq      gap      omega  full diag
   1    -13.8707767 -0.138708E+02  0.100E-01   13.96       0.0  T
   2    -13.8707771 -0.406772E-06  0.596E-02   13.96       1.0  T
   3    -13.8707773 -0.124970E-06  0.260E-03   13.96      10.3  T
   4    -13.8707773 -0.885620E-08  0.128E-03   13.96      20.9  T
   5    -13.8707773 -0.131920E-08  0.246E-04   13.96     108.7  T
   6    -13.8707773 -0.195897E-10  0.972E-05   13.96     274.9  T
     SCC iter.                  ...        0 min,  0.003 sec
     gradient                   ...        0 min,  0.002 sec
 * total energy  :   -13.6617831 Eh     change       -0.7228499E-03 Eh
   gradient norm :     0.0044237 Eh/α   predicted    -0.4809725E-03 ( -33.46%)
   displ. norm   :     0.3461346 α      lambda       -0.7777685E-03
   maximum displ.:     0.2843317 α      in ANC's #1, #3, #4, ...

........................................................................
.............................. CYCLE    4 ..............................
........................................................................

 iter      E             dE          RMSdq      gap      omega  full diag
   1    -13.8706628 -0.138707E+02  0.103E-01   14.01       0.0  T
   2    -13.8706631 -0.340949E-06  0.615E-02   14.01       1.0  T
   3    -13.8706632 -0.115981E-06  0.261E-03   14.01      10.3  T
   4    -13.8706633 -0.769694E-08  0.133E-03   14.01      20.1  T
   5    -13.8706633 -0.872847E-09  0.202E-04   14.01     132.6  T
   6    -13.8706633 -0.247820E-10  0.840E-05   14.01     318.1  T
     SCC iter.                  ...        0 min,  0.003 sec
     gradient                   ...        0 min,  0.002 sec
 * total energy  :   -13.6624461 Eh     change       -0.6629281E-03 Eh
   gradient norm :     0.0064012 Eh/α   predicted    -0.4354782E-03 ( -34.31%)
   displ. norm   :     0.3988271 α      lambda       -0.7667426E-03
   maximum displ.:     0.3251205 α      in ANC's #1, #3, #4, ...

........................................................................
.............................. CYCLE    5 ..............................
........................................................................

 iter      E             dE          RMSdq      gap      omega  full diag
   1    -13.8700761 -0.138701E+02  0.115E-01   14.10       0.0  T
   2    -13.8700769 -0.816890E-06  0.688E-02   14.10       1.0  T
   3    -13.8700770 -0.120022E-06  0.362E-03   14.10       7.4  T
   4    -13.8700771 -0.484791E-07  0.169E-03   14.10      15.9  T
   5    -13.8700771 -0.126778E-08  0.425E-04   14.10      62.9  T
   6    -13.8700771 -0.752429E-10  0.106E-04   14.10     253.3  T
     SCC iter.                  ...        0 min,  0.003 sec
     gradient                   ...        0 min,  0.002 sec
 * total energy  :   -13.6630516 Eh     change       -0.6054908E-03 Eh
   gradient norm :     0.0073620 Eh/α   predicted    -0.4443545E-03 ( -26.61%)
   displ. norm   :     0.3944628 α      lambda       -0.6131772E-03
   maximum displ.:     0.3368191 α      in ANC's #1, #3, #4, ...

........................................................................
.............................. CYCLE    6 ..............................
........................................................................

 iter      E             dE          RMSdq      gap      omega  full diag
   1    -13.8704321 -0.138704E+02  0.113E-01   14.20       0.0  T
   2    -13.8704328 -0.717236E-06  0.677E-02   14.20       1.0  T
   3    -13.8704329 -0.112931E-06  0.360E-03   14.20       7.4  T
   4    -13.8704330 -0.547481E-07  0.168E-03   14.20      15.9  T
   5    -13.8704330 -0.142770E-08  0.256E-04   14.20     104.3  T
   6    -13.8704330 -0.194866E-10  0.107E-04   14.20     250.2  T
     SCC iter.                  ...        0 min,  0.003 sec
     gradient                   ...        0 min,  0.002 sec
 * total energy  :   -13.6634788 Eh     change       -0.4271844E-03 Eh
   gradient norm :     0.0071580 Eh/α   predicted    -0.3543000E-03 ( -17.06%)
   displ. norm   :     0.2370784 α      lambda       -0.3354173E-03
   maximum displ.:     0.2165377 α      in ANC's #1, #24, #4, ...

........................................................................
.............................. CYCLE    7 ..............................
........................................................................

 iter      E             dE          RMSdq      gap      omega  full diag
   1    -13.8735347 -0.138735E+02  0.709E-02   14.29       0.0  T
   2    -13.8735353 -0.661175E-06  0.422E-02   14.29       1.0  T
   3    -13.8735354 -0.802244E-07  0.250E-03   14.29      10.7  T
   4    -13.8735354 -0.403179E-08  0.117E-03   14.29      22.9  T
   5    -13.8735354 -0.309576E-09  0.309E-04   14.29      86.6  T
   6    -13.8735354 -0.165540E-09  0.745E-05   14.29     358.6  T
     SCC iter.                  ...        0 min,  0.003 sec
     gradient                   ...        0 min,  0.002 sec
 * total energy  :   -13.6637111 Eh     change       -0.2323020E-03 Eh
   gradient norm :     0.0038829 Eh/α   predicted    -0.1771364E-03 ( -23.75%)
   displ. norm   :     0.2634189 α      lambda       -0.1862404E-03
   maximum displ.:     0.2484776 α      in ANC's #1, #24, #3, ...

........................................................................
.............................. CYCLE    8 ..............................
........................................................................

 iter      E             dE          RMSdq      gap      omega  full diag
   1    -13.8731055 -0.138731E+02  0.758E-02   14.32       0.0  T
   2    -13.8731058 -0.299946E-06  0.452E-02   14.32       1.0  T
   3    -13.8731059 -0.636270E-07  0.208E-03   14.32      12.9  T
   4    -13.8731059 -0.608929E-08  0.105E-03   14.32      25.6  T
   5    -13.8731059 -0.380112E-09  0.260E-04   14.32     102.9  T
   6    -13.8731059 -0.128523E-09  0.703E-05   14.32     380.4  T
     SCC iter.                  ...        0 min,  0.003 sec
     gradient                   ...        0 min,  0.002 sec
 * total energy  :   -13.6638330 Eh     change       -0.1219345E-03 Eh
   gradient norm :     0.0049610 Eh/α   predicted    -0.9958219E-04 ( -18.33%)
   displ. norm   :     0.2393192 α      lambda       -0.2070491E-03
   maximum displ.:     0.2207122 α      in ANC's #1, #24, #3, ...

........................................................................
.............................. CYCLE    9 ..............................
........................................................................

 iter      E             dE          RMSdq      gap      omega  full diag
   1    -13.8757673 -0.138758E+02  0.721E-02   14.33       0.0  T
   2    -13.8757686 -0.126091E-05  0.426E-02   14.33       1.0  T
   3    -13.8757686 -0.766423E-07  0.404E-03   14.33       6.6  T
   4    -13.8757686 -0.107199E-07  0.119E-03   14.33      22.5  T
   5    -13.8757686 -0.360943E-09  0.448E-04   14.33      59.6  T
   6    -13.8757686 -0.174321E-09  0.803E-05   14.33     333.0  T
     SCC iter.                  ...        0 min,  0.036 sec
     gradient                   ...        0 min,  0.012 sec
 * total energy  :   -13.6639515 Eh     change       -0.1185107E-03 Eh
   gradient norm :     0.0043995 Eh/α   predicted    -0.1094515E-03 (  -7.64%)
   displ. norm   :     0.2326422 α      lambda       -0.1121549E-03
   maximum displ.:     0.2207486 α      in ANC's #1, #4, #24, ...

........................................................................
.............................. CYCLE   10 ..............................
........................................................................

 iter      E             dE          RMSdq      gap      omega  full diag
   1    -13.8739589 -0.138740E+02  0.665E-02   14.29       0.0  T
   2    -13.8739593 -0.472733E-06  0.395E-02   14.29       1.0  T
   3    -13.8739594 -0.476000E-07  0.249E-03   14.29      10.7  T
   4    -13.8739594 -0.131391E-07  0.995E-04   14.29      26.9  T
   5    -13.8739594 -0.313463E-09  0.398E-04   14.29      67.2  T
     SCC iter.                  ...        0 min,  0.004 sec
     gradient                   ...        0 min,  0.002 sec
 * total energy  :   -13.6640246 Eh     change       -0.7305172E-04 Eh
   gradient norm :     0.0046651 Eh/α   predicted    -0.5911196E-04 ( -19.08%)
   displ. norm   :     0.1400139 α      lambda       -0.9907420E-04
   maximum displ.:     0.1002211 α      in ANC's #1, #4, #3, ...

........................................................................
.............................. CYCLE   11 ..............................
........................................................................

 iter      E             dE          RMSdq      gap      omega  full diag
   1    -13.8744241 -0.138744E+02  0.389E-02   14.24       0.0  T
   2    -13.8744242 -0.103632E-06  0.233E-02   14.24       1.1  T
   3    -13.8744242 -0.158674E-07  0.107E-03   14.24      25.0  T
   4    -13.8744242 -0.282465E-08  0.508E-04   14.24      52.6  T
   5    -13.8744242 -0.700329E-10  0.174E-04   14.24     153.6  T
     SCC iter.                  ...        0 min,  0.003 sec
     gradient                   ...        0 min,  0.002 sec
 * total energy  :   -13.6640942 Eh     change       -0.6963868E-04 Eh
   gradient norm :     0.0038434 Eh/α   predicted    -0.5050820E-04 ( -27.47%)
   displ. norm   :     0.1386538 α      lambda       -0.8055734E-04
   maximum displ.:     0.0985446 α      in ANC's #1, #4, #3, ...

........................................................................
.............................. CYCLE   12 ..............................
........................................................................

 iter      E             dE          RMSdq      gap      omega  full diag
   1    -13.8740295 -0.138740E+02  0.413E-02   14.21       0.0  T
   2    -13.8740297 -0.175632E-06  0.246E-02   14.21       1.1  T
   3    -13.8740297 -0.251059E-07  0.187E-03   14.21      14.3  T
   4    -13.8740297 -0.110021E-07  0.768E-04   14.21      34.8  T
   5    -13.8740297 -0.166731E-09  0.180E-04   14.21     148.1  T
     SCC iter.                  ...        0 min,  0.003 sec
     gradient                   ...        0 min,  0.002 sec
 * total energy  :   -13.6641413 Eh     change       -0.4709420E-04 Eh
   gradient norm :     0.0029154 Eh/α   predicted    -0.4105229E-04 ( -12.83%)
   displ. norm   :     0.0720318 α      lambda       -0.4394244E-04
   maximum displ.:     0.0585801 α      in ANC's #4, #3, #7, ...

........................................................................
.............................. CYCLE   13 ..............................
........................................................................

 iter      E             dE          RMSdq      gap      omega  full diag
   1    -13.8753437 -0.138753E+02  0.264E-02   14.24       0.0  T
   2    -13.8753439 -0.254229E-06  0.154E-02   14.24       1.7  T
   3    -13.8753439 -0.171046E-07  0.222E-03   14.24      12.0  T
   4    -13.8753439 -0.307688E-08  0.594E-04   14.24      45.0  T
   5    -13.8753439 -0.129090E-09  0.245E-04   14.24     108.9  T
     SCC iter.                  ...        0 min,  0.003 sec
     gradient                   ...        0 min,  0.002 sec
 * total energy  :   -13.6641601 Eh     change       -0.1883329E-04 Eh
   gradient norm :     0.0020886 Eh/α   predicted    -0.2208645E-04 (  17.27%)
   displ. norm   :     0.0907742 α      lambda       -0.1687156E-04
   maximum displ.:     0.0813270 α      in ANC's #1, #4, #2, ...

........................................................................
.............................. CYCLE   14 ..............................
........................................................................

 iter      E             dE          RMSdq      gap      omega  full diag
   1    -13.8742789 -0.138743E+02  0.274E-02   14.25       0.0  T
   2    -13.8742791 -0.162004E-06  0.162E-02   14.24       1.7  T
   3    -13.8742791 -0.123070E-07  0.139E-03   14.24      19.2  T
   4    -13.8742791 -0.804713E-09  0.460E-04   14.24      58.1  T
   5    -13.8742791 -0.292335E-10  0.153E-04   14.24     174.6  T
     SCC iter.                  ...        0 min,  0.003 sec
     gradient                   ...        0 min,  0.002 sec
 * total energy  :   -13.6641665 Eh     change       -0.6351403E-05 Eh
   gradient norm :     0.0020038 Eh/α   predicted    -0.8506484E-05 (  33.93%)
   displ. norm   :     0.0227823 α      lambda       -0.1078824E-04
   maximum displ.:     0.0182870 α      in ANC's #4, #3, #2, ...

........................................................................
.............................. CYCLE   15 ..............................
........................................................................

 iter      E             dE          RMSdq      gap      omega  full diag
   1    -13.8745350 -0.138745E+02  0.109E-02   14.26       0.0  T
   2    -13.8745352 -0.131216E-06  0.602E-03   14.26       4.4  T
   3    -13.8745352 -0.577333E-08  0.210E-03   14.26      12.7  T
   4    -13.8745352 -0.491574E-08  0.358E-04   14.26      74.7  T
   5    -13.8745352 -0.632667E-10  0.114E-04   14.26     234.7  T
     SCC iter.                  ...        0 min,  0.003 sec
     gradient                   ...        0 min,  0.002 sec
 * total energy  :   -13.6641704 Eh     change       -0.3972413E-05 Eh
   gradient norm :     0.0012817 Eh/α   predicted    -0.5396469E-05 (  35.85%)
   displ. norm   :     0.0133013 α      lambda       -0.4002231E-05
   maximum displ.:     0.0087845 α      in ANC's #4, #2, #6, ...

........................................................................
.............................. CYCLE   16 ..............................
........................................................................

 iter      E             dE          RMSdq      gap      omega  full diag
   1    -13.8750197 -0.138750E+02  0.855E-03   14.26       0.0  T
   2    -13.8750198 -0.348327E-07  0.486E-03   14.26       5.5  T
   3    -13.8750198 -0.209523E-08  0.912E-04   14.26      29.3  T
   4    -13.8750198 -0.130242E-08  0.229E-04   14.26     116.8  T
     SCC iter.                  ...        0 min,  0.002 sec
     gradient                   ...        0 min,  0.002 sec
 * total energy  :   -13.6641726 Eh     change       -0.2183354E-05 Eh
   gradient norm :     0.0006543 Eh/α   predicted    -0.2000225E-05 (  -8.39%)
   displ. norm   :     0.0325127 α      lambda       -0.1829544E-05
   maximum displ.:     0.0292716 α      in ANC's #1, #24, #2, ...

........................................................................
.............................. CYCLE   17 ..............................
........................................................................

 iter      E             dE          RMSdq      gap      omega  full diag
   1    -13.8748829 -0.138749E+02  0.967E-03   14.26       0.0  T
   2    -13.8748829 -0.115682E-07  0.573E-03   14.26       4.7  T
   3    -13.8748829  0.615508E-11  0.601E-04   14.26      44.5  T
   4    -13.8748829 -0.187594E-08  0.166E-04   14.26     161.4  T
     SCC iter.                  ...        0 min,  0.002 sec
     gradient                   ...        0 min,  0.002 sec
 * total energy  :   -13.6641741 Eh     change       -0.1424947E-05 Eh
   gradient norm :     0.0006390 Eh/α   predicted    -0.9136669E-06 ( -35.88%)
   displ. norm   :     0.0323790 α      lambda       -0.1203397E-05
   maximum displ.:     0.0290266 α      in ANC's #1, #24, #3, ...

........................................................................
.............................. CYCLE   18 ..............................
........................................................................

 iter      E             dE          RMSdq      gap      omega  full diag
   1    -13.8747632 -0.138748E+02  0.938E-03   14.25       0.0  T
   2    -13.8747632 -0.639027E-08  0.560E-03   14.25       4.8  T
   3    -13.8747632 -0.756026E-09  0.328E-04   14.25      81.6  T
   4    -13.8747632 -0.458870E-09  0.141E-04   14.25     190.0  T
     SCC iter.                  ...        0 min,  0.002 sec
     gradient                   ...        0 min,  0.002 sec
 * total energy  :   -13.6641749 Eh     change       -0.8705708E-06 Eh
   gradient norm :     0.0006014 Eh/α   predicted    -0.6014653E-06 ( -30.91%)
   displ. norm   :     0.0120196 α      lambda       -0.8416456E-06
   maximum displ.:     0.0093301 α      in ANC's #1, #24, #3, ...

   *** GEOMETRY OPTIMIZATION CONVERGED AFTER 18 ITERATIONS ***

------------------------------------------------------------------------
 total energy gain   :        -0.0044003 Eh       -2.7612 kcal/mol
 total RMSD          :         0.7457437 a0        0.3946 Å
 total power (kW/mol):        -0.6418266 (step)  -64.7327 (real)
------------------------------------------------------------------------

 ANCopt (total)                0 d,  0 h,  0 min,  0.178 sec
 optimizer setup                ...        0 min,  0.000 sec (  0.070%)
 model hessian                  ...        0 min,  0.009 sec (  5.056%)
 ANC generation                 ...        0 min,  0.001 sec (  0.295%)
 coordinate transformation      ...        0 min,  0.000 sec (  0.087%)
 single point calculation       ...        0 min,  0.157 sec ( 88.139%)
 optimization log               ...        0 min,  0.003 sec (  1.609%)
 hessian update                 ...        0 min,  0.004 sec (  2.357%)
 rational function              ...        0 min,  0.003 sec (  1.772%)

================
 final structure:
================
14
 xtb: 6.7.1 (edcfbbe)
C           -2.01643618385059        0.30374779358223        2.57073306602234
H           -1.57463610243892       -0.67984776348753        2.42611952938985
H           -3.06857564540399        0.17394564638415        2.81587236083529
H           -1.52153417725116        0.77514696841557        3.41548985025762
C           -1.86324757431173        1.14362728056318        1.30775820953379
H           -2.29780769697606        0.59724814657613        0.46671569100667
H           -0.80125391483390        1.28736503500759        1.09395896700266
C           -2.54471545520538        2.50865063058812        1.40695757162253
H           -2.51981627021523        2.98314094486704        0.42268351592162
H           -3.59366222865815        2.36720119205480        1.67836728992807
C           -1.88144884608703        3.43727046693078        2.41769948625442
H           -1.97857924225831        3.04818528888322        3.42806901065462
H           -0.82263628920285        3.55105278499808        2.19201389359722
H           -2.34550945330669        4.42112309463670        2.38823487797322

 Bond Distances (Angstroems)
 ---------------------------
C1-H2=1.0879         C1-H3=1.0881         C1-H4=1.0866         C1-C5=1.5245         H2-C1=1.0879         H3-C1=1.0881         
H4-C1=1.0866         C5-C1=1.5245         C5-H6=1.0930         C5-H7=1.0928         C5-C8=1.5289         H6-C5=1.0930         
H7-C5=1.0928         C8-C5=1.5289         C8-H9=1.0930         C8-H10=1.0927        C8-C11=1.5244        H9-C8=1.0930         
H10-C8=1.0927        C11-C8=1.5244        C11-H12=1.0870       C11-H13=1.0886       C11-H14=1.0882       H12-C11=1.0870       
H13-C11=1.0886       H14-C11=1.0882       
 C  H  Rav=1.0898 sigma=0.0026  Rmin=1.0866  Rmax=1.0930    10
 C  C  Rav=1.5259 sigma=0.0021  Rmin=1.5244  Rmax=1.5289     3

 selected bond angles (degree)
 --------------------
H3-C1-H2=108.35                H4-C1-H2=108.10                H4-C1-H3=108.48                C5-C1-H2=110.31                
C5-C1-H3=110.46                C5-C1-H4=111.06                H6-C5-C1=108.79                H7-C5-C1=109.40                
H7-C5-H6=107.55                C8-C5-C1=113.16                C8-C5-H6=108.60                C8-C5-H7=109.17                
H9-C8-C5=108.60                H10-C8-C5=109.17               H10-C8-H9=107.56               C11-C8-C5=113.14               
C11-C8-H9=108.83               C11-C8-H10=109.38              

 selected dihedral angles (degree)
 ---------------------------------
H6-C5-C1-H2= 55.36            H6-C5-C1-H3=295.60            H6-C5-C1-H4=175.19            H7-C5-C1-H2=298.13            
H7-C5-C1-H3=178.37            H7-C5-C1-H4= 57.96            C8-C5-C1-H2=176.17            C8-C5-C1-H3= 56.41            
C8-C5-C1-H4=296.00            H9-C8-C5-C1=188.37            H9-C8-C5-H6=309.28            H9-C8-C5-H7= 66.27            
H10-C8-C5-C1=305.38           H10-C8-C5-H6= 66.29           H10-C8-C5-H7=183.28           C11-C8-C5-C1= 67.43           
C11-C8-C5-H6=188.34           C11-C8-C5-H7=305.33           
           -------------------------------------------------
          |                Final Singlepoint                |
           -------------------------------------------------

          ...................................................
          :                      SETUP                      :
          :.................................................:
          :  # basis functions                  26          :
          :  # atomic orbitals                  26          :
          :  # shells                           18          :
          :  # electrons                        26          :
          :  max. iterations                   250          :
          :  Hamiltonian                  GFN2-xTB          :
          :  restarted?                      false          :
          :  GBSA solvation                  false          :
          :  PC potential                    false          :
          :  electronic temp.          300.0000000     K    :
          :  accuracy                    1.0000000          :
          :  -> integral cutoff          0.2500000E+02      :
          :  -> integral neglect         0.1000000E-07      :
          :  -> SCF convergence          0.1000000E-05 Eh   :
          :  -> wf. convergence          0.1000000E-03 e    :
          :  Broyden damping             0.4000000          :
          :  net charge                          0          :
          :  unpaired electrons                  0          :
          ...................................................

 iter      E             dE          RMSdq      gap      omega  full diag
   1    -13.8747632 -0.138748E+02  0.439E-05   14.25       0.0  T
   2    -13.8747632 -0.158096E-11  0.248E-05   14.25    1076.9  T
   3    -13.8747632 -0.710543E-14  0.781E-06   14.25    3421.9  T

   *** convergence criteria satisfied after 3 iterations ***

         #    Occupation            Energy/Eh            Energy/eV
      -------------------------------------------------------------
         1        2.0000           -0.6178026             -16.8113
       ...           ...                  ...                  ...
         7        2.0000           -0.4849221             -13.1954
         8        2.0000           -0.4662945             -12.6885
         9        2.0000           -0.4619432             -12.5701
        10        2.0000           -0.4481225             -12.1940
        11        2.0000           -0.4258295             -11.5874
        12        2.0000           -0.4235188             -11.5245
        13        2.0000           -0.4221427             -11.4871 (HOMO)
        14                          0.1016321               2.7655 (LUMO)
        15                          0.1111102               3.0235
        16                          0.1369382               3.7263
        17                          0.1484283               4.0389
        18                          0.1498761               4.0783
       ...                                ...                  ...
        26                          0.2996614               8.1542
      -------------------------------------------------------------
                  HL-Gap            0.5237747 Eh           14.2526 eV
             Fermi-level           -0.1602553 Eh           -4.3608 eV

 SCC (total)                   0 d,  0 h,  0 min,  0.005 sec
 SCC setup                      ...        0 min,  0.000 sec (  4.646%)
 Dispersion                     ...        0 min,  0.000 sec (  2.381%)
 classical contributions        ...        0 min,  0.000 sec (  1.029%)
 integral evaluation            ...        0 min,  0.001 sec ( 13.974%)
 iterations                     ...        0 min,  0.002 sec ( 33.175%)
 molecular gradient             ...        0 min,  0.002 sec ( 41.183%)
 printout                       ...        0 min,  0.000 sec (  3.215%)

         :::::::::::::::::::::::::::::::::::::::::::::::::::::
         ::                     SUMMARY                     ::
         :::::::::::::::::::::::::::::::::::::::::::::::::::::
         :: total energy             -13.664174920627 Eh    ::
         :: gradient norm              0.000603311802 Eh/a0 ::
         :: HOMO-LUMO gap             14.252635770641 eV    ::
         ::.................................................::
         :: SCC energy               -13.874756088983 Eh    ::
         :: -> isotropic ES            0.002968853565 Eh    ::
         :: -> anisotropic ES          0.004975720026 Eh    ::
         :: -> anisotropic XC          0.009002664001 Eh    ::
         :: -> dispersion             -0.006303166249 Eh    ::
         :: repulsion energy           0.210581168356 Eh    ::
         :: add. restraining           0.000000000000 Eh    ::
         :: total charge              -0.000000000000 e     ::
         :::::::::::::::::::::::::::::::::::::::::::::::::::::

           -------------------------------------------------
          |                Property Printout                |
           -------------------------------------------------

    * Orbital Energies and Occupations

         #    Occupation            Energy/Eh            Energy/eV
      -------------------------------------------------------------
         1        2.0000           -0.6178026             -16.8113
         2        2.0000           -0.5960197             -16.2185
         3        2.0000           -0.5731201             -15.5954
         4        2.0000           -0.5475025             -14.8983
         5        2.0000           -0.5064687             -13.7817
         6        2.0000           -0.5059020             -13.7663
         7        2.0000           -0.4849221             -13.1954
         8        2.0000           -0.4662945             -12.6885
         9        2.0000           -0.4619432             -12.5701
        10        2.0000           -0.4481225             -12.1940
        11        2.0000           -0.4258295             -11.5874
        12        2.0000           -0.4235188             -11.5245
        13        2.0000           -0.4221427             -11.4871 (HOMO)
        14                          0.1016321               2.7655 (LUMO)
        15                          0.1111102               3.0235
        16                          0.1369382               3.7263
        17                          0.1484283               4.0389
        18                          0.1498761               4.0783
        19                          0.1574554               4.2846
        20                          0.2025316               5.5112
        21                          0.2063420               5.6149
        22                          0.2343800               6.3778
        23                          0.2483123               6.7569
        24                          0.2783483               7.5742
       ...                                ...                  ...
        26                          0.2996614               8.1542
      -------------------------------------------------------------
                  HL-Gap            0.5237747 Eh           14.2526 eV
             Fermi-level           -0.1602553 Eh           -4.3608 eV

     #   Z          covCN         q      C6AA      α(0)
     1   6 C        3.751    -0.101    22.493     6.764
     2   1 H        0.925     0.030     2.586     2.515
     3   1 H        0.925     0.033     2.551     2.498
     4   1 H        0.925     0.036     2.509     2.477
     5   6 C        3.800    -0.052    21.517     6.604
     6   1 H        0.924     0.026     2.644     2.543
     7   1 H        0.924     0.030     2.593     2.518
     8   6 C        3.800    -0.053    21.518     6.605
     9   1 H        0.924     0.026     2.644     2.543
    10   1 H        0.924     0.030     2.592     2.517
    11   6 C        3.751    -0.101    22.491     6.763
    12   1 H        0.925     0.035     2.513     2.479
    13   1 H        0.925     0.033     2.550     2.497
    14   1 H        0.925     0.030     2.586     2.515

 Mol. C6AA /au·bohr⁶  :       1208.224910
 Mol. C8AA /au·bohr⁸  :      24487.486736
 Mol. α(0) /au        :         51.837564


Wiberg/Mayer (AO) data.
largest (>0.10) Wiberg bond orders for each atom

 ---------------------------------------------------------------------------
     #   Z sym  total        # sym  WBO       # sym  WBO       # sym  WBO
 ---------------------------------------------------------------------------
     1   6 C    3.997 --     5 C    1.020     3 H    0.988     2 H    0.988
                             4 H    0.986
     2   1 H    0.999 --     1 C    0.988
     3   1 H    0.999 --     1 C    0.988
     4   1 H    0.999 --     1 C    0.986
     5   6 C    3.998 --     1 C    1.020     8 C    1.008     6 H    0.979
                             7 H    0.978
     6   1 H    0.999 --     5 C    0.979
     7   1 H    0.999 --     5 C    0.978
     8   6 C    3.998 --    11 C    1.020     5 C    1.008     9 H    0.979
                            10 H    0.978
     9   1 H    0.999 --     8 C    0.979
    10   1 H    0.999 --     8 C    0.978
    11   6 C    3.997 --     8 C    1.020    14 H    0.988    13 H    0.988
                            12 H    0.986
    12   1 H    0.999 --    11 C    0.986
    13   1 H    0.999 --    11 C    0.988
    14   1 H    0.999 --    11 C    0.988
 ---------------------------------------------------------------------------

Topologies differ in total number of bonds
Writing topology from bond orders to xtbtopo.mol

molecular dipole:
                 x           y           z       tot (Debye)
 q only:        0.003       0.001       0.015
   full:        0.003       0.001       0.012       0.032
molecular quadrupole (traceless):
                xx          xy          yy          xz          yz          zz
 q only:       -0.144       0.010      -0.067      -0.037       0.090       0.211
  q+dip:        0.527       0.092      -0.523      -0.226       0.061      -0.004
   full:        0.199       0.045      -0.265      -0.130       0.065       0.066

           -------------------------------------------------
          |                Geometry Summary                 |
           -------------------------------------------------

      molecular mass/u    :       58.1223511
   center of mass at/Å    :       -2.0722896       1.8490408       1.9443369
Note: The following floating-point exceptions are signalling: IEEE_UNDERFLOW_FLAG IEEE_DENORMAL
normal termination of xtb
  moments of inertia/u·Å² :        0.3765298E+02   0.1054475E+03   0.1228231E+03
rotational constants/cm⁻¹ :        0.4477104E+00   0.1598675E+00   0.1372513E+00

 * 13 selected distances

     #   Z          #   Z                                           value/Å
     1   6 C        2   1 H                                       1.0879158
     1   6 C        3   1 H                                       1.0880899
     1   6 C        4   1 H                                       1.0866275 (min)
     1   6 C        5   6 C                                       1.5244574
     5   6 C        6   1 H                                       1.0930349
     5   6 C        7   1 H                                       1.0927952
     5   6 C        8   6 C                                       1.5288977 (max)
     8   6 C        9   1 H                                       1.0929578
     8   6 C       10   1 H                                       1.0926851
     8   6 C       11   6 C                                       1.5244202
    11   6 C       12   1 H                                       1.0870457
    11   6 C       13   1 H                                       1.0885608
    11   6 C       14   1 H                                       1.0882034

 * 2 distinct bonds (by element types)

   Z      Z             #   av. dist./Å        max./Å        min./Å
   1 H    6 C          10     1.0897916     1.0930349     1.0866275
   6 C    6 C           3     1.5259251     1.5288977     1.5244202


optimized geometry written to: xtbopt.xyz


           -------------------------------------------------
          | TOTAL ENERGY              -13.664174920627 Eh   |
          | GRADIENT NORM               0.000603311802 Eh/α |
          | HOMO-LUMO GAP              14.252635770641 eV   |
           -------------------------------------------------

------------------------------------------------------------------------
 * finished run on 2026/08/17 at 12:14:22.027     
------------------------------------------------------------------------
 total:
 * wall-time:     0 d,  0 h,  0 min,  0.310 sec
 *  cpu-time:     0 d,  0 h,  0 min,  1.202 sec
 * ratio c/w:     3.874 speedup
 SCF:
 * wall-time:     0 d,  0 h,  0 min,  0.084 sec
 *  cpu-time:     0 d,  0 h,  0 min,  0.328 sec
 * ratio c/w:     3.911 speedup
 ANC optimizer:
 * wall-time:     0 d,  0 h,  0 min,  0.185 sec
 *  cpu-time:     0 d,  0 h,  0 min,  0.716 sec
 * ratio c/w:     3.882 speedup

