14
 energy: -13.664174920627 gnorm: 0.000603311802 xtb: 6.7.1 (edcfbbe)
C           -2.01643618385059        0.30374779358223        2.57073306602234
H           -1.57463610243892       -0.67984776348753        2.42611952938985
H           -3.06857564540399        0.17394564638415        2.81587236083529
H           -1.52153417725116        0.77514696841557        3.41548985025762
C           -1.86324757431173        1.14362728056318        1.30775820953379
H           -2.29780769697606        0.59724814657613        0.46671569100667
H           -0.80125391483390        1.28736503500759        1.09395896700266
C           -2.54471545520538        2.50865063058812        1.40695757162253
H           -2.51981627021523        2.98314094486704        0.42268351592162
H           -3.59366222865815        2.36720119205480        1.67836728992807
C           -1.88144884608703        3.43727046693078        2.41769948625442
H           -1.97857924225831        3.04818528888322        3.42806901065462
H           -0.82263628920285        3.55105278499808        2.19201389359722
H           -2.34550945330669        4.42112309463670        2.38823487797322
