      -----------------------------------------------------------      
     |                   =====================                   |     
     |                           x T B                           |     
     |                   =====================                   |     
     |                         S. Grimme                         |     
     |          Mulliken Center for Theoretical Chemistry        |     
     |                    University of Bonn                     |     
      -----------------------------------------------------------      

   * xtb version 6.7.1 (edcfbbe) compiled by 'conda@5dfe00f5fb80' on 2026-06-10

   xtb is free software: you can redistribute it and/or modify it under
   the terms of the GNU Lesser General Public License as published by
   the Free Software Foundation, either version 3 of the License, or
   (at your option) any later version.
   
   xtb is distributed in the hope that it will be useful,
   but WITHOUT ANY WARRANTY; without even the implied warranty of
   MERCHANTABILITY or FITNESS FOR A PARTICULAR PURPOSE.  See the
   GNU Lesser General Public License for more details.
   
   Cite this work as:
   * C. Bannwarth, E. Caldeweyher, S. Ehlert, A. Hansen, P. Pracht,
     J. Seibert, S. Spicher, S. Grimme, WIREs Comput. Mol. Sci., 2020, 11,
     e01493. DOI: 10.1002/wcms.1493
   
   for GFN2-xTB:
   * C. Bannwarth, S. Ehlert and S. Grimme., J. Chem. Theory Comput., 2019,
     15, 1652-1671. DOI: 10.1021/acs.jctc.8b01176
   for GFN1-xTB:
   * S. Grimme, C. Bannwarth, P. Shushkov, J. Chem. Theory Comput., 2017,
     13, 1989-2009. DOI: 10.1021/acs.jctc.7b00118
   for GFN0-xTB:
   * P. Pracht, E. Caldeweyher, S. Ehlert, S. Grimme, ChemRxiv, 2019, preprint.
     DOI: 10.26434/chemrxiv.8326202.v1
   for GFN-FF:
   * S. Spicher and S. Grimme, Angew. Chem. Int. Ed., 2020, 59, 15665-15673.
     DOI: 10.1002/anie.202004239
   
   for ALPB and GBSA implicit solvation:
   * S. Ehlert, M. Stahn, S. Spicher, S. Grimme, J. Chem. Theory Comput.,
     2021, 17, 4250-4261. DOI: 10.1021/acs.jctc.1c00471
   
   for ddCOSMO and CPCM-X implicit solvation:
   * M. Stahn, S. Ehlert, S. Grimme, J. Phys. Chem. A,
     2023, XX, XXXX-XXXX. DOI: 10.1021/acs.jpca.3c04382
   
   for DFT-D4:
   * E. Caldeweyher, C. Bannwarth and S. Grimme, J. Chem. Phys., 2017,
     147, 034112. DOI: 10.1063/1.4993215
   * E. Caldeweyher, S. Ehlert, A. Hansen, H. Neugebauer, S. Spicher,
     C. Bannwarth and S. Grimme, J. Chem. Phys., 2019, 150, 154122.
     DOI: 10.1063/1.5090222
   * E. Caldeweyher, J.-M. Mewes, S. Ehlert and S. Grimme, Phys. Chem. Chem. Phys.
     2020, 22, 8499-8512. DOI: 10.1039/D0CP00502A
   
   for sTDA-xTB:
   * S. Grimme and C. Bannwarth, J. Chem. Phys., 2016, 145, 054103.
     DOI: 10.1063/1.4959605
   
   in the mass-spec context:
   * V. Asgeirsson, C. Bauer and S. Grimme, Chem. Sci., 2017, 8, 4879.
     DOI: 10.1039/c7sc00601b
   * J. Koopman and S. Grimme, ACS Omega 2019, 4, 12, 15120-15133.
     DOI: 10.1021/acsomega.9b02011
   
   for metadynamics refer to:
   * S. Grimme, J. Chem. Theory Comput., 2019, 155, 2847-2862
     DOI: 10.1021/acs.jctc.9b00143
   
   for SPH calculations refer to:
   * S. Spicher and S. Grimme, J. Chem. Theory Comput., 2021, 17, 1701-1714
     DOI: 10.1021/acs.jctc.0c01306
   
   for ONIOM refer to:
   * C. Plett, A. Katbashev, S. Ehlert, S. Grimme, M. Bursch,
     Phys. Chem. Chem. Phys., 2023, 25, 17860-17868. DOI: 10.1039/D3CP02178E
   
   for DIPRO refer to:
   * J. Kohn, N. Gildemeister, S. Grimme, D. Fazzi, A. Hansen,
     J. Chem. Phys., 2023, just accepted.
   
   for PTB refer to:
   * S. Grimme, M. Mueller, A. Hansen, J. Chem. Phys., 2023, 158, 124111.
     DOI: 10.1063/5.0137838
   
   with help from (in alphabetical order)
   P. Atkinson, C. Bannwarth, F. Bohle, G. Brandenburg, E. Caldeweyher
   M. Checinski, S. Dohm, S. Ehlert, S. Ehrlich, I. Gerasimov, C. Hölzer
   A. Katbashev, J. Kohn, J. Koopman, C. Lavigne, S. Lehtola, F. März, M. Müller,
   F. Musil, H. Neugebauer, J. Pisarek, C. Plett, P. Pracht, F. Pultar,
   J. Seibert, P. Shushkov, S. Spicher, M. Stahn, M. Steiner, T. Strunk,
   J. Stückrath, T. Rose, and J. Unsleber
   
 * started run on 2026/08/17 at 12:14:22.182     
   ID    Z sym.   atoms
    1    6 C      1, 5, 8, 11
    2    1 H      2-4, 6, 7, 9, 10, 12-14

           -------------------------------------------------
          |                Calculation Setup                |
           -------------------------------------------------

          program call               : xtb input.xyz --gfn2 --opt tight --chrg 0 --uhf 0 --iterations 250
          coordinate file            : input.xyz
          omp threads                :                     4


           -------------------------------------------------
          |                 G F N 2 - x T B                 |
           -------------------------------------------------

        Reference                      10.1021/acs.jctc.8b01176
      * Hamiltonian:
        H0-scaling (s, p, d)           1.850000    2.230000    2.230000
        zeta-weighting                 0.500000
      * Dispersion:
        s8                             2.700000
        a1                             0.520000
        a2                             5.000000
        s9                             5.000000
      * Repulsion:
        kExp                           1.500000    1.000000
        rExp                           1.000000
      * Coulomb:
        alpha                          2.000000
        third order                    shell-resolved
        anisotropic                    true
        a3                             3.000000
        a5                             4.000000
        cn-shift                       1.200000
        cn-exp                         4.000000
        max-rad                        5.000000

q/qsh data taken from xtbrestart
CAMM data taken from xtbrestart

          ...................................................
          :                      SETUP                      :
          :.................................................:
          :  # basis functions                  26          :
          :  # atomic orbitals                  26          :
          :  # shells                           18          :
          :  # electrons                        26          :
          :  max. iterations                   250          :
          :  Hamiltonian                  GFN2-xTB          :
          :  restarted?                       true          :
          :  GBSA solvation                  false          :
          :  PC potential                    false          :
          :  electronic temp.          300.0000000     K    :
          :  accuracy                    1.0000000          :
          :  -> integral cutoff          0.2500000E+02      :
          :  -> integral neglect         0.1000000E-07      :
          :  -> SCF convergence          0.1000000E-05 Eh   :
          :  -> wf. convergence          0.1000000E-03 e    :
          :  Broyden damping             0.4000000          :
          :  net charge                          0          :
          :  unpaired electrons                  0          :
          ...................................................

 iter      E             dE          RMSdq      gap      omega  full diag
   1    -13.8637000 -0.138637E+02  0.689E-01   13.82       0.0  T
   2    -13.8637231 -0.230204E-04  0.413E-01   13.80       1.0  T
   3    -13.8637315 -0.844303E-05  0.222E-02   13.79       1.2  T
   4    -13.8637319 -0.375088E-06  0.561E-03   13.79       4.8  T
   5    -13.8637319 -0.333064E-07  0.181E-03   13.79      14.7  T
   6    -13.8637319 -0.173806E-08  0.488E-04   13.79      54.8  T
   7    -13.8637319 -0.368091E-09  0.932E-05   13.79     286.7  T

   *** convergence criteria satisfied after 7 iterations ***

         #    Occupation            Energy/Eh            Energy/eV
      -------------------------------------------------------------
         1        2.0000           -0.6174375             -16.8013
       ...           ...                  ...                  ...
         7        2.0000           -0.4834494             -13.1553
         8        2.0000           -0.4724744             -12.8567
         9        2.0000           -0.4533908             -12.3374
        10        2.0000           -0.4485752             -12.2064
        11        2.0000           -0.4299738             -11.7002
        12        2.0000           -0.4228493             -11.5063
        13        2.0000           -0.4160880             -11.3223 (HOMO)
        14                          0.0907469               2.4693 (LUMO)
        15                          0.1017751               2.7694
        16                          0.1193421               3.2475
        17                          0.1285716               3.4986
        18                          0.1501536               4.0859
       ...                                ...                  ...
        26                          0.3405632               9.2672
      -------------------------------------------------------------
                  HL-Gap            0.5068349 Eh           13.7917 eV
             Fermi-level           -0.1626705 Eh           -4.4265 eV

 SCC (total)                   0 d,  0 h,  0 min,  0.091 sec
 SCC setup                      ...        0 min,  0.003 sec (  2.955%)
 Dispersion                     ...        0 min,  0.005 sec (  5.805%)
 classical contributions        ...        0 min,  0.003 sec (  3.192%)
 integral evaluation            ...        0 min,  0.006 sec (  6.514%)
 iterations                     ...        0 min,  0.050 sec ( 54.859%)
 molecular gradient             ...        0 min,  0.024 sec ( 26.426%)
 printout                       ...        0 min,  0.000 sec (  0.220%)

         :::::::::::::::::::::::::::::::::::::::::::::::::::::
         ::                     SUMMARY                     ::
         :::::::::::::::::::::::::::::::::::::::::::::::::::::
         :: total energy             -13.657520885829 Eh    ::
         :: gradient norm              0.016068863213 Eh/a0 ::
         :: HOMO-LUMO gap             13.791679347114 eV    ::
         ::.................................................::
         :: SCC energy               -13.863724523554 Eh    ::
         :: -> isotropic ES            0.002970951608 Eh    ::
         :: -> anisotropic ES          0.005362597053 Eh    ::
         :: -> anisotropic XC          0.009010042817 Eh    ::
         :: -> dispersion             -0.006337529613 Eh    ::
         :: repulsion energy           0.206203637725 Eh    ::
         :: add. restraining           0.000000000000 Eh    ::
         :: total charge              -0.000000000000 e     ::
         :::::::::::::::::::::::::::::::::::::::::::::::::::::

      ----------------------------------------------------------- 
     |                   =====================                   |
     |                        A N C O P T                        |
     |                   =====================                   |
     |               Approximate Normal Coordinate               |
     |                Rational Function Optimizer                |
      ----------------------------------------------------------- 
      ----------------------------------------------------------- 
     |                   =====================                   |
     |                        A N C O P T                        |
     |                   =====================                   |
     |               Approximate Normal Coordinate               |
     |                Rational Function Optimizer                |
      ----------------------------------------------------------- 

          ...................................................
          :                      SETUP                      :
          :.................................................:
          :   optimization level             tight          :
          :   max. optcycles                   200          :
          :   ANC micro-cycles                  20          :
          :   degrees of freedom                36          :
          :.................................................:
          :   RF solver                   davidson          :
          :   write xtbopt.log                true          :
          :   linear?                        false          :
          :   energy convergence         0.1000000E-05 Eh   :
          :   grad. convergence          0.8000000E-03 Eh/α :
          :   maxmium RF displ.          1.0000000          :
          :   Hlow (freq-cutoff)         0.1000000E-01      :
          :   Hmax (freq-cutoff)         5.0000000          :
          :   S6 in model hess.         20.0000000          :
          ...................................................

generating ANC from exact Hessian ...
Using Lindh-Hessian (1995)
 Shifting diagonal of input Hessian by    9.2932891214626209E-003
 Lowest  eigenvalues of input Hessian
    0.000000    0.000000    0.000000    0.000000    0.000000    0.000000
    0.010000    0.014233    0.016863    0.023269    0.028907    0.047279
    0.053727    0.060672    0.061229    0.063613    0.063825    0.070937
 Highest eigenvalues
    1.112393    1.135679    1.151001    1.196979    1.251165    1.274072


........................................................................
.............................. CYCLE    1 ..............................
........................................................................

 iter      E             dE          RMSdq      gap      omega  full diag
   1    -13.8637319 -0.138637E+02  0.293E-05   13.79       0.0  T
   2    -13.8637319 -0.116529E-11  0.154E-05   13.79    1739.5  T
   3    -13.8637319 -0.110134E-12  0.468E-06   13.79    5705.9  T
     SCC iter.                  ...        0 min,  0.002 sec
     gradient                   ...        0 min,  0.003 sec
 * total energy  :   -13.6575209 Eh     change       -0.8025580E-11 Eh
   gradient norm :     0.0148829 Eh/α   predicted     0.0000000E+00 (-100.00%)
   displ. norm   :     0.1293941 α      lambda       -0.8878803E-03
   maximum displ.:     0.1008719 α      in ANC's #4, #8, #5, ...

........................................................................
.............................. CYCLE    2 ..............................
........................................................................

 iter      E             dE          RMSdq      gap      omega  full diag
   1    -13.8680517 -0.138681E+02  0.100E-01   13.96       0.0  T
   2    -13.8680541 -0.236292E-05  0.577E-02   13.96       1.0  T
   3    -13.8680543 -0.215096E-06  0.550E-03   13.96       4.9  T
   4    -13.8680543 -0.247195E-07  0.169E-03   13.96      15.8  T
   5    -13.8680543 -0.167925E-08  0.673E-04   13.96      39.7  T
   6    -13.8680543 -0.387777E-09  0.137E-04   13.96     194.6  T
     SCC iter.                  ...        0 min,  0.009 sec
     gradient                   ...        0 min,  0.002 sec
 * total energy  :   -13.6581347 Eh     change       -0.6138570E-03 Eh
   gradient norm :     0.0054785 Eh/α   predicted    -0.4513740E-03 ( -26.47%)
   displ. norm   :     0.2047789 α      lambda       -0.5658650E-03
   maximum displ.:     0.1782150 α      in ANC's #4, #3, #5, ...

........................................................................
.............................. CYCLE    3 ..............................
........................................................................

 iter      E             dE          RMSdq      gap      omega  full diag
   1    -13.8708137 -0.138708E+02  0.834E-02   14.05       0.0  T
   2    -13.8708148 -0.113816E-05  0.487E-02   14.05       1.0  T
   3    -13.8708149 -0.112976E-06  0.367E-03   14.05       7.3  T
   4    -13.8708149 -0.380992E-08  0.115E-03   14.05      23.2  T
   5    -13.8708149 -0.854248E-09  0.255E-04   14.05     104.9  T
   6    -13.8708149 -0.157911E-09  0.108E-04   14.05     247.4  T
     SCC iter.                  ...        0 min,  0.007 sec
     gradient                   ...        0 min,  0.002 sec
 * total energy  :   -13.6585911 Eh     change       -0.4563843E-03 Eh
   gradient norm :     0.0045625 Eh/α   predicted    -0.2947943E-03 ( -35.41%)
   displ. norm   :     0.5099446 α      lambda       -0.1079008E-02
   maximum displ.:     0.4274664 α      in ANC's #4, #3, #5, ...

........................................................................
.............................. CYCLE    4 ..............................
........................................................................

 iter      E             dE          RMSdq      gap      omega  full diag
   1    -13.8697556 -0.138698E+02  0.164E-01   14.12       0.0  T
   2    -13.8697601 -0.449132E-05  0.972E-02   14.11       1.0  T
   3    -13.8697606 -0.491383E-06  0.847E-03   14.12       3.2  T
   4    -13.8697607 -0.126809E-06  0.320E-03   14.12       8.4  T
   5    -13.8697607 -0.380312E-08  0.808E-04   14.12      33.1  T
   6    -13.8697607 -0.899252E-09  0.229E-04   14.12     116.8  T
     SCC iter.                  ...        0 min,  0.005 sec
     gradient                   ...        0 min,  0.004 sec
 * total energy  :   -13.6594052 Eh     change       -0.8140494E-03 Eh
   gradient norm :     0.0135809 Eh/α   predicted    -0.6798015E-03 ( -16.49%)
   displ. norm   :     0.4123515 α      lambda       -0.8742182E-03
   maximum displ.:     0.3226424 α      in ANC's #4, #3, #2, ...

........................................................................
.............................. CYCLE    5 ..............................
........................................................................

 iter      E             dE          RMSdq      gap      omega  full diag
   1    -13.8662640 -0.138663E+02  0.130E-01   14.13       0.0  T
   2    -13.8662711 -0.713977E-05  0.764E-02   14.13       1.0  T
   3    -13.8662715 -0.357141E-06  0.121E-02   14.13       2.2  T
   4    -13.8662717 -0.153275E-06  0.291E-03   14.13       9.2  T
   5    -13.8662717 -0.279005E-08  0.126E-03   14.13      21.2  T
   6    -13.8662717 -0.932852E-09  0.165E-04   14.13     162.4  T
   7    -13.8662717 -0.216431E-10  0.695E-05   14.13     384.3  T
     SCC iter.                  ...        0 min,  0.005 sec
     gradient                   ...        0 min,  0.002 sec
 * total energy  :   -13.6599023 Eh     change       -0.4971585E-03 Eh
   gradient norm :     0.0208211 Eh/α   predicted    -0.5114365E-03 (   2.87%)
   displ. norm   :     0.1910220 α      lambda       -0.1461193E-02
   maximum displ.:     0.1023796 α      in ANC's #2, #4, #1, ...

........................................................................
.............................. CYCLE    6 ..............................
........................................................................

 iter      E             dE          RMSdq      gap      omega  full diag
   1    -13.8698504 -0.138699E+02  0.130E-01   14.21       0.0  T
   2    -13.8698540 -0.352799E-05  0.749E-02   14.20       1.0  T
   3    -13.8698545 -0.483767E-06  0.794E-03   14.20       3.4  T
   4    -13.8698545 -0.726562E-07  0.301E-03   14.20       8.9  T
   5    -13.8698545 -0.158903E-08  0.703E-04   14.20      38.0  T
   6    -13.8698545 -0.114187E-08  0.196E-04   14.20     136.2  T
     SCC iter.                  ...        0 min,  0.003 sec
     gradient                   ...        0 min,  0.004 sec
 * total energy  :   -13.6608301 Eh     change       -0.9277198E-03 Eh
   gradient norm :     0.0117754 Eh/α   predicted    -0.7572544E-03 ( -18.37%)
   displ. norm   :     0.2906431 α      lambda       -0.7386951E-03
   maximum displ.:     0.1627114 α      in ANC's #2, #3, #4, ...

........................................................................
.............................. CYCLE    7 ..............................
........................................................................

 iter      E             dE          RMSdq      gap      omega  full diag
   1    -13.8691801 -0.138692E+02  0.995E-02   14.25       0.0  T
   2    -13.8691819 -0.177563E-05  0.586E-02   14.25       1.0  T
   3    -13.8691820 -0.159655E-06  0.466E-03   14.25       5.7  T
   4    -13.8691821 -0.173539E-07  0.160E-03   14.25      16.7  T
   5    -13.8691821 -0.138461E-08  0.604E-04   14.25      44.3  T
   6    -13.8691821 -0.370207E-09  0.139E-04   14.25     193.0  T
     SCC iter.                  ...        0 min,  0.003 sec
     gradient                   ...        0 min,  0.002 sec
 * total energy  :   -13.6613690 Eh     change       -0.5389926E-03 Eh
   gradient norm :     0.0146184 Eh/α   predicted    -0.4005473E-03 ( -25.69%)
   displ. norm   :     0.3114940 α      lambda       -0.1002186E-02
   maximum displ.:     0.1839267 α      in ANC's #2, #1, #3, ...

........................................................................
.............................. CYCLE    8 ..............................
........................................................................

 iter      E             dE          RMSdq      gap      omega  full diag
   1    -13.8722068 -0.138722E+02  0.110E-01   14.33       0.0  T
   2    -13.8722093 -0.257255E-05  0.642E-02   14.33       1.0  T
   3    -13.8722096 -0.243365E-06  0.757E-03   14.33       3.5  T
   4    -13.8722097 -0.142384E-06  0.255E-03   14.33      10.5  T
   5    -13.8722097 -0.284967E-08  0.595E-04   14.33      44.9  T
   6    -13.8722097 -0.221291E-09  0.191E-04   14.33     140.2  T
     SCC iter.                  ...        0 min,  0.003 sec
     gradient                   ...        0 min,  0.002 sec
 * total energy  :   -13.6620113 Eh     change       -0.6422410E-03 Eh
   gradient norm :     0.0118806 Eh/α   predicted    -0.5497109E-03 ( -14.41%)
   displ. norm   :     0.4702469 α      lambda       -0.9626372E-03
   maximum displ.:     0.2708453 α      in ANC's #2, #3, #1, ...

........................................................................
.............................. CYCLE    9 ..............................
........................................................................

 iter      E             dE          RMSdq      gap      omega  full diag
   1    -13.8660762 -0.138661E+02  0.153E-01   14.32       0.0  T
   2    -13.8660923 -0.160190E-04  0.888E-02   14.31       1.0  T
   3    -13.8660929 -0.631488E-06  0.185E-02   14.31       1.4  T
   4    -13.8660931 -0.171302E-06  0.373E-03   14.31       7.2  T
   5    -13.8660931 -0.707010E-08  0.166E-03   14.31      16.1  T
   6    -13.8660931 -0.190251E-08  0.302E-04   14.31      88.6  T
   7    -13.8660931 -0.636149E-10  0.109E-04   14.31     246.0  T
     SCC iter.                  ...        0 min,  0.005 sec
     gradient                   ...        0 min,  0.002 sec
 * total energy  :   -13.6623690 Eh     change       -0.3576775E-03 Eh
   gradient norm :     0.0221116 Eh/α   predicted    -0.5877505E-03 (  64.32%)
   displ. norm   :     0.1354630 α      lambda       -0.9872771E-03
   maximum displ.:     0.1122509 α      in ANC's #4, #1, #14, ...

........................................................................
.............................. CYCLE   10 ..............................
........................................................................

 iter      E             dE          RMSdq      gap      omega  full diag
   1    -13.8727176 -0.138727E+02  0.962E-02   14.39       0.0  T
   2    -13.8727254 -0.782335E-05  0.536E-02   14.39       1.0  T
   3    -13.8727258 -0.396110E-06  0.135E-02   14.39       2.0  T
   4    -13.8727259 -0.688402E-07  0.286E-03   14.39       9.3  T
   5    -13.8727259 -0.261435E-08  0.136E-03   14.39      19.7  T
   6    -13.8727259 -0.108015E-08  0.135E-04   14.39     198.6  T
   7    -13.8727259 -0.151559E-10  0.663E-05   14.39     403.2  T
     SCC iter.                  ...        0 min,  0.004 sec
     gradient                   ...        0 min,  0.002 sec
 * total energy  :   -13.6629059 Eh     change       -0.5369814E-03 Eh
   gradient norm :     0.0088632 Eh/α   predicted    -0.5026960E-03 (  -6.38%)
   displ. norm   :     0.2076254 α      lambda       -0.2820795E-03
   maximum displ.:     0.1167923 α      in ANC's #2, #1, #3, ...

........................................................................
.............................. CYCLE   11 ..............................
........................................................................

 iter      E             dE          RMSdq      gap      omega  full diag
   1    -13.8722612 -0.138723E+02  0.624E-02   14.32       0.0  T
   2    -13.8722618 -0.592275E-06  0.371E-02   14.32       1.0  T
   3    -13.8722618 -0.508643E-08  0.353E-03   14.32       7.6  T
   4    -13.8722618 -0.653468E-07  0.945E-04   14.32      28.3  T
   5    -13.8722618 -0.309296E-09  0.137E-04   14.32     195.5  T
     SCC iter.                  ...        0 min,  0.004 sec
     gradient                   ...        0 min,  0.002 sec
 * total energy  :   -13.6631029 Eh     change       -0.1969857E-03 Eh
   gradient norm :     0.0058750 Eh/α   predicted    -0.1471190E-03 ( -25.31%)
   displ. norm   :     0.2185485 α      lambda       -0.1992262E-03
   maximum displ.:     0.1183907 α      in ANC's #3, #2, #1, ...

........................................................................
.............................. CYCLE   12 ..............................
........................................................................

 iter      E             dE          RMSdq      gap      omega  full diag
   1    -13.8723792 -0.138724E+02  0.668E-02   14.26       0.0  T
   2    -13.8723802 -0.986915E-06  0.396E-02   14.26       1.0  T
   3    -13.8723802 -0.176794E-07  0.456E-03   14.26       5.9  T
   4    -13.8723803 -0.768077E-07  0.115E-03   14.26      23.2  T
   5    -13.8723803 -0.764803E-09  0.349E-04   14.26      76.6  T
   6    -13.8723803 -0.577831E-10  0.952E-05   14.26     280.8  T
     SCC iter.                  ...        0 min,  0.003 sec
     gradient                   ...        0 min,  0.002 sec
 * total energy  :   -13.6632148 Eh     change       -0.1118694E-03 Eh
   gradient norm :     0.0047829 Eh/α   predicted    -0.1043725E-03 (  -6.70%)
   displ. norm   :     0.0701316 α      lambda       -0.8228253E-04
   maximum displ.:     0.0463000 α      in ANC's #1, #3, #24, ...

........................................................................
.............................. CYCLE   13 ..............................
........................................................................

 iter      E             dE          RMSdq      gap      omega  full diag
   1    -13.8739939 -0.138740E+02  0.335E-02   14.24       0.0  T
   2    -13.8739944 -0.522468E-06  0.193E-02   14.24       1.4  T
   3    -13.8739944 -0.277361E-07  0.318E-03   14.24       8.4  T
   4    -13.8739944 -0.804391E-08  0.800E-04   14.24      33.4  T
   5    -13.8739944 -0.321585E-09  0.396E-04   14.24      67.5  T
     SCC iter.                  ...        0 min,  0.006 sec
     gradient                   ...        0 min,  0.002 sec
 * total energy  :   -13.6632616 Eh     change       -0.4677619E-04 Eh
   gradient norm :     0.0032438 Eh/α   predicted    -0.4134333E-04 ( -11.61%)
   displ. norm   :     0.0844306 α      lambda       -0.3662784E-04
   maximum displ.:     0.0459671 α      in ANC's #1, #3, #24, ...

........................................................................
.............................. CYCLE   14 ..............................
........................................................................

 iter      E             dE          RMSdq      gap      omega  full diag
   1    -13.8741277 -0.138741E+02  0.270E-02   14.26       0.0  T
   2    -13.8741277 -0.682160E-07  0.160E-02   14.26       1.7  T
   3    -13.8741277 -0.419240E-08  0.120E-03   14.26      22.3  T
   4    -13.8741277 -0.750241E-08  0.423E-04   14.26      63.2  T
   5    -13.8741277 -0.109198E-09  0.119E-04   14.26     224.5  T
     SCC iter.                  ...        0 min,  0.003 sec
     gradient                   ...        0 min,  0.002 sec
 * total energy  :   -13.6632869 Eh     change       -0.2536703E-04 Eh
   gradient norm :     0.0020736 Eh/α   predicted    -0.1844513E-04 ( -27.29%)
   displ. norm   :     0.0614808 α      lambda       -0.2141695E-04
   maximum displ.:     0.0344890 α      in ANC's #3, #1, #4, ...

........................................................................
.............................. CYCLE   15 ..............................
........................................................................

 iter      E             dE          RMSdq      gap      omega  full diag
   1    -13.8745098 -0.138745E+02  0.175E-02   14.29       0.0  T
   2    -13.8745099 -0.374057E-07  0.105E-02   14.29       2.6  T
   3    -13.8745099 -0.896556E-09  0.910E-04   14.29      29.4  T
   4    -13.8745099 -0.488010E-08  0.298E-04   14.29      89.6  T
     SCC iter.                  ...        0 min,  0.002 sec
     gradient                   ...        0 min,  0.004 sec
 * total energy  :   -13.6633006 Eh     change       -0.1369803E-04 Eh
   gradient norm :     0.0012018 Eh/α   predicted    -0.1074682E-04 ( -21.54%)
   displ. norm   :     0.0489810 α      lambda       -0.8227174E-05
   maximum displ.:     0.0282752 α      in ANC's #3, #2, #4, ...

........................................................................
.............................. CYCLE   16 ..............................
........................................................................

 iter      E             dE          RMSdq      gap      omega  full diag
   1    -13.8747472 -0.138747E+02  0.142E-02   14.32       0.0  T
   2    -13.8747473 -0.203768E-07  0.846E-03   14.32       3.2  T
   3    -13.8747473 -0.136657E-08  0.631E-04   14.32      42.4  T
   4    -13.8747473 -0.207045E-08  0.225E-04   14.32     118.6  T
     SCC iter.                  ...        0 min,  0.002 sec
     gradient                   ...        0 min,  0.002 sec
 * total energy  :   -13.6633075 Eh     change       -0.6896945E-05 Eh
   gradient norm :     0.0011992 Eh/α   predicted    -0.4118431E-05 ( -40.29%)
   displ. norm   :     0.0367420 α      lambda       -0.6667877E-05
   maximum displ.:     0.0243020 α      in ANC's #2, #3, #5, ...

........................................................................
.............................. CYCLE   17 ..............................
........................................................................

 iter      E             dE          RMSdq      gap      omega  full diag
   1    -13.8745337 -0.138745E+02  0.132E-02   14.32       0.0  T
   2    -13.8745338 -0.181953E-07  0.783E-03   14.32       3.4  T
   3    -13.8745338 -0.422146E-08  0.630E-04   14.32      42.4  T
   4    -13.8745338 -0.852161E-09  0.275E-04   14.32      97.1  T
     SCC iter.                  ...        0 min,  0.002 sec
     gradient                   ...        0 min,  0.002 sec
 * total energy  :   -13.6633124 Eh     change       -0.4833607E-05 Eh
   gradient norm :     0.0015563 Eh/α   predicted    -0.3335921E-05 ( -30.98%)
   displ. norm   :     0.0525367 α      lambda       -0.7004636E-05
   maximum displ.:     0.0366299 α      in ANC's #2, #1, #24, ...

........................................................................
.............................. CYCLE   18 ..............................
........................................................................

 iter      E             dE          RMSdq      gap      omega  full diag
   1    -13.8747450 -0.138747E+02  0.156E-02   14.32       0.0  T
   2    -13.8747450 -0.412105E-07  0.924E-03   14.33       2.9  T
   3    -13.8747450 -0.267714E-08  0.719E-04   14.33      37.1  T
   4    -13.8747450 -0.116807E-08  0.242E-04   14.33     110.3  T
     SCC iter.                  ...        0 min,  0.005 sec
     gradient                   ...        0 min,  0.002 sec
 * total energy  :   -13.6633167 Eh     change       -0.4320536E-05 Eh
   gradient norm :     0.0012030 Eh/α   predicted    -0.3506688E-05 ( -18.84%)
   displ. norm   :     0.0207576 α      lambda       -0.4080503E-05
   maximum displ.:     0.0172564 α      in ANC's #3, #2, #1, ...

........................................................................
.............................. CYCLE   19 ..............................
........................................................................

 iter      E             dE          RMSdq      gap      omega  full diag
   1    -13.8743089 -0.138743E+02  0.984E-03   14.31       0.0  T
   2    -13.8743090 -0.557574E-07  0.571E-03   14.31       4.7  T
   3    -13.8743090 -0.315103E-08  0.104E-03   14.31      25.8  T
   4    -13.8743090 -0.449710E-09  0.252E-04   14.31     106.0  T
   5    -13.8743090 -0.166445E-10  0.869E-05   14.31     307.4  T
     SCC iter.                  ...        0 min,  0.003 sec
     gradient                   ...        0 min,  0.002 sec
 * total energy  :   -13.6633185 Eh     change       -0.1822986E-05 Eh
   gradient norm :     0.0014619 Eh/α   predicted    -0.2040557E-05 (  11.93%)
   displ. norm   :     0.0109868 α      lambda       -0.2847806E-05
   maximum displ.:     0.0082754 α      in ANC's #4, #1, #6, ...

........................................................................
.............................. CYCLE   20 ..............................
........................................................................

 iter      E             dE          RMSdq      gap      omega  full diag
   1    -13.8743172 -0.138743E+02  0.563E-03   14.31       0.0  T
   2    -13.8743172 -0.180994E-07  0.328E-03   14.31       8.1  T
   3    -13.8743172 -0.678794E-09  0.601E-04   14.31      44.5  T
   4    -13.8743172 -0.397396E-09  0.130E-04   14.31     205.4  T
     SCC iter.                  ...        0 min,  0.005 sec
     gradient                   ...        0 min,  0.002 sec
 * total energy  :   -13.6633212 Eh     change       -0.2694137E-05 Eh
   gradient norm :     0.0005842 Eh/α   predicted    -0.1424521E-05 ( -47.13%)
   displ. norm   :     0.0220765 α      lambda       -0.1538470E-05
   maximum displ.:     0.0152068 α      in ANC's #1, #4, #3, ...
 * RMSD in coord.:     0.6685133 α      energy gain  -0.5800326E-02 Eh

generating ANC from exact Hessian ...
Using Lindh-Hessian (1995)
 Shifting diagonal of input Hessian by    5.7995613444334652E-003
 Lowest  eigenvalues of input Hessian
    0.000000    0.000000    0.000000    0.000000    0.000000    0.000000
    0.010000    0.012705    0.014006    0.020461    0.025873    0.045351
    0.051848    0.058322    0.058333    0.060924    0.061557    0.068447
 Highest eigenvalues
    1.134807    1.156740    1.167095    1.210111    1.252342    1.270078


........................................................................
.............................. CYCLE   21 ..............................
........................................................................

 iter      E             dE          RMSdq      gap      omega  full diag
   1    -13.8745470 -0.138745E+02  0.720E-03   14.32       0.0  T
   2    -13.8745470 -0.515217E-08  0.429E-03   14.32       6.2  T
   3    -13.8745470 -0.459128E-09  0.269E-04   14.32      99.2  T
   4    -13.8745470 -0.285844E-09  0.109E-04   14.32     246.0  T
     SCC iter.                  ...        0 min,  0.005 sec
     gradient                   ...        0 min,  0.002 sec
 * total energy  :   -13.6633226 Eh     change       -0.1417356E-05 Eh
   gradient norm :     0.0023434 Eh/α   predicted     0.0000000E+00 (-100.00%)
   displ. norm   :     0.1914786 α      lambda       -0.4294976E-03
   maximum displ.:     0.1436026 α      in ANC's #1, #2, #3, ...

........................................................................
.............................. CYCLE   22 ..............................
........................................................................

 iter      E             dE          RMSdq      gap      omega  full diag
   1    -13.8744188 -0.138744E+02  0.368E-02   14.24       0.0  T
   2    -13.8744193 -0.462323E-06  0.214E-02   14.24       1.2  T
   3    -13.8744194 -0.889503E-07  0.303E-03   14.24       8.8  T
   4    -13.8744194 -0.850880E-08  0.118E-03   14.24      22.7  T
   5    -13.8744194 -0.192442E-08  0.156E-04   14.24     171.3  T
   6    -13.8744194 -0.323670E-10  0.693E-05   14.24     385.5  T
     SCC iter.                  ...        0 min,  0.003 sec
     gradient                   ...        0 min,  0.002 sec
 * total energy  :   -13.6636337 Eh     change       -0.3110485E-03 Eh
   gradient norm :     0.0015392 Eh/α   predicted    -0.2226216E-03 ( -28.43%)
   displ. norm   :     0.2158568 α      lambda       -0.1749463E-03
   maximum displ.:     0.1868959 α      in ANC's #1, #2, #4, ...

........................................................................
.............................. CYCLE   23 ..............................
........................................................................

 iter      E             dE          RMSdq      gap      omega  full diag
   1    -13.8737161 -0.138737E+02  0.615E-02   14.24       0.0  T
   2    -13.8737166 -0.465331E-06  0.363E-02   14.24       1.0  T
   3    -13.8737167 -0.998494E-07  0.270E-03   14.25       9.9  T
   4    -13.8737167 -0.627723E-08  0.107E-03   14.25      25.0  T
   5    -13.8737167 -0.112573E-08  0.200E-04   14.25     133.8  T
   6    -13.8737167 -0.739124E-10  0.903E-05   14.25     296.0  T
     SCC iter.                  ...        0 min,  0.006 sec
     gradient                   ...        0 min,  0.002 sec
 * total energy  :   -13.6638036 Eh     change       -0.1698944E-03 Eh
   gradient norm :     0.0017070 Eh/α   predicted    -0.8928292E-04 ( -47.45%)
   displ. norm   :     0.1120326 α      lambda       -0.6442866E-04
   maximum displ.:     0.1048656 α      in ANC's #1, #4, #7, ...

........................................................................
.............................. CYCLE   24 ..............................
........................................................................

 iter      E             dE          RMSdq      gap      omega  full diag
   1    -13.8742433 -0.138742E+02  0.306E-02   14.24       0.0  T
   2    -13.8742434 -0.455176E-07  0.183E-02   14.24       1.5  T
   3    -13.8742434 -0.114794E-07  0.908E-04   14.24      29.4  T
   4    -13.8742434 -0.151392E-08  0.450E-04   14.24      59.4  T
     SCC iter.                  ...        0 min,  0.002 sec
     gradient                   ...        0 min,  0.002 sec
 * total energy  :   -13.6638872 Eh     change       -0.8359399E-04 Eh
   gradient norm :     0.0010144 Eh/α   predicted    -0.3239289E-04 ( -61.25%)
   displ. norm   :     0.1477283 α      lambda       -0.7276682E-04
   maximum displ.:     0.1260821 α      in ANC's #1, #2, #4, ...

........................................................................
.............................. CYCLE   25 ..............................
........................................................................

 iter      E             dE          RMSdq      gap      omega  full diag
   1    -13.8744661 -0.138745E+02  0.404E-02   14.28       0.0  T
   2    -13.8744661 -0.642900E-07  0.241E-02   14.28       1.1  T
   3    -13.8744662 -0.210785E-07  0.114E-03   14.28      23.4  T
   4    -13.8744662 -0.174177E-08  0.551E-04   14.28      48.5  T
   5    -13.8744662 -0.245112E-09  0.857E-05   14.28     311.8  T
     SCC iter.                  ...        0 min,  0.007 sec
     gradient                   ...        0 min,  0.002 sec
 * total energy  :   -13.6639754 Eh     change       -0.8822535E-04 Eh
   gradient norm :     0.0009637 Eh/α   predicted    -0.3673486E-04 ( -58.36%)
   displ. norm   :     0.1348215 α      lambda       -0.4752757E-04
   maximum displ.:     0.1220206 α      in ANC's #1, #2, #3, ...

........................................................................
.............................. CYCLE   26 ..............................
........................................................................

 iter      E             dE          RMSdq      gap      omega  full diag
   1    -13.8744919 -0.138745E+02  0.371E-02   14.29       0.0  T
   2    -13.8744919 -0.400520E-07  0.222E-02   14.29       1.2  T
   3    -13.8744919 -0.165707E-07  0.914E-04   14.29      29.2  T
   4    -13.8744919 -0.447962E-09  0.170E-04   14.29     157.4  T
     SCC iter.                  ...        0 min,  0.002 sec
     gradient                   ...        0 min,  0.002 sec
 * total energy  :   -13.6640334 Eh     change       -0.5801698E-04 Eh
   gradient norm :     0.0010064 Eh/α   predicted    -0.2395704E-04 ( -58.71%)
   displ. norm   :     0.1006556 α      lambda       -0.2894196E-04
   maximum displ.:     0.0939161 α      in ANC's #1, #2, #4, ...

........................................................................
.............................. CYCLE   27 ..............................
........................................................................

 iter      E             dE          RMSdq      gap      omega  full diag
   1    -13.8747838 -0.138748E+02  0.254E-02   14.30       0.0  T
   2    -13.8747838 -0.220511E-07  0.152E-02   14.30       1.8  T
   3    -13.8747839 -0.642877E-08  0.564E-04   14.30      47.4  T
   4    -13.8747839 -0.196486E-09  0.284E-04   14.30      94.0  T
     SCC iter.                  ...        0 min,  0.003 sec
     gradient                   ...        0 min,  0.004 sec
 * total energy  :   -13.6640718 Eh     change       -0.3841125E-04 Eh
   gradient norm :     0.0007888 Eh/α   predicted    -0.1453799E-04 ( -62.15%)
   displ. norm   :     0.0952383 α      lambda       -0.2561601E-04
   maximum displ.:     0.0873639 α      in ANC's #1, #4, #2, ...

........................................................................
.............................. CYCLE   28 ..............................
........................................................................

 iter      E             dE          RMSdq      gap      omega  full diag
   1    -13.8748454 -0.138748E+02  0.260E-02   14.29       0.0  T
   2    -13.8748454 -0.141129E-07  0.156E-02   14.29       1.7  T
   3    -13.8748454 -0.598221E-08  0.516E-04   14.29      51.8  T
   4    -13.8748454 -0.247772E-09  0.268E-04   14.29      99.6  T
     SCC iter.                  ...        0 min,  0.002 sec
     gradient                   ...        0 min,  0.002 sec
 * total energy  :   -13.6641056 Eh     change       -0.3377097E-04 Eh
   gradient norm :     0.0007463 Eh/α   predicted    -0.1285805E-04 ( -61.93%)
   displ. norm   :     0.1017713 α      lambda       -0.2310005E-04
   maximum displ.:     0.0918533 α      in ANC's #1, #4, #2, ...

........................................................................
.............................. CYCLE   29 ..............................
........................................................................

 iter      E             dE          RMSdq      gap      omega  full diag
   1    -13.8747779 -0.138748E+02  0.250E-02   14.29       0.0  T
   2    -13.8747779 -0.142371E-07  0.151E-02   14.29       1.8  T
   3    -13.8747780 -0.623924E-08  0.509E-04   14.29      52.5  T
   4    -13.8747780 -0.158350E-09  0.208E-04   14.29     128.2  T
     SCC iter.                  ...        0 min,  0.006 sec
     gradient                   ...        0 min,  0.003 sec
 * total energy  :   -13.6641342 Eh     change       -0.2856389E-04 Eh
   gradient norm :     0.0006060 Eh/α   predicted    -0.1160292E-04 ( -59.38%)
   displ. norm   :     0.1005886 α      lambda       -0.1630141E-04
   maximum displ.:     0.0908051 α      in ANC's #1, #4, #2, ...

........................................................................
.............................. CYCLE   30 ..............................
........................................................................

 iter      E             dE          RMSdq      gap      omega  full diag
   1    -13.8747219 -0.138747E+02  0.277E-02   14.28       0.0  T
   2    -13.8747219 -0.180324E-07  0.166E-02   14.28       1.6  T
   3    -13.8747219 -0.747315E-08  0.572E-04   14.28      46.7  T
   4    -13.8747219 -0.163007E-09  0.266E-04   14.28     100.5  T
     SCC iter.                  ...        0 min,  0.002 sec
     gradient                   ...        0 min,  0.002 sec
 * total energy  :   -13.6641535 Eh     change       -0.1931351E-04 Eh
   gradient norm :     0.0005302 Eh/α   predicted    -0.8185768E-05 ( -57.62%)
   displ. norm   :     0.0857773 α      lambda       -0.9407948E-05
   maximum displ.:     0.0786360 α      in ANC's #1, #2, #4, ...

........................................................................
.............................. CYCLE   31 ..............................
........................................................................

 iter      E             dE          RMSdq      gap      omega  full diag
   1    -13.8747762 -0.138748E+02  0.216E-02   14.27       0.0  T
   2    -13.8747762 -0.942692E-08  0.130E-02   14.27       2.1  T
   3    -13.8747762 -0.422667E-08  0.418E-04   14.27      63.9  T
   4    -13.8747762 -0.758416E-10  0.173E-04   14.27     154.2  T
     SCC iter.                  ...        0 min,  0.002 sec
     gradient                   ...        0 min,  0.002 sec
 * total energy  :   -13.6641647 Eh     change       -0.1122186E-04 Eh
   gradient norm :     0.0004074 Eh/α   predicted    -0.4717687E-05 ( -57.96%)
   displ. norm   :     0.0750159 α      lambda       -0.6032900E-05
   maximum displ.:     0.0697339 α      in ANC's #1, #2, #4, ...

........................................................................
.............................. CYCLE   32 ..............................
........................................................................

 iter      E             dE          RMSdq      gap      omega  full diag
   1    -13.8748467 -0.138748E+02  0.198E-02   14.27       0.0  T
   2    -13.8748467 -0.116571E-07  0.119E-02   14.26       2.3  T
   3    -13.8748467 -0.376248E-08  0.474E-04   14.26      56.4  T
   4    -13.8748467 -0.375859E-09  0.246E-04   14.26     108.5  T
     SCC iter.                  ...        0 min,  0.002 sec
     gradient                   ...        0 min,  0.002 sec
 * total energy  :   -13.6641717 Eh     change       -0.7003032E-05 Eh
   gradient norm :     0.0003686 Eh/α   predicted    -0.3022245E-05 ( -56.84%)
   displ. norm   :     0.0654559 α      lambda       -0.3757618E-05
   maximum displ.:     0.0611699 α      in ANC's #1, #2, #24, ...

........................................................................
.............................. CYCLE   33 ..............................
........................................................................

 iter      E             dE          RMSdq      gap      omega  full diag
   1    -13.8748974 -0.138749E+02  0.177E-02   14.26       0.0  T
   2    -13.8748974 -0.958478E-08  0.106E-02   14.26       2.5  T
   3    -13.8748974 -0.291132E-08  0.424E-04   14.26      63.0  T
   4    -13.8748974 -0.331969E-09  0.220E-04   14.26     121.2  T
     SCC iter.                  ...        0 min,  0.004 sec
     gradient                   ...        0 min,  0.002 sec
 * total energy  :   -13.6641756 Eh     change       -0.3923399E-05 Eh
   gradient norm :     0.0002893 Eh/α   predicted    -0.1880745E-05 ( -52.06%)
   displ. norm   :     0.0487126 α      lambda       -0.1807138E-05
   maximum displ.:     0.0458958 α      in ANC's #1, #2, #24, ...

........................................................................
.............................. CYCLE   34 ..............................
........................................................................

 iter      E             dE          RMSdq      gap      omega  full diag
   1    -13.8750032 -0.138750E+02  0.126E-02   14.25       0.0  T
   2    -13.8750032 -0.749322E-08  0.757E-03   14.25       3.5  T
   3    -13.8750032 -0.171980E-08  0.347E-04   14.25      77.0  T
   4    -13.8750032 -0.188352E-09  0.173E-04   14.25     154.4  T
     SCC iter.                  ...        0 min,  0.005 sec
     gradient                   ...        0 min,  0.002 sec
 * total energy  :   -13.6641772 Eh     change       -0.1534177E-05 Eh
   gradient norm :     0.0002184 Eh/α   predicted    -0.9062959E-06 ( -40.93%)
   displ. norm   :     0.0155801 α      lambda       -0.3005578E-06
   maximum displ.:     0.0148115 α      in ANC's #1, #2, #24, ...

........................................................................
.............................. CYCLE   35 ..............................
........................................................................

 iter      E             dE          RMSdq      gap      omega  full diag
   1    -13.8750016 -0.138750E+02  0.483E-03   14.25       0.0  T
   2    -13.8750016 -0.178857E-08  0.288E-03   14.25       9.3  T
   3    -13.8750016 -0.301439E-09  0.145E-04   14.25     184.3  T
   4    -13.8750016 -0.214886E-10  0.726E-05   14.25     368.4  T
     SCC iter.                  ...        0 min,  0.002 sec
     gradient                   ...        0 min,  0.002 sec
 * total energy  :   -13.6641774 Eh     change       -0.2203733E-06 Eh
   gradient norm :     0.0001109 Eh/α   predicted    -0.1498682E-06 ( -31.99%)
   displ. norm   :     0.0030445 α      lambda       -0.5296455E-07
   maximum displ.:     0.0026430 α      in ANC's #1, #4, #3, ...

   *** GEOMETRY OPTIMIZATION CONVERGED AFTER 35 ITERATIONS ***

------------------------------------------------------------------------
 total energy gain   :        -0.0066565 Eh       -4.1770 kcal/mol
 total RMSD          :         0.6213533 a0        0.3288 Å
 total power (kW/mol):        -0.4993314 (step)  -58.2662 (real)
------------------------------------------------------------------------

 ANCopt (total)                0 d,  0 h,  0 min,  0.300 sec
 optimizer setup                ...        0 min,  0.000 sec (  0.037%)
 model hessian                  ...        0 min,  0.018 sec (  5.911%)
 ANC generation                 ...        0 min,  0.001 sec (  0.344%)
 coordinate transformation      ...        0 min,  0.000 sec (  0.106%)
 single point calculation       ...        0 min,  0.262 sec ( 87.431%)
 optimization log               ...        0 min,  0.007 sec (  2.207%)
 hessian update                 ...        0 min,  0.003 sec (  0.878%)
 rational function              ...        0 min,  0.007 sec (  2.229%)

================
 final structure:
================
14
 xtb: 6.7.1 (edcfbbe)
C           -0.53101690515669        0.81590284494124        1.46277430431601
H           -0.37141283029654       -0.25730254960337        1.38563932839872
H           -0.21810894714246        1.13301775395767        2.45398743411489
H            0.10041903916519        1.30976948624446        0.72709700500388
C           -1.99742066575663        1.15184839690449        1.21716838297608
H           -2.61204360345246        0.67553359229192        1.98470140694224
H           -2.29650696304824        0.73763006921950        0.25104743198867
C           -2.27720256528607        2.65514635194358        1.21066224094908
H           -1.62008218673793        3.13950556428723        0.48450866794229
H           -3.30711426858711        2.81645557274483        0.88253824505254
C           -2.08915139790298        3.30600860084607        2.57611875566433
H           -2.36873994562352        4.35644347467175        2.53536671716675
H           -2.71229869011769        2.81441038449363        3.32045308750046
H           -1.05323438005729        3.24488244705704        2.89901442198416

 Bond Distances (Angstroems)
 ---------------------------
C1-H2=1.0877         C1-H3=1.0867         C1-H4=1.0880         C1-C5=1.5243         H2-C1=1.0877         H3-C1=1.0867         
H4-C1=1.0880         C5-C1=1.5243         C5-H6=1.0926         C5-H7=1.0929         C5-C8=1.5291         H6-C5=1.0926         
H7-C5=1.0929         C8-C5=1.5291         C8-H9=1.0926         C8-H10=1.0929        C8-C11=1.5243        H9-C8=1.0926         
H10-C8=1.0929        C11-C8=1.5243        C11-H12=1.0878       C11-H13=1.0881       C11-H14=1.0868       H12-C11=1.0878       
H13-C11=1.0881       H14-C11=1.0868       
 C  H  Rav=1.0896 sigma=0.0026  Rmin=1.0867  Rmax=1.0929    10
 C  C  Rav=1.5259 sigma=0.0023  Rmin=1.5243  Rmax=1.5291     3

 selected bond angles (degree)
 --------------------
H3-C1-H2=108.08                H4-C1-H2=108.34                H4-C1-H3=108.49                C5-C1-H2=110.31                
C5-C1-H3=111.08                C5-C1-H4=110.45                H6-C5-C1=109.38                H7-C5-C1=108.79                
H7-C5-H6=107.57                C8-C5-C1=113.16                C8-C5-H6=109.19                C8-C5-H7=108.59                
H9-C8-C5=109.18                H10-C8-C5=108.59               H10-C8-H9=107.57               C11-C8-C5=113.17               
C11-C8-H9=109.38               C11-C8-H10=108.80              

 selected dihedral angles (degree)
 ---------------------------------
H6-C5-C1-H2= 62.17            H6-C5-C1-H3=302.35            H6-C5-C1-H4=181.92            H7-C5-C1-H2=304.93            
H7-C5-C1-H3=185.11            H7-C5-C1-H4= 64.68            C8-C5-C1-H2=184.14            C8-C5-C1-H3= 64.32            
C8-C5-C1-H4=303.89            H9-C8-C5-C1= 54.59            H9-C8-C5-H6=176.68            H9-C8-C5-H7=293.69            
H10-C8-C5-C1=171.61           H10-C8-C5-H6=293.69           H10-C8-C5-H7= 50.70           C11-C8-C5-C1=292.51           
C11-C8-C5-H6= 54.60           C11-C8-C5-H7=171.61           
           -------------------------------------------------
          |                Final Singlepoint                |
           -------------------------------------------------

          ...................................................
          :                      SETUP                      :
          :.................................................:
          :  # basis functions                  26          :
          :  # atomic orbitals                  26          :
          :  # shells                           18          :
          :  # electrons                        26          :
          :  max. iterations                   250          :
          :  Hamiltonian                  GFN2-xTB          :
          :  restarted?                      false          :
          :  GBSA solvation                  false          :
          :  PC potential                    false          :
          :  electronic temp.          300.0000000     K    :
          :  accuracy                    1.0000000          :
          :  -> integral cutoff          0.2500000E+02      :
          :  -> integral neglect         0.1000000E-07      :
          :  -> SCF convergence          0.1000000E-05 Eh   :
          :  -> wf. convergence          0.1000000E-03 e    :
          :  Broyden damping             0.4000000          :
          :  net charge                          0          :
          :  unpaired electrons                  0          :
          ...................................................

 iter      E             dE          RMSdq      gap      omega  full diag
   1    -13.8750016 -0.138750E+02  0.100E-05   14.25       0.0  T
   2    -13.8750016 -0.266454E-12  0.548E-06   14.25    4873.8  T
   3    -13.8750016 -0.106581E-13  0.271E-06   14.25    9861.2  T

   *** convergence criteria satisfied after 3 iterations ***

         #    Occupation            Energy/Eh            Energy/eV
      -------------------------------------------------------------
         1        2.0000           -0.6178032             -16.8113
       ...           ...                  ...                  ...
         7        2.0000           -0.4849826             -13.1970
         8        2.0000           -0.4663235             -12.6893
         9        2.0000           -0.4619224             -12.5695
        10        2.0000           -0.4481327             -12.1943
        11        2.0000           -0.4258324             -11.5875
        12        2.0000           -0.4235153             -11.5244
        13        2.0000           -0.4221391             -11.4870 (HOMO)
        14                          0.1015938               2.7645 (LUMO)
        15                          0.1113650               3.0304
        16                          0.1370813               3.7302
        17                          0.1488710               4.0510
        18                          0.1498624               4.0780
       ...                                ...                  ...
        26                          0.3001519               8.1675
      -------------------------------------------------------------
                  HL-Gap            0.5237329 Eh           14.2515 eV
             Fermi-level           -0.1602727 Eh           -4.3612 eV

 SCC (total)                   0 d,  0 h,  0 min,  0.008 sec
 SCC setup                      ...        0 min,  0.000 sec (  4.377%)
 Dispersion                     ...        0 min,  0.000 sec (  1.368%)
 classical contributions        ...        0 min,  0.000 sec (  0.569%)
 integral evaluation            ...        0 min,  0.001 sec (  9.028%)
 iterations                     ...        0 min,  0.005 sec ( 56.447%)
 molecular gradient             ...        0 min,  0.002 sec ( 24.260%)
 printout                       ...        0 min,  0.000 sec (  3.685%)

         :::::::::::::::::::::::::::::::::::::::::::::::::::::
         ::                     SUMMARY                     ::
         :::::::::::::::::::::::::::::::::::::::::::::::::::::
         :: total energy             -13.664177370794 Eh    ::
         :: gradient norm              0.000110865190 Eh/a0 ::
         :: HOMO-LUMO gap             14.251496401424 eV    ::
         ::.................................................::
         :: SCC energy               -13.874994476895 Eh    ::
         :: -> isotropic ES            0.002971923105 Eh    ::
         :: -> anisotropic ES          0.004969915393 Eh    ::
         :: -> anisotropic XC          0.008993034226 Eh    ::
         :: -> dispersion             -0.006302370215 Eh    ::
         :: repulsion energy           0.210817106101 Eh    ::
         :: add. restraining           0.000000000000 Eh    ::
         :: total charge               0.000000000000 e     ::
         :::::::::::::::::::::::::::::::::::::::::::::::::::::

           -------------------------------------------------
          |                Property Printout                |
           -------------------------------------------------

    * Orbital Energies and Occupations

         #    Occupation            Energy/Eh            Energy/eV
      -------------------------------------------------------------
         1        2.0000           -0.6178032             -16.8113
         2        2.0000           -0.5960611             -16.2196
         3        2.0000           -0.5731418             -15.5960
         4        2.0000           -0.5475098             -14.8985
         5        2.0000           -0.5064807             -13.7820
         6        2.0000           -0.5058994             -13.7662
         7        2.0000           -0.4849826             -13.1970
         8        2.0000           -0.4663235             -12.6893
         9        2.0000           -0.4619224             -12.5695
        10        2.0000           -0.4481327             -12.1943
        11        2.0000           -0.4258324             -11.5875
        12        2.0000           -0.4235153             -11.5244
        13        2.0000           -0.4221391             -11.4870 (HOMO)
        14                          0.1015938               2.7645 (LUMO)
        15                          0.1113650               3.0304
        16                          0.1370813               3.7302
        17                          0.1488710               4.0510
        18                          0.1498624               4.0780
        19                          0.1576575               4.2901
        20                          0.2027884               5.5182
        21                          0.2066096               5.6221
        22                          0.2347219               6.3871
        23                          0.2486751               6.7668
        24                          0.2785172               7.5788
       ...                                ...                  ...
        26                          0.3001519               8.1675
      -------------------------------------------------------------
                  HL-Gap            0.5237329 Eh           14.2515 eV
             Fermi-level           -0.1602727 Eh           -4.3612 eV

     #   Z          covCN         q      C6AA      α(0)
     1   6 C        3.751    -0.101    22.493     6.763
     2   1 H        0.925     0.030     2.585     2.514
     3   1 H        0.925     0.035     2.511     2.478
     4   1 H        0.925     0.033     2.551     2.497
     5   6 C        3.800    -0.053    21.518     6.605
     6   1 H        0.924     0.030     2.592     2.518
     7   1 H        0.924     0.026     2.643     2.543
     8   6 C        3.800    -0.053    21.518     6.605
     9   1 H        0.924     0.030     2.592     2.518
    10   1 H        0.924     0.026     2.643     2.543
    11   6 C        3.751    -0.101    22.493     6.763
    12   1 H        0.925     0.030     2.585     2.514
    13   1 H        0.925     0.033     2.551     2.498
    14   1 H        0.925     0.035     2.511     2.478

 Mol. C6AA /au·bohr⁶  :       1208.194127
 Mol. C8AA /au·bohr⁸  :      24487.183584
 Mol. α(0) /au        :         51.836772


Wiberg/Mayer (AO) data.
largest (>0.10) Wiberg bond orders for each atom

 ---------------------------------------------------------------------------
     #   Z sym  total        # sym  WBO       # sym  WBO       # sym  WBO
 ---------------------------------------------------------------------------
     1   6 C    3.997 --     5 C    1.020     4 H    0.988     2 H    0.988
                             3 H    0.986
     2   1 H    0.999 --     1 C    0.988
     3   1 H    0.999 --     1 C    0.986
     4   1 H    0.999 --     1 C    0.988
     5   6 C    3.998 --     1 C    1.020     8 C    1.008     7 H    0.979
                             6 H    0.978
     6   1 H    0.999 --     5 C    0.978
     7   1 H    0.999 --     5 C    0.979
     8   6 C    3.998 --    11 C    1.020     5 C    1.008    10 H    0.979
                             9 H    0.978
     9   1 H    0.999 --     8 C    0.978
    10   1 H    0.999 --     8 C    0.979
    11   6 C    3.997 --     8 C    1.020    13 H    0.988    12 H    0.988
                            14 H    0.986
    12   1 H    0.999 --    11 C    0.988
    13   1 H    0.999 --    11 C    0.988
    14   1 H    0.999 --    11 C    0.986
 ---------------------------------------------------------------------------

Topologies differ in total number of bonds
Writing topology from bond orders to xtbtopo.mol

molecular dipole:
                 x           y           z       tot (Debye)
 q only:        0.011       0.002       0.011
   full:        0.009       0.002       0.009       0.031
molecular quadrupole (traceless):
                xx          xy          yy          xz          yz          zz
 q only:       -0.092       0.053      -0.015       0.074       0.095       0.107
  q+dip:       -0.054       0.386      -0.201      -0.247      -0.284       0.254
   full:       -0.070       0.202      -0.089      -0.101      -0.099       0.159

           -------------------------------------------------
          |                Geometry Summary                 |
           -------------------------------------------------

      molecular mass/u    :       58.1223511
   center of mass at/Å    :       -1.7102087       1.9847947       1.6298182
Note: The following floating-point exceptions are signalling: IEEE_UNDERFLOW_FLAG IEEE_DENORMAL
normal termination of xtb
  moments of inertia/u·Å² :        0.3762988E+02   0.1055070E+03   0.1228578E+03
rotational constants/cm⁻¹ :        0.4479852E+00   0.1597774E+00   0.1372125E+00

 * 13 selected distances

     #   Z          #   Z                                           value/Å
     1   6 C        2   1 H                                       1.0877469
     1   6 C        3   1 H                                       1.0867276 (min)
     1   6 C        4   1 H                                       1.0880427
     1   6 C        5   6 C                                       1.5243104
     5   6 C        6   1 H                                       1.0925861
     5   6 C        7   1 H                                       1.0928949
     5   6 C        8   6 C                                       1.5291257 (max)
     8   6 C        9   1 H                                       1.0925705
     8   6 C       10   1 H                                       1.0928881
     8   6 C       11   6 C                                       1.5242890
    11   6 C       12   1 H                                       1.0877703
    11   6 C       13   1 H                                       1.0881246
    11   6 C       14   1 H                                       1.0867945

 * 2 distinct bonds (by element types)

   Z      Z             #   av. dist./Å        max./Å        min./Å
   1 H    6 C          10     1.0896146     1.0928949     1.0867276
   6 C    6 C           3     1.5259083     1.5291257     1.5242890


optimized geometry written to: xtbopt.xyz


           -------------------------------------------------
          | TOTAL ENERGY              -13.664177370794 Eh   |
          | GRADIENT NORM               0.000110865190 Eh/α |
          | HOMO-LUMO GAP              14.251496401424 eV   |
           -------------------------------------------------

------------------------------------------------------------------------
 * finished run on 2026/08/17 at 12:14:22.606     
------------------------------------------------------------------------
 total:
 * wall-time:     0 d,  0 h,  0 min,  0.424 sec
 *  cpu-time:     0 d,  0 h,  0 min,  1.537 sec
 * ratio c/w:     3.622 speedup
 SCF:
 * wall-time:     0 d,  0 h,  0 min,  0.091 sec
 *  cpu-time:     0 d,  0 h,  0 min,  0.331 sec
 * ratio c/w:     3.640 speedup
 ANC optimizer:
 * wall-time:     0 d,  0 h,  0 min,  0.310 sec
 *  cpu-time:     0 d,  0 h,  0 min,  1.115 sec
 * ratio c/w:     3.603 speedup

