14
 energy: -13.664177370794 gnorm: 0.000110865190 xtb: 6.7.1 (edcfbbe)
C           -0.53101690515669        0.81590284494124        1.46277430431601
H           -0.37141283029654       -0.25730254960337        1.38563932839872
H           -0.21810894714246        1.13301775395767        2.45398743411489
H            0.10041903916519        1.30976948624446        0.72709700500388
C           -1.99742066575663        1.15184839690449        1.21716838297608
H           -2.61204360345246        0.67553359229192        1.98470140694224
H           -2.29650696304824        0.73763006921950        0.25104743198867
C           -2.27720256528607        2.65514635194358        1.21066224094908
H           -1.62008218673793        3.13950556428723        0.48450866794229
H           -3.30711426858711        2.81645557274483        0.88253824505254
C           -2.08915139790298        3.30600860084607        2.57611875566433
H           -2.36873994562352        4.35644347467175        2.53536671716675
H           -2.71229869011769        2.81441038449363        3.32045308750046
H           -1.05323438005729        3.24488244705704        2.89901442198416
