%nprocs=4
%chk=wat_opt.chk
# opt freq b3lyp/6-31g geom=connectivity

Title Card Required

0 1
 O                  0.00000000    0.00000000    0.11432200
 H                  0.00000000    0.79091700   -0.45729000
 H                  0.00000000   -0.79091700   -0.45729000

 1 2 1.0 3 1.0
 2
 3

