      -----------------------------------------------------------      
     |                   =====================                   |     
     |                           x T B                           |     
     |                   =====================                   |     
     |                         S. Grimme                         |     
     |          Mulliken Center for Theoretical Chemistry        |     
     |                    University of Bonn                     |     
      -----------------------------------------------------------      

   * xtb version 6.7.1 (edcfbbe) compiled by 'conda@5dfe00f5fb80' on 2026-06-10

   xtb is free software: you can redistribute it and/or modify it under
   the terms of the GNU Lesser General Public License as published by
   the Free Software Foundation, either version 3 of the License, or
   (at your option) any later version.
   
   xtb is distributed in the hope that it will be useful,
   but WITHOUT ANY WARRANTY; without even the implied warranty of
   MERCHANTABILITY or FITNESS FOR A PARTICULAR PURPOSE.  See the
   GNU Lesser General Public License for more details.
   
   Cite this work as:
   * C. Bannwarth, E. Caldeweyher, S. Ehlert, A. Hansen, P. Pracht,
     J. Seibert, S. Spicher, S. Grimme, WIREs Comput. Mol. Sci., 2020, 11,
     e01493. DOI: 10.1002/wcms.1493
   
   for GFN2-xTB:
   * C. Bannwarth, S. Ehlert and S. Grimme., J. Chem. Theory Comput., 2019,
     15, 1652-1671. DOI: 10.1021/acs.jctc.8b01176
   for GFN1-xTB:
   * S. Grimme, C. Bannwarth, P. Shushkov, J. Chem. Theory Comput., 2017,
     13, 1989-2009. DOI: 10.1021/acs.jctc.7b00118
   for GFN0-xTB:
   * P. Pracht, E. Caldeweyher, S. Ehlert, S. Grimme, ChemRxiv, 2019, preprint.
     DOI: 10.26434/chemrxiv.8326202.v1
   for GFN-FF:
   * S. Spicher and S. Grimme, Angew. Chem. Int. Ed., 2020, 59, 15665-15673.
     DOI: 10.1002/anie.202004239
   
   for ALPB and GBSA implicit solvation:
   * S. Ehlert, M. Stahn, S. Spicher, S. Grimme, J. Chem. Theory Comput.,
     2021, 17, 4250-4261. DOI: 10.1021/acs.jctc.1c00471
   
   for ddCOSMO and CPCM-X implicit solvation:
   * M. Stahn, S. Ehlert, S. Grimme, J. Phys. Chem. A,
     2023, XX, XXXX-XXXX. DOI: 10.1021/acs.jpca.3c04382
   
   for DFT-D4:
   * E. Caldeweyher, C. Bannwarth and S. Grimme, J. Chem. Phys., 2017,
     147, 034112. DOI: 10.1063/1.4993215
   * E. Caldeweyher, S. Ehlert, A. Hansen, H. Neugebauer, S. Spicher,
     C. Bannwarth and S. Grimme, J. Chem. Phys., 2019, 150, 154122.
     DOI: 10.1063/1.5090222
   * E. Caldeweyher, J.-M. Mewes, S. Ehlert and S. Grimme, Phys. Chem. Chem. Phys.
     2020, 22, 8499-8512. DOI: 10.1039/D0CP00502A
   
   for sTDA-xTB:
   * S. Grimme and C. Bannwarth, J. Chem. Phys., 2016, 145, 054103.
     DOI: 10.1063/1.4959605
   
   in the mass-spec context:
   * V. Asgeirsson, C. Bauer and S. Grimme, Chem. Sci., 2017, 8, 4879.
     DOI: 10.1039/c7sc00601b
   * J. Koopman and S. Grimme, ACS Omega 2019, 4, 12, 15120-15133.
     DOI: 10.1021/acsomega.9b02011
   
   for metadynamics refer to:
   * S. Grimme, J. Chem. Theory Comput., 2019, 155, 2847-2862
     DOI: 10.1021/acs.jctc.9b00143
   
   for SPH calculations refer to:
   * S. Spicher and S. Grimme, J. Chem. Theory Comput., 2021, 17, 1701-1714
     DOI: 10.1021/acs.jctc.0c01306
   
   for ONIOM refer to:
   * C. Plett, A. Katbashev, S. Ehlert, S. Grimme, M. Bursch,
     Phys. Chem. Chem. Phys., 2023, 25, 17860-17868. DOI: 10.1039/D3CP02178E
   
   for DIPRO refer to:
   * J. Kohn, N. Gildemeister, S. Grimme, D. Fazzi, A. Hansen,
     J. Chem. Phys., 2023, just accepted.
   
   for PTB refer to:
   * S. Grimme, M. Mueller, A. Hansen, J. Chem. Phys., 2023, 158, 124111.
     DOI: 10.1063/5.0137838
   
   with help from (in alphabetical order)
   P. Atkinson, C. Bannwarth, F. Bohle, G. Brandenburg, E. Caldeweyher
   M. Checinski, S. Dohm, S. Ehlert, S. Ehrlich, I. Gerasimov, C. Hölzer
   A. Katbashev, J. Kohn, J. Koopman, C. Lavigne, S. Lehtola, F. März, M. Müller,
   F. Musil, H. Neugebauer, J. Pisarek, C. Plett, P. Pracht, F. Pultar,
   J. Seibert, P. Shushkov, S. Spicher, M. Stahn, M. Steiner, T. Strunk,
   J. Stückrath, T. Rose, and J. Unsleber
   
 * started run on 2026/08/17 at 12:14:20.733     
   ID    Z sym.   atoms
    1    6 C      1, 5, 8, 11
    2    1 H      2-4, 6, 7, 9, 10, 12-14

           -------------------------------------------------
          |                Calculation Setup                |
           -------------------------------------------------

          program call               : xtb input.xyz --gfn2 --opt tight --chrg 0 --uhf 0 --iterations 250
          coordinate file            : input.xyz
          omp threads                :                     4


           -------------------------------------------------
          |                 G F N 2 - x T B                 |
           -------------------------------------------------

        Reference                      10.1021/acs.jctc.8b01176
      * Hamiltonian:
        H0-scaling (s, p, d)           1.850000    2.230000    2.230000
        zeta-weighting                 0.500000
      * Dispersion:
        s8                             2.700000
        a1                             0.520000
        a2                             5.000000
        s9                             5.000000
      * Repulsion:
        kExp                           1.500000    1.000000
        rExp                           1.000000
      * Coulomb:
        alpha                          2.000000
        third order                    shell-resolved
        anisotropic                    true
        a3                             3.000000
        a5                             4.000000
        cn-shift                       1.200000
        cn-exp                         4.000000
        max-rad                        5.000000

q/qsh data taken from xtbrestart
CAMM data taken from xtbrestart

          ...................................................
          :                      SETUP                      :
          :.................................................:
          :  # basis functions                  26          :
          :  # atomic orbitals                  26          :
          :  # shells                           18          :
          :  # electrons                        26          :
          :  max. iterations                   250          :
          :  Hamiltonian                  GFN2-xTB          :
          :  restarted?                       true          :
          :  GBSA solvation                  false          :
          :  PC potential                    false          :
          :  electronic temp.          300.0000000     K    :
          :  accuracy                    1.0000000          :
          :  -> integral cutoff          0.2500000E+02      :
          :  -> integral neglect         0.1000000E-07      :
          :  -> SCF convergence          0.1000000E-05 Eh   :
          :  -> wf. convergence          0.1000000E-03 e    :
          :  Broyden damping             0.4000000          :
          :  net charge                          0          :
          :  unpaired electrons                  0          :
          ...................................................

 iter      E             dE          RMSdq      gap      omega  full diag
   1    -13.8665200 -0.138665E+02  0.123E+00   13.47       0.0  T
   2    -13.8665585 -0.384988E-04  0.729E-01   13.47       1.0  T
   3    -13.8665735 -0.149168E-04  0.267E-02   13.48       1.0  T
   4    -13.8665740 -0.518282E-06  0.137E-02   13.48       1.9  T
   5    -13.8665741 -0.730478E-07  0.212E-03   13.47      12.6  T
   6    -13.8665741 -0.485549E-08  0.824E-04   13.47      32.5  T
   7    -13.8665741 -0.370648E-09  0.572E-05   13.47     467.2  T

   *** convergence criteria satisfied after 7 iterations ***

         #    Occupation            Energy/Eh            Energy/eV
      -------------------------------------------------------------
         1        2.0000           -0.6167895             -16.7837
       ...           ...                  ...                  ...
         7        2.0000           -0.4885804             -13.2949
         8        2.0000           -0.4723720             -12.8539
         9        2.0000           -0.4533709             -12.3368
        10        2.0000           -0.4529683             -12.3259
        11        2.0000           -0.4278089             -11.6413
        12        2.0000           -0.4265613             -11.6073
        13        2.0000           -0.4156432             -11.3102 (HOMO)
        14                          0.0795369               2.1643 (LUMO)
        15                          0.1136009               3.0912
        16                          0.1274104               3.4670
        17                          0.1472912               4.0080
        18                          0.1532394               4.1699
       ...                                ...                  ...
        26                          0.3207693               8.7286
      -------------------------------------------------------------
                  HL-Gap            0.4951801 Eh           13.4745 eV
             Fermi-level           -0.1680531 Eh           -4.5730 eV

 SCC (total)                   0 d,  0 h,  0 min,  0.085 sec
 SCC setup                      ...        0 min,  0.004 sec (  4.118%)
 Dispersion                     ...        0 min,  0.004 sec (  4.560%)
 classical contributions        ...        0 min,  0.007 sec (  8.197%)
 integral evaluation            ...        0 min,  0.005 sec (  6.204%)
 iterations                     ...        0 min,  0.063 sec ( 73.360%)
 molecular gradient             ...        0 min,  0.002 sec (  2.282%)
 printout                       ...        0 min,  0.000 sec (  0.323%)

         :::::::::::::::::::::::::::::::::::::::::::::::::::::
         ::                     SUMMARY                     ::
         :::::::::::::::::::::::::::::::::::::::::::::::::::::
         :: total energy             -13.660533267238 Eh    ::
         :: gradient norm              0.014376004320 Eh/a0 ::
         :: HOMO-LUMO gap             13.474536888058 eV    ::
         ::.................................................::
         :: SCC energy               -13.866568178512 Eh    ::
         :: -> isotropic ES            0.002919445120 Eh    ::
         :: -> anisotropic ES          0.005014002471 Eh    ::
         :: -> anisotropic XC          0.009067716420 Eh    ::
         :: -> dispersion             -0.006087202959 Eh    ::
         :: repulsion energy           0.206034911274 Eh    ::
         :: add. restraining           0.000000000000 Eh    ::
         :: total charge               0.000000000000 e     ::
         :::::::::::::::::::::::::::::::::::::::::::::::::::::

      ----------------------------------------------------------- 
     |                   =====================                   |
     |                        A N C O P T                        |
     |                   =====================                   |
     |               Approximate Normal Coordinate               |
     |                Rational Function Optimizer                |
      ----------------------------------------------------------- 
      ----------------------------------------------------------- 
     |                   =====================                   |
     |                        A N C O P T                        |
     |                   =====================                   |
     |               Approximate Normal Coordinate               |
     |                Rational Function Optimizer                |
      ----------------------------------------------------------- 

          ...................................................
          :                      SETUP                      :
          :.................................................:
          :   optimization level             tight          :
          :   max. optcycles                   200          :
          :   ANC micro-cycles                  20          :
          :   degrees of freedom                36          :
          :.................................................:
          :   RF solver                   davidson          :
          :   write xtbopt.log                true          :
          :   linear?                        false          :
          :   energy convergence         0.1000000E-05 Eh   :
          :   grad. convergence          0.8000000E-03 Eh/α :
          :   maxmium RF displ.          1.0000000          :
          :   Hlow (freq-cutoff)         0.1000000E-01      :
          :   Hmax (freq-cutoff)         5.0000000          :
          :   S6 in model hess.         20.0000000          :
          ...................................................

generating ANC from exact Hessian ...
Using Lindh-Hessian (1995)
 Shifting diagonal of input Hessian by    6.1745387200866989E-003
 Lowest  eigenvalues of input Hessian
    0.000000    0.000000    0.000000    0.000000    0.000000    0.000000
    0.010000    0.013458    0.013565    0.020124    0.021554    0.046599
    0.047636    0.057757    0.058702    0.060042    0.062602    0.067058
 Highest eigenvalues
    1.110596    1.130596    1.149954    1.209632    1.219298    1.284699


........................................................................
.............................. CYCLE    1 ..............................
........................................................................

 iter      E             dE          RMSdq      gap      omega  full diag
   1    -13.8665741 -0.138666E+02  0.182E-05   13.47       0.0  T
   2    -13.8665741 -0.994760E-13  0.103E-05   13.47    2595.3  T
   3    -13.8665741 -0.195399E-13  0.113E-06   13.47   23733.7  T
     SCC iter.                  ...        0 min,  0.006 sec
     gradient                   ...        0 min,  0.002 sec
 * total energy  :   -13.6605333 Eh     change       -0.2476241E-11 Eh
   gradient norm :     0.0143760 Eh/α   predicted     0.0000000E+00 (-100.00%)
   displ. norm   :     0.1252144 α      lambda       -0.9289387E-03
   maximum displ.:     0.0985544 α      in ANC's #8, #5, #2, ...

........................................................................
.............................. CYCLE    2 ..............................
........................................................................

 iter      E             dE          RMSdq      gap      omega  full diag
   1    -13.8697282 -0.138697E+02  0.141E-01   13.66       0.0  T
   2    -13.8697294 -0.115820E-05  0.823E-02   13.66       1.0  T
   3    -13.8697296 -0.251979E-06  0.247E-03   13.66      10.8  T
   4    -13.8697296 -0.874975E-08  0.116E-03   13.66      23.0  T
   5    -13.8697296 -0.629356E-09  0.448E-04   13.66      59.6  T
   6    -13.8697296 -0.128642E-09  0.102E-04   13.66     262.2  T
     SCC iter.                  ...        0 min,  0.003 sec
     gradient                   ...        0 min,  0.002 sec
 * total energy  :   -13.6610186 Eh     change       -0.4853493E-03 Eh
   gradient norm :     0.0052502 Eh/α   predicted    -0.4717500E-03 (  -2.80%)
   displ. norm   :     0.0262082 α      lambda       -0.4819347E-04
   maximum displ.:     0.0154021 α      in ANC's #2, #5, #14, ...

........................................................................
.............................. CYCLE    3 ..............................
........................................................................

 iter      E             dE          RMSdq      gap      omega  full diag
   1    -13.8708908 -0.138709E+02  0.223E-02   13.65       0.0  T
   2    -13.8708912 -0.398937E-06  0.126E-02   13.66       2.1  T
   3    -13.8708912 -0.860199E-08  0.266E-03   13.65      10.0  T
   4    -13.8708912 -0.425516E-08  0.386E-04   13.65      69.2  T
   5    -13.8708912 -0.309711E-09  0.181E-04   13.65     147.9  T
     SCC iter.                  ...        0 min,  0.003 sec
     gradient                   ...        0 min,  0.004 sec
 * total energy  :   -13.6610491 Eh     change       -0.3052123E-04 Eh
   gradient norm :     0.0016780 Eh/α   predicted    -0.2411431E-04 ( -20.99%)
   displ. norm   :     0.0364584 α      lambda       -0.9997408E-05
   maximum displ.:     0.0310926 α      in ANC's #1, #2, #5, ...

........................................................................
.............................. CYCLE    4 ..............................
........................................................................

 iter      E             dE          RMSdq      gap      omega  full diag
   1    -13.8714510 -0.138715E+02  0.141E-02   13.63       0.0  T
   2    -13.8714512 -0.188041E-06  0.834E-03   13.63       3.2  T
   3    -13.8714512 -0.195081E-08  0.187E-03   13.63      14.3  T
   4    -13.8714512 -0.227079E-08  0.238E-04   13.63     112.3  T
   5    -13.8714512 -0.162967E-09  0.105E-04   13.63     255.2  T
     SCC iter.                  ...        0 min,  0.002 sec
     gradient                   ...        0 min,  0.002 sec
 * total energy  :   -13.6610573 Eh     change       -0.8206021E-05 Eh
   gradient norm :     0.0012039 Eh/α   predicted    -0.5001251E-05 ( -39.05%)
   displ. norm   :     0.0383381 α      lambda       -0.5247573E-05
   maximum displ.:     0.0368979 α      in ANC's #1, #2, #5, ...

........................................................................
.............................. CYCLE    5 ..............................
........................................................................

 iter      E             dE          RMSdq      gap      omega  full diag
   1    -13.8713793 -0.138714E+02  0.117E-02   13.63       0.0  T
   2    -13.8713793 -0.264868E-08  0.695E-03   13.63       3.8  T
   3    -13.8713793 -0.110892E-08  0.232E-04   13.63     115.3  T
   4    -13.8713793 -0.327169E-10  0.109E-04   13.63     245.6  T
     SCC iter.                  ...        0 min,  0.002 sec
     gradient                   ...        0 min,  0.002 sec
 * total energy  :   -13.6610657 Eh     change       -0.8321113E-05 Eh
   gradient norm :     0.0014339 Eh/α   predicted    -0.2624336E-05 ( -68.46%)
   displ. norm   :     0.0441611 α      lambda       -0.6870818E-05
   maximum displ.:     0.0430061 α      in ANC's #1, #5, #2, ...

........................................................................
.............................. CYCLE    6 ..............................
........................................................................

 iter      E             dE          RMSdq      gap      omega  full diag
   1    -13.8714337 -0.138714E+02  0.123E-02   13.62       0.0  T
   2    -13.8714337 -0.338631E-08  0.734E-03   13.62       3.6  T
   3    -13.8714337 -0.113448E-08  0.237E-04   13.62     112.9  T
   4    -13.8714337 -0.191775E-10  0.106E-04   13.62     252.3  T
     SCC iter.                  ...        0 min,  0.002 sec
     gradient                   ...        0 min,  0.002 sec
 * total energy  :   -13.6610768 Eh     change       -0.1114804E-04 Eh
   gradient norm :     0.0016134 Eh/α   predicted    -0.3437508E-05 ( -69.16%)
   displ. norm   :     0.0515300 α      lambda       -0.9359896E-05
   maximum displ.:     0.0501579 α      in ANC's #1, #5, #7, ...

........................................................................
.............................. CYCLE    7 ..............................
........................................................................

 iter      E             dE          RMSdq      gap      omega  full diag
   1    -13.8714541 -0.138715E+02  0.152E-02   13.62       0.0  T
   2    -13.8714541 -0.450004E-08  0.906E-03   13.62       3.0  T
   3    -13.8714541 -0.172728E-08  0.284E-04   13.62      94.1  T
   4    -13.8714541 -0.252669E-10  0.115E-04   13.62     233.1  T
     SCC iter.                  ...        0 min,  0.002 sec
     gradient                   ...        0 min,  0.002 sec
 * total energy  :   -13.6610920 Eh     change       -0.1521552E-04 Eh
   gradient norm :     0.0018800 Eh/α   predicted    -0.4684383E-05 ( -69.21%)
   displ. norm   :     0.0600457 α      lambda       -0.1279420E-04
   maximum displ.:     0.0585412 α      in ANC's #1, #5, #7, ...

........................................................................
.............................. CYCLE    8 ..............................
........................................................................

 iter      E             dE          RMSdq      gap      omega  full diag
   1    -13.8714816 -0.138715E+02  0.172E-02   13.62       0.0  T
   2    -13.8714817 -0.561448E-08  0.102E-02   13.62       2.6  T
   3    -13.8714817 -0.217899E-08  0.322E-04   13.62      82.9  T
   4    -13.8714817 -0.334985E-10  0.125E-04   13.62     213.9  T
     SCC iter.                  ...        0 min,  0.002 sec
     gradient                   ...        0 min,  0.004 sec
 * total energy  :   -13.6611128 Eh     change       -0.2080925E-04 Eh
   gradient norm :     0.0021480 Eh/α   predicted    -0.6407785E-05 ( -69.21%)
   displ. norm   :     0.0466951 α      lambda       -0.1747141E-04
   maximum displ.:     0.0454651 α      in ANC's #1, #5, #7, ...

........................................................................
.............................. CYCLE    9 ..............................
........................................................................

 iter      E             dE          RMSdq      gap      omega  full diag
   1    -13.8714992 -0.138715E+02  0.137E-02   13.61       0.0  T
   2    -13.8714992 -0.346719E-08  0.815E-03   13.61       3.3  T
   3    -13.8714992 -0.138970E-08  0.254E-04   13.61     105.0  T
   4    -13.8714992 -0.205151E-10  0.952E-05   13.61     280.8  T
     SCC iter.                  ...        0 min,  0.002 sec
     gradient                   ...        0 min,  0.002 sec
 * total energy  :   -13.6611313 Eh     change       -0.1844040E-04 Eh
   gradient norm :     0.0023758 Eh/α   predicted    -0.8754805E-05 ( -52.52%)
   displ. norm   :     0.0517206 α      lambda       -0.2155149E-04
   maximum displ.:     0.0503775 α      in ANC's #1, #5, #7, ...

........................................................................
.............................. CYCLE   10 ..............................
........................................................................

 iter      E             dE          RMSdq      gap      omega  full diag
   1    -13.8715092 -0.138715E+02  0.151E-02   13.61       0.0  T
   2    -13.8715092 -0.401657E-08  0.895E-03   13.61       3.0  T
   3    -13.8715092 -0.166515E-08  0.279E-04   13.61      95.7  T
   4    -13.8715092 -0.255476E-10  0.984E-05   13.61     271.5  T
     SCC iter.                  ...        0 min,  0.002 sec
     gradient                   ...        0 min,  0.002 sec
 * total energy  :   -13.6611540 Eh     change       -0.2272827E-04 Eh
   gradient norm :     0.0026097 Eh/α   predicted    -0.1080535E-04 ( -52.46%)
   displ. norm   :     0.0571577 α      lambda       -0.2648142E-04
   maximum displ.:     0.0556524 α      in ANC's #1, #5, #7, ...

........................................................................
.............................. CYCLE   11 ..............................
........................................................................

 iter      E             dE          RMSdq      gap      omega  full diag
   1    -13.8715110 -0.138715E+02  0.167E-02   13.61       0.0  T
   2    -13.8715110 -0.481021E-08  0.992E-03   13.61       2.7  T
   3    -13.8715110 -0.204109E-08  0.309E-04   13.61      86.4  T
   4    -13.8715110 -0.330793E-10  0.110E-04   13.61     242.1  T
     SCC iter.                  ...        0 min,  0.005 sec
     gradient                   ...        0 min,  0.002 sec
 * total energy  :   -13.6611819 Eh     change       -0.2788970E-04 Eh
   gradient norm :     0.0028635 Eh/α   predicted    -0.1328530E-04 ( -52.36%)
   displ. norm   :     0.0628981 α      lambda       -0.3235937E-04
   maximum displ.:     0.0612269 α      in ANC's #1, #5, #7, ...

........................................................................
.............................. CYCLE   12 ..............................
........................................................................

 iter      E             dE          RMSdq      gap      omega  full diag
   1    -13.8715039 -0.138715E+02  0.184E-02   13.60       0.0  T
   2    -13.8715039 -0.574413E-08  0.109E-02   13.60       2.4  T
   3    -13.8715039 -0.246807E-08  0.341E-04   13.60      78.3  T
   4    -13.8715039 -0.451372E-10  0.129E-04   13.60     206.5  T
     SCC iter.                  ...        0 min,  0.002 sec
     gradient                   ...        0 min,  0.002 sec
 * total energy  :   -13.6612159 Eh     change       -0.3401750E-04 Eh
   gradient norm :     0.0031322 Eh/α   predicted    -0.1624508E-04 ( -52.24%)
   displ. norm   :     0.0688671 α      lambda       -0.3925417E-04
   maximum displ.:     0.0670151 α      in ANC's #1, #5, #7, ...

........................................................................
.............................. CYCLE   13 ..............................
........................................................................

 iter      E             dE          RMSdq      gap      omega  full diag
   1    -13.8714858 -0.138715E+02  0.202E-02   13.60       0.0  T
   2    -13.8714858 -0.688889E-08  0.120E-02   13.60       2.2  T
   3    -13.8714858 -0.295625E-08  0.375E-04   13.60      71.2  T
   4    -13.8714858 -0.679652E-10  0.157E-04   13.60     170.3  T
     SCC iter.                  ...        0 min,  0.002 sec
     gradient                   ...        0 min,  0.005 sec
 * total energy  :   -13.6612571 Eh     change       -0.4117056E-04 Eh
   gradient norm :     0.0034146 Eh/α   predicted    -0.1972202E-04 ( -52.10%)
   displ. norm   :     0.0749062 α      lambda       -0.4718717E-04
   maximum displ.:     0.0728640 α      in ANC's #1, #5, #7, ...

........................................................................
.............................. CYCLE   14 ..............................
........................................................................

 iter      E             dE          RMSdq      gap      omega  full diag
   1    -13.8714553 -0.138715E+02  0.220E-02   13.59       0.0  T
   2    -13.8714553 -0.829585E-08  0.131E-02   13.59       2.0  T
   3    -13.8714553 -0.349009E-08  0.411E-04   13.59      65.0  T
   4    -13.8714553 -0.109493E-09  0.190E-04   13.59     140.8  T
     SCC iter.                  ...        0 min,  0.002 sec
     gradient                   ...        0 min,  0.002 sec
 * total energy  :   -13.6613064 Eh     change       -0.4934367E-04 Eh
   gradient norm :     0.0037070 Eh/α   predicted    -0.2372546E-04 ( -51.92%)
   displ. norm   :     0.0808256 α      lambda       -0.5607534E-04
   maximum displ.:     0.0785847 α      in ANC's #1, #5, #7, ...

........................................................................
.............................. CYCLE   15 ..............................
........................................................................

 iter      E             dE          RMSdq      gap      omega  full diag
   1    -13.8714118 -0.138714E+02  0.238E-02   13.59       0.0  T
   2    -13.8714118 -0.100362E-07  0.141E-02   13.59       1.9  T
   3    -13.8714118 -0.404707E-08  0.448E-04   13.59      59.6  T
   4    -13.8714118 -0.177101E-09  0.223E-04   13.59     119.8  T
     SCC iter.                  ...        0 min,  0.002 sec
     gradient                   ...        0 min,  0.002 sec
 * total energy  :   -13.6613649 Eh     change       -0.5844443E-04 Eh
   gradient norm :     0.0040048 Eh/α   predicted    -0.2822280E-04 ( -51.71%)
   displ. norm   :     0.0863878 α      lambda       -0.6576173E-04
   maximum displ.:     0.0839424 α      in ANC's #1, #5, #7, ...

........................................................................
.............................. CYCLE   16 ..............................
........................................................................

 iter      E             dE          RMSdq      gap      omega  full diag
   1    -13.8713560 -0.138714E+02  0.255E-02   13.58       0.0  T
   2    -13.8713560 -0.121586E-07  0.151E-02   13.58       1.8  T
   3    -13.8713560 -0.459185E-08  0.485E-04   13.58      55.1  T
   4    -13.8713560 -0.276378E-09  0.253E-04   13.58     105.8  T
     SCC iter.                  ...        0 min,  0.005 sec
     gradient                   ...        0 min,  0.002 sec
 * total energy  :   -13.6614331 Eh     change       -0.6826800E-04 Eh
   gradient norm :     0.0043018 Eh/α   predicted    -0.3312652E-04 ( -51.48%)
   displ. norm   :     0.0913395 α      lambda       -0.7594521E-04
   maximum displ.:     0.0886856 α      in ANC's #1, #5, #7, ...

........................................................................
.............................. CYCLE   17 ..............................
........................................................................

 iter      E             dE          RMSdq      gap      omega  full diag
   1    -13.8712904 -0.138713E+02  0.270E-02   13.58       0.0  T
   2    -13.8712904 -0.146592E-07  0.160E-02   13.58       1.7  T
   3    -13.8712904 -0.508236E-08  0.521E-04   13.58      51.3  T
   4    -13.8712904 -0.410333E-09  0.277E-04   13.58      96.4  T
     SCC iter.                  ...        0 min,  0.002 sec
     gradient                   ...        0 min,  0.002 sec
 * total energy  :   -13.6615116 Eh     change       -0.7849300E-04 Eh
   gradient norm :     0.0045906 Eh/α   predicted    -0.3828801E-04 ( -51.22%)
   displ. norm   :     0.0954437 α      lambda       -0.8621706E-04
   maximum displ.:     0.0925784 α      in ANC's #1, #5, #7, ...

........................................................................
.............................. CYCLE   18 ..............................
........................................................................

 iter      E             dE          RMSdq      gap      omega  full diag
   1    -13.8712195 -0.138712E+02  0.282E-02   13.58       0.0  T
   2    -13.8712196 -0.174447E-07  0.167E-02   13.58       1.6  T
   3    -13.8712196 -0.547691E-08  0.555E-04   13.58      48.2  T
   4    -13.8712196 -0.576419E-09  0.296E-04   13.58      90.3  T
     SCC iter.                  ...        0 min,  0.002 sec
     gradient                   ...        0 min,  0.002 sec
 * total energy  :   -13.6616003 Eh     change       -0.8870231E-04 Eh
   gradient norm :     0.0048631 Eh/α   predicted    -0.4350316E-04 ( -50.96%)
   displ. norm   :     0.0985108 α      lambda       -0.9612973E-04
   maximum displ.:     0.0954321 α      in ANC's #1, #5, #7, ...

........................................................................
.............................. CYCLE   19 ..............................
........................................................................

 iter      E             dE          RMSdq      gap      omega  full diag
   1    -13.8711492 -0.138711E+02  0.291E-02   13.57       0.0  T
   2    -13.8711493 -0.203177E-07  0.173E-02   13.57       1.5  T
   3    -13.8711493 -0.574295E-08  0.584E-04   13.57      45.8  T
   4    -13.8711493 -0.764555E-09  0.310E-04   13.57      86.3  T
     SCC iter.                  ...        0 min,  0.002 sec
     gradient                   ...        0 min,  0.002 sec
 * total energy  :   -13.6616988 Eh     change       -0.9842415E-04 Eh
   gradient norm :     0.0051111 Eh/α   predicted    -0.4853225E-04 ( -50.69%)
   displ. norm   :     0.1004373 α      lambda       -0.1052013E-03
   maximum displ.:     0.0971439 α      in ANC's #1, #5, #7, ...

........................................................................
.............................. CYCLE   20 ..............................
........................................................................

 iter      E             dE          RMSdq      gap      omega  full diag
   1    -13.8710861 -0.138711E+02  0.297E-02   13.57       0.0  T
   2    -13.8710861 -0.230085E-07  0.176E-02   13.57       1.5  T
   3    -13.8710861 -0.586626E-08  0.607E-04   13.57      44.0  T
   4    -13.8710861 -0.957336E-09  0.318E-04   13.57      84.1  T
     SCC iter.                  ...        0 min,  0.002 sec
     gradient                   ...        0 min,  0.002 sec
 * total energy  :   -13.6618060 Eh     change       -0.1071963E-03 Eh
   gradient norm :     0.0053269 Eh/α   predicted    -0.5313131E-04 ( -50.44%)
   displ. norm   :     0.1012221 α      lambda       -0.1130186E-03
   maximum displ.:     0.0977144 α      in ANC's #1, #5, #7, ...
 * RMSD in coord.:     0.3394096 α      energy gain  -0.1272689E-02 Eh

generating ANC from exact Hessian ...
Using Lindh-Hessian (1995)
 Shifting diagonal of input Hessian by    6.1068971729102868E-003
 Lowest  eigenvalues of input Hessian
    0.000000    0.000000    0.000000    0.000000    0.000000    0.000000
    0.010000    0.013324    0.013695    0.019335    0.021502    0.046775
    0.047211    0.057128    0.058819    0.059326    0.061573    0.067739
 Highest eigenvalues
    1.131474    1.151354    1.169821    1.207926    1.208277    1.260291


........................................................................
.............................. CYCLE   21 ..............................
........................................................................

 iter      E             dE          RMSdq      gap      omega  full diag
   1    -13.8710361 -0.138710E+02  0.299E-02   13.57       0.0  T
   2    -13.8710361 -0.252406E-07  0.177E-02   13.57       1.5  T
   3    -13.8710362 -0.585316E-08  0.623E-04   13.57      42.9  T
   4    -13.8710362 -0.113438E-08  0.322E-04   13.57      83.1  T
     SCC iter.                  ...        0 min,  0.002 sec
     gradient                   ...        0 min,  0.002 sec
 * total energy  :   -13.6619206 Eh     change       -0.1146331E-03 Eh
   gradient norm :     0.0055053 Eh/α   predicted     0.0000000E+00 (-100.00%)
   displ. norm   :     0.1158140 α      lambda       -0.1920683E-03
   maximum displ.:     0.1123592 α      in ANC's #1, #3, #8, ...

........................................................................
.............................. CYCLE   22 ..............................
........................................................................

 iter      E             dE          RMSdq      gap      omega  full diag
   1    -13.8722185 -0.138722E+02  0.363E-02   13.63       0.0  T
   2    -13.8722186 -0.934430E-07  0.216E-02   13.63       1.2  T
   3    -13.8722186 -0.177440E-07  0.114E-03   13.63      23.4  T
   4    -13.8722186 -0.404962E-08  0.577E-04   13.63      46.3  T
   5    -13.8722186 -0.189708E-09  0.158E-04   13.63     168.9  T
     SCC iter.                  ...        0 min,  0.002 sec
     gradient                   ...        0 min,  0.002 sec
 * total energy  :   -13.6620914 Eh     change       -0.1708201E-03 Eh
   gradient norm :     0.0024702 Eh/α   predicted    -0.9732241E-04 ( -43.03%)
   displ. norm   :     0.1638850 α      lambda       -0.2245900E-03
   maximum displ.:     0.1557192 α      in ANC's #1, #5, #3, ...

........................................................................
.............................. CYCLE   23 ..............................
........................................................................

 iter      E             dE          RMSdq      gap      omega  full diag
   1    -13.8730106 -0.138730E+02  0.553E-02   13.70       0.0  T
   2    -13.8730109 -0.245781E-06  0.328E-02   13.70       1.0  T
   3    -13.8730109 -0.195668E-07  0.148E-03   13.70      18.0  T
   4    -13.8730109 -0.111058E-07  0.651E-04   13.70      41.1  T
   5    -13.8730109 -0.250466E-09  0.269E-04   13.70      99.5  T
     SCC iter.                  ...        0 min,  0.005 sec
     gradient                   ...        0 min,  0.002 sec
 * total energy  :   -13.6623037 Eh     change       -0.2122693E-03 Eh
   gradient norm :     0.0023452 Eh/α   predicted    -0.1153111E-03 ( -45.68%)
   displ. norm   :     0.2384257 α      lambda       -0.3064990E-03
   maximum displ.:     0.2240462 α      in ANC's #1, #5, #3, ...

........................................................................
.............................. CYCLE   24 ..............................
........................................................................

 iter      E             dE          RMSdq      gap      omega  full diag
   1    -13.8730921 -0.138731E+02  0.747E-02   13.76       0.0  T
   2    -13.8730926 -0.510915E-06  0.443E-02   13.76       1.0  T
   3    -13.8730927 -0.271455E-07  0.214E-03   13.76      12.5  T
   4    -13.8730927 -0.229517E-07  0.806E-04   13.76      33.2  T
   5    -13.8730927 -0.401840E-09  0.362E-04   13.76      73.9  T
     SCC iter.                  ...        0 min,  0.003 sec
     gradient                   ...        0 min,  0.002 sec
 * total energy  :   -13.6626077 Eh     change       -0.3040343E-03 Eh
   gradient norm :     0.0054965 Eh/α   predicted    -0.1619634E-03 ( -46.73%)
   displ. norm   :     0.5652297 α      lambda       -0.7321180E-03
   maximum displ.:     0.5310932 α      in ANC's #1, #5, #3, ...

........................................................................
.............................. CYCLE   25 ..............................
........................................................................

 iter      E             dE          RMSdq      gap      omega  full diag
   1    -13.8700380 -0.138700E+02  0.175E-01   13.79       0.0  T
   2    -13.8700429 -0.493438E-05  0.103E-01   13.79       1.0  T
   3    -13.8700431 -0.133479E-06  0.733E-03   13.78       3.6  T
   4    -13.8700433 -0.219855E-06  0.213E-03   13.79      12.5  T
   5    -13.8700433 -0.284441E-08  0.107E-03   13.79      25.0  T
   6    -13.8700433 -0.247217E-09  0.119E-04   13.79     225.1  T
   7    -13.8700433 -0.648726E-11  0.657E-06   13.79    4065.0  T
     SCC iter.                  ...        0 min,  0.007 sec
     gradient                   ...        0 min,  0.002 sec
 * total energy  :   -13.6632480 Eh     change       -0.6402452E-03 Eh
   gradient norm :     0.0134424 Eh/α   predicted    -0.4830307E-03 ( -24.56%)
   displ. norm   :     0.3376684 α      lambda       -0.3892449E-03
   maximum displ.:     0.3180115 α      in ANC's #1, #5, #3, ...

........................................................................
.............................. CYCLE   26 ..............................
........................................................................

 iter      E             dE          RMSdq      gap      omega  full diag
   1    -13.8685288 -0.138685E+02  0.971E-02   13.76       0.0  T
   2    -13.8685297 -0.907120E-06  0.574E-02   13.76       1.0  T
   3    -13.8685298 -0.562108E-07  0.327E-03   13.76       8.2  T
   4    -13.8685298 -0.470188E-07  0.121E-03   13.76      22.0  T
   5    -13.8685298 -0.644798E-09  0.522E-04   13.76      51.2  T
   6    -13.8685298 -0.724736E-10  0.724E-05   13.76     369.0  T
     SCC iter.                  ...        0 min,  0.003 sec
     gradient                   ...        0 min,  0.003 sec
 * total energy  :   -13.6635639 Eh     change       -0.3159136E-03 Eh
   gradient norm :     0.0164227 Eh/α   predicted    -0.2168143E-03 ( -31.37%)
   displ. norm   :     0.3049036 α      lambda       -0.4469215E-03
   maximum displ.:     0.2894576 α      in ANC's #1, #5, #3, ...

........................................................................
.............................. CYCLE   27 ..............................
........................................................................

 iter      E             dE          RMSdq      gap      omega  full diag
   1    -13.8692956 -0.138693E+02  0.839E-02   13.75       0.0  T
   2    -13.8692957 -0.161449E-06  0.498E-02   13.75       1.0  T
   3    -13.8692958 -0.550368E-07  0.156E-03   13.75      17.1  T
   4    -13.8692958 -0.884276E-09  0.704E-04   13.75      37.9  T
   5    -13.8692958 -0.141499E-09  0.102E-04   13.75     262.5  T
     SCC iter.                  ...        0 min,  0.010 sec
     gradient                   ...        0 min,  0.002 sec
 * total energy  :   -13.6639433 Eh     change       -0.3793916E-03 Eh
   gradient norm :     0.0144604 Eh/α   predicted    -0.2442373E-03 ( -35.62%)
   displ. norm   :     0.4494582 α      lambda       -0.7627300E-03
   maximum displ.:     0.4293897 α      in ANC's #1, #5, #24, ...

........................................................................
.............................. CYCLE   28 ..............................
........................................................................

 iter      E             dE          RMSdq      gap      omega  full diag
   1    -13.8720421 -0.138720E+02  0.132E-01   13.74       0.0  T
   2    -13.8720438 -0.160880E-05  0.782E-02   13.74       1.0  T
   3    -13.8720439 -0.110245E-06  0.380E-03   13.74       7.0  T
   4    -13.8720439 -0.480410E-07  0.144E-03   13.74      18.6  T
   5    -13.8720439 -0.174272E-08  0.641E-04   13.74      41.7  T
   6    -13.8720439 -0.162506E-09  0.107E-04   13.74     250.2  T
     SCC iter.                  ...        0 min,  0.005 sec
     gradient                   ...        0 min,  0.005 sec
 * total energy  :   -13.6644946 Eh     change       -0.5513048E-03 Eh
   gradient norm :     0.0071858 Eh/α   predicted    -0.4584011E-03 ( -16.85%)
   displ. norm   :     0.2922088 α      lambda       -0.3657266E-03
   maximum displ.:     0.2740462 α      in ANC's #1, #24, #8, ...

........................................................................
.............................. CYCLE   29 ..............................
........................................................................

 iter      E             dE          RMSdq      gap      omega  full diag
   1    -13.8748523 -0.138749E+02  0.947E-02   13.74       0.0  T
   2    -13.8748538 -0.142744E-05  0.560E-02   13.74       1.0  T
   3    -13.8748538 -0.491117E-07  0.347E-03   13.74       7.7  T
   4    -13.8748538 -0.366841E-07  0.104E-03   13.74      25.8  T
   5    -13.8748538 -0.107835E-08  0.539E-04   13.74      49.6  T
   6    -13.8748538 -0.735714E-10  0.676E-05   13.74     395.5  T
     SCC iter.                  ...        0 min,  0.003 sec
     gradient                   ...        0 min,  0.003 sec
 * total energy  :   -13.6647452 Eh     change       -0.2506121E-03 Eh
   gradient norm :     0.0054493 Eh/α   predicted    -0.1984732E-03 ( -20.80%)
   displ. norm   :     0.2804134 α      lambda       -0.1646539E-03
   maximum displ.:     0.2634052 α      in ANC's #1, #3, #24, ...

........................................................................
.............................. CYCLE   30 ..............................
........................................................................

 iter      E             dE          RMSdq      gap      omega  full diag
   1    -13.8739990 -0.138740E+02  0.901E-02   13.71       0.0  T
   2    -13.8739991 -0.154477E-06  0.535E-02   13.71       1.0  T
   3    -13.8739992 -0.711604E-07  0.173E-03   13.71      15.5  T
   4    -13.8739992 -0.926404E-09  0.289E-04   13.71      92.5  T
   5    -13.8739992 -0.483169E-11  0.101E-04   13.71     264.5  T
     SCC iter.                  ...        0 min,  0.012 sec
     gradient                   ...        0 min,  0.002 sec
 * total energy  :   -13.6648511 Eh     change       -0.1059618E-03 Eh
   gradient norm :     0.0077667 Eh/α   predicted    -0.8879922E-04 ( -16.20%)
   displ. norm   :     0.2124278 α      lambda       -0.2033309E-03
   maximum displ.:     0.1533158 α      in ANC's #1, #3, #24, ...

........................................................................
.............................. CYCLE   31 ..............................
........................................................................

 iter      E             dE          RMSdq      gap      omega  full diag
   1    -13.8773584 -0.138774E+02  0.711E-02   13.74       0.0  T
   2    -13.8773594 -0.973863E-06  0.421E-02   13.74       1.0  T
   3    -13.8773594 -0.474994E-07  0.317E-03   13.74       8.4  T
   4    -13.8773595 -0.253620E-07  0.105E-03   13.74      25.4  T
   5    -13.8773595 -0.532143E-09  0.561E-04   13.74      47.7  T
   6    -13.8773595 -0.544489E-10  0.422E-05   13.74     633.0  T
     SCC iter.                  ...        0 min,  0.007 sec
     gradient                   ...        0 min,  0.003 sec
 * total energy  :   -13.6649598 Eh     change       -0.1086988E-03 Eh
   gradient norm :     0.0089881 Eh/α   predicted    -0.1062525E-03 (  -2.25%)
   displ. norm   :     0.2229942 α      lambda       -0.1201882E-03
   maximum displ.:     0.1831345 α      in ANC's #1, #3, #24, ...

........................................................................
.............................. CYCLE   32 ..............................
........................................................................

 iter      E             dE          RMSdq      gap      omega  full diag
   1    -13.8754657 -0.138755E+02  0.656E-02   13.74       0.0  T
   2    -13.8754662 -0.540796E-06  0.390E-02   13.74       1.0  T
   3    -13.8754663 -0.396339E-07  0.212E-03   13.74      12.6  T
   4    -13.8754663 -0.911056E-08  0.869E-04   13.74      30.8  T
   5    -13.8754663 -0.332188E-09  0.415E-04   13.74      64.4  T
     SCC iter.                  ...        0 min,  0.003 sec
     gradient                   ...        0 min,  0.003 sec
 * total energy  :   -13.6650440 Eh     change       -0.8420875E-04 Eh
   gradient norm :     0.0067418 Eh/α   predicted    -0.6308120E-04 ( -25.09%)
   displ. norm   :     0.1551890 α      lambda       -0.1194226E-03
   maximum displ.:     0.1274346 α      in ANC's #3, #1, #11, ...

........................................................................
.............................. CYCLE   33 ..............................
........................................................................

 iter      E             dE          RMSdq      gap      omega  full diag
   1    -13.8751360 -0.138751E+02  0.456E-02   13.77       0.0  T
   2    -13.8751366 -0.597642E-06  0.274E-02   13.77       1.0  T
   3    -13.8751366  0.362277E-08  0.311E-03   13.77       8.6  T
   4    -13.8751366 -0.376220E-07  0.546E-04   13.77      48.9  T
   5    -13.8751366 -0.234692E-09  0.272E-04   13.77      98.2  T
     SCC iter.                  ...        0 min,  0.007 sec
     gradient                   ...        0 min,  0.002 sec
 * total energy  :   -13.6651147 Eh     change       -0.7063938E-04 Eh
   gradient norm :     0.0020065 Eh/α   predicted    -0.6115054E-04 ( -13.43%)
   displ. norm   :     0.0463525 α      lambda       -0.2003126E-04
   maximum displ.:     0.0399616 α      in ANC's #3, #6, #1, ...

........................................................................
.............................. CYCLE   34 ..............................
........................................................................

 iter      E             dE          RMSdq      gap      omega  full diag
   1    -13.8758421 -0.138758E+02  0.169E-02   13.80       0.0  T
   2    -13.8758421 -0.133649E-07  0.101E-02   13.80       2.7  T
   3    -13.8758421 -0.616989E-08  0.549E-04   13.80      48.7  T
   4    -13.8758421 -0.757794E-10  0.217E-04   13.80     123.4  T
     SCC iter.                  ...        0 min,  0.006 sec
     gradient                   ...        0 min,  0.002 sec
 * total energy  :   -13.6651251 Eh     change       -0.1045491E-04 Eh
   gradient norm :     0.0012814 Eh/α   predicted    -0.1003811E-04 (  -3.99%)
   displ. norm   :     0.0138140 α      lambda       -0.3286288E-05
   maximum displ.:     0.0095383 α      in ANC's #3, #10, #11, ...

........................................................................
.............................. CYCLE   35 ..............................
........................................................................

 iter      E             dE          RMSdq      gap      omega  full diag
   1    -13.8762133 -0.138762E+02  0.808E-03   13.81       0.0  T
   2    -13.8762133 -0.383216E-07  0.452E-03   13.81       5.9  T
   3    -13.8762133 -0.194504E-08  0.107E-03   13.81      25.0  T
   4    -13.8762133 -0.148490E-08  0.228E-04   13.81     117.3  T
   5    -13.8762133 -0.704858E-11  0.106E-04   13.81     251.7  T
     SCC iter.                  ...        0 min,  0.003 sec
     gradient                   ...        0 min,  0.003 sec
 * total energy  :   -13.6651264 Eh     change       -0.1240591E-05 Eh
   gradient norm :     0.0008625 Eh/α   predicted    -0.1642311E-05 (  32.38%)
   displ. norm   :     0.0376292 α      lambda       -0.1948139E-05
   maximum displ.:     0.0299849 α      in ANC's #1, #3, #24, ...

........................................................................
.............................. CYCLE   36 ..............................
........................................................................

 iter      E             dE          RMSdq      gap      omega  full diag
   1    -13.8758184 -0.138758E+02  0.131E-02   13.81       0.0  T
   2    -13.8758185 -0.344775E-07  0.772E-03   13.81       3.5  T
   3    -13.8758185 -0.173680E-08  0.795E-04   13.81      33.6  T
   4    -13.8758185 -0.173363E-08  0.234E-04   13.81     114.1  T
     SCC iter.                  ...        0 min,  0.011 sec
     gradient                   ...        0 min,  0.002 sec
 * total energy  :   -13.6651268 Eh     change       -0.3984023E-06 Eh
   gradient norm :     0.0007811 Eh/α   predicted    -0.9744322E-06 ( 144.58%)
   displ. norm   :     0.0233215 α      lambda       -0.1148471E-05
   maximum displ.:     0.0169355 α      in ANC's #1, #3, #24, ...

   *** GEOMETRY OPTIMIZATION CONVERGED AFTER 36 ITERATIONS ***

------------------------------------------------------------------------
 total energy gain   :        -0.0045935 Eh       -2.8825 kcal/mol
 total RMSD          :         1.1709033 a0        0.6196 Å
 total power (kW/mol):        -0.3350076 (step)  -37.9527 (real)
------------------------------------------------------------------------

 ANCopt (total)                0 d,  0 h,  0 min,  0.318 sec
 optimizer setup                ...        0 min,  0.000 sec (  0.037%)
 model hessian                  ...        0 min,  0.024 sec (  7.636%)
 ANC generation                 ...        0 min,  0.001 sec (  0.341%)
 coordinate transformation      ...        0 min,  0.000 sec (  0.106%)
 single point calculation       ...        0 min,  0.272 sec ( 85.631%)
 optimization log               ...        0 min,  0.009 sec (  2.779%)
 hessian update                 ...        0 min,  0.002 sec (  0.636%)
 rational function              ...        0 min,  0.006 sec (  1.909%)

================
 final structure:
================
14
 xtb: 6.7.1 (edcfbbe)
C           -3.06322662720751        0.07141838481570        0.84421401972174
H           -2.64733303817681       -0.93347469996632        0.85111763309705
H           -3.19146068966116        0.38298505938569       -0.19078310723274
H           -4.04416290909502        0.04059290696300        1.31493720349915
C           -2.14627730613092        1.03733664455834        1.58392351076339
H           -1.16239535567304        1.03981719718353        1.10854747953674
H           -2.01435144669653        0.69602259454944        2.61355595277424
C           -2.70258816184624        2.45893297555483        1.59240302303754
H           -2.83785600404469        2.79751881401233        0.56231834083073
H           -3.68481597380939        2.45850220669147        2.07122553665181
C           -1.78234324907840        3.42617592297923        2.32626581359723
H           -0.80322562053691        3.45658796386596        1.85177594776713
H           -2.19834382203701        4.43102600385381        2.31955167013945
H           -1.65011008600622        3.11589922555324        3.36116160581633

 Bond Distances (Angstroems)
 ---------------------------
C1-H2=1.0876         C1-H3=1.0885         C1-H4=1.0885         C1-C5=1.5235         H2-C1=1.0876         H3-C1=1.0885         
H4-C1=1.0885         C5-C1=1.5235         C5-H6=1.0927         C5-H7=1.0927         C5-C8=1.5266         H6-C5=1.0927         
H7-C5=1.0927         C8-C5=1.5266         C8-H9=1.0927         C8-H10=1.0927        C8-C11=1.5235        H9-C8=1.0927         
H10-C8=1.0927        C11-C8=1.5235        C11-H12=1.0885       C11-H13=1.0876       C11-H14=1.0885       H12-C11=1.0885       
H13-C11=1.0876       H14-C11=1.0885       
 C  H  Rav=1.0900 sigma=0.0023  Rmin=1.0876  Rmax=1.0927    10
 C  C  Rav=1.5245 sigma=0.0015  Rmin=1.5235  Rmax=1.5266     3

 selected bond angles (degree)
 --------------------
H3-C1-H2=108.40                H4-C1-H2=108.40                H4-C1-H3=108.25                C5-C1-H2=110.65                
C5-C1-H3=110.56                C5-C1-H4=110.51                H6-C5-C1=109.40                H7-C5-C1=109.40                
H7-C5-H6=107.57                C8-C5-C1=111.95                C8-C5-H6=109.17                C8-C5-H7=109.25                
H9-C8-C5=109.17                H10-C8-C5=109.25               H10-C8-H9=107.57               C11-C8-C5=111.95               
C11-C8-H9=109.40               C11-C8-H10=109.40              

 selected dihedral angles (degree)
 ---------------------------------
H6-C5-C1-H2= 58.85            H6-C5-C1-H3=298.76            H6-C5-C1-H4=178.93            H7-C5-C1-H2=301.25            
H7-C5-C1-H3=181.15            H7-C5-C1-H4= 61.32            C8-C5-C1-H2=180.00            C8-C5-C1-H3= 59.91            
C8-C5-C1-H4=300.08            H9-C8-C5-C1=301.56            H9-C8-C5-H6= 62.84            H9-C8-C5-H7=180.23            
H10-C8-C5-C1= 58.95           H10-C8-C5-H6=180.23           H10-C8-C5-H7=297.61           C11-C8-C5-C1=180.28           
C11-C8-C5-H6=301.56           C11-C8-C5-H7= 58.95           
           -------------------------------------------------
          |                Final Singlepoint                |
           -------------------------------------------------

          ...................................................
          :                      SETUP                      :
          :.................................................:
          :  # basis functions                  26          :
          :  # atomic orbitals                  26          :
          :  # shells                           18          :
          :  # electrons                        26          :
          :  max. iterations                   250          :
          :  Hamiltonian                  GFN2-xTB          :
          :  restarted?                      false          :
          :  GBSA solvation                  false          :
          :  PC potential                    false          :
          :  electronic temp.          300.0000000     K    :
          :  accuracy                    1.0000000          :
          :  -> integral cutoff          0.2500000E+02      :
          :  -> integral neglect         0.1000000E-07      :
          :  -> SCF convergence          0.1000000E-05 Eh   :
          :  -> wf. convergence          0.1000000E-03 e    :
          :  Broyden damping             0.4000000          :
          :  net charge                          0          :
          :  unpaired electrons                  0          :
          ...................................................

 iter      E             dE          RMSdq      gap      omega  full diag
   1    -13.8758185 -0.138758E+02  0.103E-04   13.81       0.0  T
   2    -13.8758185 -0.224532E-11  0.593E-05   13.81     451.0  T
   3    -13.8758185 -0.163425E-12  0.723E-06   13.81    3695.8  T

   *** convergence criteria satisfied after 3 iterations ***

         #    Occupation            Energy/Eh            Energy/eV
      -------------------------------------------------------------
         1        2.0000           -0.6179893             -16.8163
       ...           ...                  ...                  ...
         7        2.0000           -0.4878932             -13.2763
         8        2.0000           -0.4789599             -13.0332
         9        2.0000           -0.4546728             -12.3723
        10        2.0000           -0.4394797             -11.9589
        11        2.0000           -0.4367399             -11.8843
        12        2.0000           -0.4258103             -11.5869
        13        2.0000           -0.4195281             -11.4159 (HOMO)
        14                          0.0879308               2.3927 (LUMO)
        15                          0.1268055               3.4506
        16                          0.1273833               3.4663
        17                          0.1525792               4.1519
        18                          0.1626415               4.4257
       ...                                ...                  ...
        26                          0.3110728               8.4647
      -------------------------------------------------------------
                  HL-Gap            0.5074589 Eh           13.8087 eV
             Fermi-level           -0.1657986 Eh           -4.5116 eV

 SCC (total)                   0 d,  0 h,  0 min,  0.011 sec
 SCC setup                      ...        0 min,  0.000 sec (  1.150%)
 Dispersion                     ...        0 min,  0.000 sec (  1.256%)
 classical contributions        ...        0 min,  0.000 sec (  0.407%)
 integral evaluation            ...        0 min,  0.001 sec (  5.995%)
 iterations                     ...        0 min,  0.006 sec ( 60.867%)
 molecular gradient             ...        0 min,  0.003 sec ( 27.281%)
 printout                       ...        0 min,  0.000 sec (  2.816%)

         :::::::::::::::::::::::::::::::::::::::::::::::::::::
         ::                     SUMMARY                     ::
         :::::::::::::::::::::::::::::::::::::::::::::::::::::
         :: total energy             -13.665126782691 Eh    ::
         :: gradient norm              0.000780429547 Eh/a0 ::
         :: HOMO-LUMO gap             13.808660266285 eV    ::
         ::.................................................::
         :: SCC energy               -13.875814580926 Eh    ::
         :: -> isotropic ES            0.002994208302 Eh    ::
         :: -> anisotropic ES          0.004915003914 Eh    ::
         :: -> anisotropic XC          0.009068190214 Eh    ::
         :: -> dispersion             -0.006049406467 Eh    ::
         :: repulsion energy           0.210687798236 Eh    ::
         :: add. restraining           0.000000000000 Eh    ::
         :: total charge               0.000000000000 e     ::
         :::::::::::::::::::::::::::::::::::::::::::::::::::::

           -------------------------------------------------
          |                Property Printout                |
           -------------------------------------------------

    * Orbital Energies and Occupations

         #    Occupation            Energy/Eh            Energy/eV
      -------------------------------------------------------------
         1        2.0000           -0.6179893             -16.8163
         2        2.0000           -0.5989791             -16.2991
         3        2.0000           -0.5678999             -15.4533
         4        2.0000           -0.5523918             -15.0313
         5        2.0000           -0.5138401             -13.9823
         6        2.0000           -0.4918820             -13.3848
         7        2.0000           -0.4878932             -13.2763
         8        2.0000           -0.4789599             -13.0332
         9        2.0000           -0.4546728             -12.3723
        10        2.0000           -0.4394797             -11.9589
        11        2.0000           -0.4367399             -11.8843
        12        2.0000           -0.4258103             -11.5869
        13        2.0000           -0.4195281             -11.4159 (HOMO)
        14                          0.0879308               2.3927 (LUMO)
        15                          0.1268055               3.4506
        16                          0.1273833               3.4663
        17                          0.1525792               4.1519
        18                          0.1626415               4.4257
        19                          0.1833345               4.9888
        20                          0.1933999               5.2627
        21                          0.1965287               5.3478
        22                          0.2245472               6.1102
        23                          0.2548977               6.9361
        24                          0.2639748               7.1831
       ...                                ...                  ...
        26                          0.3110728               8.4647
      -------------------------------------------------------------
                  HL-Gap            0.5074589 Eh           13.8087 eV
             Fermi-level           -0.1657986 Eh           -4.5116 eV

     #   Z          covCN         q      C6AA      α(0)
     1   6 C        3.752    -0.102    22.509     6.766
     2   1 H        0.925     0.032     2.553     2.499
     3   1 H        0.925     0.033     2.551     2.498
     4   1 H        0.925     0.033     2.551     2.498
     5   6 C        3.801    -0.053    21.533     6.607
     6   1 H        0.924     0.029     2.600     2.522
     7   1 H        0.924     0.029     2.601     2.522
     8   6 C        3.801    -0.053    21.533     6.607
     9   1 H        0.924     0.029     2.600     2.522
    10   1 H        0.924     0.029     2.601     2.522
    11   6 C        3.752    -0.102    22.509     6.766
    12   1 H        0.925     0.033     2.551     2.498
    13   1 H        0.925     0.032     2.553     2.499
    14   1 H        0.925     0.033     2.551     2.498

 Mol. C6AA /au·bohr⁶  :       1207.544082
 Mol. C8AA /au·bohr⁸  :      24480.948724
 Mol. α(0) /au        :         51.820557


Wiberg/Mayer (AO) data.
largest (>0.10) Wiberg bond orders for each atom

 ---------------------------------------------------------------------------
     #   Z sym  total        # sym  WBO       # sym  WBO       # sym  WBO
 ---------------------------------------------------------------------------
     1   6 C    3.997 --     5 C    1.019     4 H    0.988     3 H    0.988
                             2 H    0.988
     2   1 H    0.999 --     1 C    0.988
     3   1 H    0.999 --     1 C    0.988
     4   1 H    0.999 --     1 C    0.988
     5   6 C    3.998 --     1 C    1.019     8 C    1.009     7 H    0.979
                             6 H    0.979
     6   1 H    0.999 --     5 C    0.979
     7   1 H    0.999 --     5 C    0.979
     8   6 C    3.998 --    11 C    1.019     5 C    1.009    10 H    0.979
                             9 H    0.979
     9   1 H    0.999 --     8 C    0.979
    10   1 H    0.999 --     8 C    0.979
    11   6 C    3.997 --     8 C    1.019    14 H    0.988    12 H    0.988
                            13 H    0.988
    12   1 H    0.999 --    11 C    0.988
    13   1 H    0.999 --    11 C    0.988
    14   1 H    0.999 --    11 C    0.988
 ---------------------------------------------------------------------------

Topologies differ in total number of bonds
Writing topology from bond orders to xtbtopo.mol

molecular dipole:
                 x           y           z       tot (Debye)
 q only:        0.000       0.000      -0.000
   full:        0.000       0.000      -0.000       0.000
molecular quadrupole (traceless):
                xx          xy          yy          xz          yz          zz
 q only:       -0.007       0.067       0.098       0.111       0.098      -0.091
  q+dip:        0.114      -0.388      -0.620      -0.560      -0.576       0.506
   full:        0.044      -0.169      -0.264      -0.248      -0.250       0.221

           -------------------------------------------------
          |                Geometry Summary                 |
           -------------------------------------------------

      molecular mass/u    :       58.1223511
   center of mass at/Å    :       -2.4235738       1.7484803       1.5866392
Note: The following floating-point exceptions are signalling: IEEE_UNDERFLOW_FLAG IEEE_DENORMAL
normal termination of xtb
  moments of inertia/u·Å² :        0.2163070E+02   0.1369721E+03   0.1460624E+03
rotational constants/cm⁻¹ :        0.7793381E+00   0.1230735E+00   0.1154139E+00

 * 13 selected distances

     #   Z          #   Z                                           value/Å
     1   6 C        2   1 H                                       1.0875778
     1   6 C        3   1 H                                       1.0884563
     1   6 C        4   1 H                                       1.0884699
     1   6 C        5   6 C                                       1.5234713
     5   6 C        6   1 H                                       1.0927088
     5   6 C        7   1 H                                       1.0927227
     5   6 C        8   6 C                                       1.5265943 (max)
     8   6 C        9   1 H                                       1.0927088
     8   6 C       10   1 H                                       1.0927227
     8   6 C       11   6 C                                       1.5234712
    11   6 C       12   1 H                                       1.0884563
    11   6 C       13   1 H                                       1.0875778 (min)
    11   6 C       14   1 H                                       1.0884699

 * 2 distinct bonds (by element types)

   Z      Z             #   av. dist./Å        max./Å        min./Å
   1 H    6 C          10     1.0899871     1.0927227     1.0875778
   6 C    6 C           3     1.5245123     1.5265943     1.5234712


optimized geometry written to: xtbopt.xyz


           -------------------------------------------------
          | TOTAL ENERGY              -13.665126782691 Eh   |
          | GRADIENT NORM               0.000780429547 Eh/α |
          | HOMO-LUMO GAP              13.808660266285 eV   |
           -------------------------------------------------

------------------------------------------------------------------------
 * finished run on 2026/08/17 at 12:14:21.196     
------------------------------------------------------------------------
 total:
 * wall-time:     0 d,  0 h,  0 min,  0.463 sec
 *  cpu-time:     0 d,  0 h,  0 min,  1.576 sec
 * ratio c/w:     3.404 speedup
 SCF:
 * wall-time:     0 d,  0 h,  0 min,  0.086 sec
 *  cpu-time:     0 d,  0 h,  0 min,  0.272 sec
 * ratio c/w:     3.182 speedup
 ANC optimizer:
 * wall-time:     0 d,  0 h,  0 min,  0.330 sec
 *  cpu-time:     0 d,  0 h,  0 min,  1.154 sec
 * ratio c/w:     3.499 speedup

