14
 energy: -13.665126782691 gnorm: 0.000780429547 xtb: 6.7.1 (edcfbbe)
C           -3.06322662720751        0.07141838481570        0.84421401972174
H           -2.64733303817681       -0.93347469996632        0.85111763309705
H           -3.19146068966116        0.38298505938569       -0.19078310723274
H           -4.04416290909502        0.04059290696300        1.31493720349915
C           -2.14627730613092        1.03733664455834        1.58392351076339
H           -1.16239535567304        1.03981719718353        1.10854747953674
H           -2.01435144669653        0.69602259454944        2.61355595277424
C           -2.70258816184624        2.45893297555483        1.59240302303754
H           -2.83785600404469        2.79751881401233        0.56231834083073
H           -3.68481597380939        2.45850220669147        2.07122553665181
C           -1.78234324907840        3.42617592297923        2.32626581359723
H           -0.80322562053691        3.45658796386596        1.85177594776713
H           -2.19834382203701        4.43102600385381        2.31955167013945
H           -1.65011008600622        3.11589922555324        3.36116160581633
