      -----------------------------------------------------------      
     |                   =====================                   |     
     |                           x T B                           |     
     |                   =====================                   |     
     |                         S. Grimme                         |     
     |          Mulliken Center for Theoretical Chemistry        |     
     |                    University of Bonn                     |     
      -----------------------------------------------------------      

   * xtb version 6.7.1 (edcfbbe) compiled by 'conda@5dfe00f5fb80' on 2026-06-10

   xtb is free software: you can redistribute it and/or modify it under
   the terms of the GNU Lesser General Public License as published by
   the Free Software Foundation, either version 3 of the License, or
   (at your option) any later version.
   
   xtb is distributed in the hope that it will be useful,
   but WITHOUT ANY WARRANTY; without even the implied warranty of
   MERCHANTABILITY or FITNESS FOR A PARTICULAR PURPOSE.  See the
   GNU Lesser General Public License for more details.
   
   Cite this work as:
   * C. Bannwarth, E. Caldeweyher, S. Ehlert, A. Hansen, P. Pracht,
     J. Seibert, S. Spicher, S. Grimme, WIREs Comput. Mol. Sci., 2020, 11,
     e01493. DOI: 10.1002/wcms.1493
   
   for GFN2-xTB:
   * C. Bannwarth, S. Ehlert and S. Grimme., J. Chem. Theory Comput., 2019,
     15, 1652-1671. DOI: 10.1021/acs.jctc.8b01176
   for GFN1-xTB:
   * S. Grimme, C. Bannwarth, P. Shushkov, J. Chem. Theory Comput., 2017,
     13, 1989-2009. DOI: 10.1021/acs.jctc.7b00118
   for GFN0-xTB:
   * P. Pracht, E. Caldeweyher, S. Ehlert, S. Grimme, ChemRxiv, 2019, preprint.
     DOI: 10.26434/chemrxiv.8326202.v1
   for GFN-FF:
   * S. Spicher and S. Grimme, Angew. Chem. Int. Ed., 2020, 59, 15665-15673.
     DOI: 10.1002/anie.202004239
   
   for ALPB and GBSA implicit solvation:
   * S. Ehlert, M. Stahn, S. Spicher, S. Grimme, J. Chem. Theory Comput.,
     2021, 17, 4250-4261. DOI: 10.1021/acs.jctc.1c00471
   
   for ddCOSMO and CPCM-X implicit solvation:
   * M. Stahn, S. Ehlert, S. Grimme, J. Phys. Chem. A,
     2023, XX, XXXX-XXXX. DOI: 10.1021/acs.jpca.3c04382
   
   for DFT-D4:
   * E. Caldeweyher, C. Bannwarth and S. Grimme, J. Chem. Phys., 2017,
     147, 034112. DOI: 10.1063/1.4993215
   * E. Caldeweyher, S. Ehlert, A. Hansen, H. Neugebauer, S. Spicher,
     C. Bannwarth and S. Grimme, J. Chem. Phys., 2019, 150, 154122.
     DOI: 10.1063/1.5090222
   * E. Caldeweyher, J.-M. Mewes, S. Ehlert and S. Grimme, Phys. Chem. Chem. Phys.
     2020, 22, 8499-8512. DOI: 10.1039/D0CP00502A
   
   for sTDA-xTB:
   * S. Grimme and C. Bannwarth, J. Chem. Phys., 2016, 145, 054103.
     DOI: 10.1063/1.4959605
   
   in the mass-spec context:
   * V. Asgeirsson, C. Bauer and S. Grimme, Chem. Sci., 2017, 8, 4879.
     DOI: 10.1039/c7sc00601b
   * J. Koopman and S. Grimme, ACS Omega 2019, 4, 12, 15120-15133.
     DOI: 10.1021/acsomega.9b02011
   
   for metadynamics refer to:
   * S. Grimme, J. Chem. Theory Comput., 2019, 155, 2847-2862
     DOI: 10.1021/acs.jctc.9b00143
   
   for SPH calculations refer to:
   * S. Spicher and S. Grimme, J. Chem. Theory Comput., 2021, 17, 1701-1714
     DOI: 10.1021/acs.jctc.0c01306
   
   for ONIOM refer to:
   * C. Plett, A. Katbashev, S. Ehlert, S. Grimme, M. Bursch,
     Phys. Chem. Chem. Phys., 2023, 25, 17860-17868. DOI: 10.1039/D3CP02178E
   
   for DIPRO refer to:
   * J. Kohn, N. Gildemeister, S. Grimme, D. Fazzi, A. Hansen,
     J. Chem. Phys., 2023, just accepted.
   
   for PTB refer to:
   * S. Grimme, M. Mueller, A. Hansen, J. Chem. Phys., 2023, 158, 124111.
     DOI: 10.1063/5.0137838
   
   with help from (in alphabetical order)
   P. Atkinson, C. Bannwarth, F. Bohle, G. Brandenburg, E. Caldeweyher
   M. Checinski, S. Dohm, S. Ehlert, S. Ehrlich, I. Gerasimov, C. Hölzer
   A. Katbashev, J. Kohn, J. Koopman, C. Lavigne, S. Lehtola, F. März, M. Müller,
   F. Musil, H. Neugebauer, J. Pisarek, C. Plett, P. Pracht, F. Pultar,
   J. Seibert, P. Shushkov, S. Spicher, M. Stahn, M. Steiner, T. Strunk,
   J. Stückrath, T. Rose, and J. Unsleber
   
 * started run on 2026/08/11 at 11:11:54.924     
   ID    Z sym.   atoms
    1    6 C      1, 5, 8, 11
    2    1 H      2-4, 6, 7, 9, 10, 12-14

           -------------------------------------------------
          |                Calculation Setup                |
           -------------------------------------------------

          program call               : xtb input.xyz --gfn2 --opt tight --chrg 0 --uhf 0 --iterations 250
          coordinate file            : input.xyz
          omp threads                :                     4


           -------------------------------------------------
          |                 G F N 2 - x T B                 |
           -------------------------------------------------

        Reference                      10.1021/acs.jctc.8b01176
      * Hamiltonian:
        H0-scaling (s, p, d)           1.850000    2.230000    2.230000
        zeta-weighting                 0.500000
      * Dispersion:
        s8                             2.700000
        a1                             0.520000
        a2                             5.000000
        s9                             5.000000
      * Repulsion:
        kExp                           1.500000    1.000000
        rExp                           1.000000
      * Coulomb:
        alpha                          2.000000
        third order                    shell-resolved
        anisotropic                    true
        a3                             3.000000
        a5                             4.000000
        cn-shift                       1.200000
        cn-exp                         4.000000
        max-rad                        5.000000


          ...................................................
          :                      SETUP                      :
          :.................................................:
          :  # basis functions                  26          :
          :  # atomic orbitals                  26          :
          :  # shells                           18          :
          :  # electrons                        26          :
          :  max. iterations                   250          :
          :  Hamiltonian                  GFN2-xTB          :
          :  restarted?                      false          :
          :  GBSA solvation                  false          :
          :  PC potential                    false          :
          :  electronic temp.          300.0000000     K    :
          :  accuracy                    1.0000000          :
          :  -> integral cutoff          0.2500000E+02      :
          :  -> integral neglect         0.1000000E-07      :
          :  -> SCF convergence          0.1000000E-05 Eh   :
          :  -> wf. convergence          0.1000000E-03 e    :
          :  Broyden damping             0.4000000          :
          :  net charge                          0          :
          :  unpaired electrons                  0          :
          ...................................................

 iter      E             dE          RMSdq      gap      omega  full diag
   1    -13.8197755 -0.138198E+02  0.248E+00   13.48       0.0  T
   2    -13.8577135 -0.379380E-01  0.127E+00   13.17       1.0  T
   3    -13.8581304 -0.416883E-03  0.678E-01   13.15       1.0  T
   4    -13.8582493 -0.118995E-03  0.919E-02   13.13       1.0  T
   5    -13.8582544 -0.509127E-05  0.498E-02   13.13       1.0  T
   6    -13.8582549 -0.479803E-06  0.197E-03   13.13      13.6  T
   7    -13.8582549 -0.582809E-08  0.684E-04   13.13      39.1  T
   8    -13.8582549 -0.513502E-09  0.158E-04   13.13     168.7  T

   *** convergence criteria satisfied after 8 iterations ***

         #    Occupation            Energy/Eh            Energy/eV
      -------------------------------------------------------------
         1        2.0000           -0.6170582             -16.7910
       ...           ...                  ...                  ...
         7        2.0000           -0.4867300             -13.2446
         8        2.0000           -0.4720784             -12.8459
         9        2.0000           -0.4552576             -12.3882
        10        2.0000           -0.4495953             -12.2341
        11        2.0000           -0.4297952             -11.6953
        12        2.0000           -0.4217143             -11.4754
        13        2.0000           -0.4144959             -11.2790 (HOMO)
        14                          0.0681199               1.8536 (LUMO)
        15                          0.0937795               2.5519
        16                          0.1209478               3.2912
        17                          0.1403754               3.8198
        18                          0.1514108               4.1201
       ...                                ...                  ...
        26                          0.3296956               8.9715
      -------------------------------------------------------------
                  HL-Gap            0.4826158 Eh           13.1326 eV
             Fermi-level           -0.1731880 Eh           -4.7127 eV

 SCC (total)                   0 d,  0 h,  0 min,  0.091 sec
 SCC setup                      ...        0 min,  0.003 sec (  3.086%)
 Dispersion                     ...        0 min,  0.011 sec ( 12.105%)
 classical contributions        ...        0 min,  0.003 sec (  3.188%)
 integral evaluation            ...        0 min,  0.009 sec (  9.974%)
 iterations                     ...        0 min,  0.063 sec ( 69.219%)
 molecular gradient             ...        0 min,  0.002 sec (  2.198%)
 printout                       ...        0 min,  0.000 sec (  0.204%)

         :::::::::::::::::::::::::::::::::::::::::::::::::::::
         ::                     SUMMARY                     ::
         :::::::::::::::::::::::::::::::::::::::::::::::::::::
         :: total energy             -13.652119227627 Eh    ::
         :: gradient norm              0.016280039448 Eh/a0 ::
         :: HOMO-LUMO gap             13.132644774314 eV    ::
         ::.................................................::
         :: SCC energy               -13.858248745969 Eh    ::
         :: -> isotropic ES            0.003034111852 Eh    ::
         :: -> anisotropic ES          0.005395922345 Eh    ::
         :: -> anisotropic XC          0.009204515627 Eh    ::
         :: -> dispersion             -0.006092397879 Eh    ::
         :: repulsion energy           0.206129518342 Eh    ::
         :: add. restraining           0.000000000000 Eh    ::
         :: total charge              -0.000000000000 e     ::
         :::::::::::::::::::::::::::::::::::::::::::::::::::::

      ----------------------------------------------------------- 
     |                   =====================                   |
     |                        A N C O P T                        |
     |                   =====================                   |
     |               Approximate Normal Coordinate               |
     |                Rational Function Optimizer                |
      ----------------------------------------------------------- 
      ----------------------------------------------------------- 
     |                   =====================                   |
     |                        A N C O P T                        |
     |                   =====================                   |
     |               Approximate Normal Coordinate               |
     |                Rational Function Optimizer                |
      ----------------------------------------------------------- 

          ...................................................
          :                      SETUP                      :
          :.................................................:
          :   optimization level             tight          :
          :   max. optcycles                   200          :
          :   ANC micro-cycles                  20          :
          :   degrees of freedom                36          :
          :.................................................:
          :   RF solver                   davidson          :
          :   write xtbopt.log                true          :
          :   linear?                        false          :
          :   energy convergence         0.1000000E-05 Eh   :
          :   grad. convergence          0.8000000E-03 Eh/α :
          :   maxmium RF displ.          1.0000000          :
          :   Hlow (freq-cutoff)         0.1000000E-01      :
          :   Hmax (freq-cutoff)         5.0000000          :
          :   S6 in model hess.         20.0000000          :
          ...................................................

generating ANC from exact Hessian ...
Using Lindh-Hessian (1995)
 Shifting diagonal of input Hessian by    6.3319186558353589E-003
 Lowest  eigenvalues of input Hessian
    0.000000    0.000000    0.000000    0.000000    0.000000    0.000000
    0.010000    0.013204    0.013518    0.020095    0.021231    0.047059
    0.048166    0.058251    0.058976    0.060353    0.062845    0.066367
 Highest eigenvalues
    1.109336    1.133797    1.147682    1.209002    1.222841    1.283132


........................................................................
.............................. CYCLE    1 ..............................
........................................................................

 iter      E             dE          RMSdq      gap      omega  full diag
   1    -13.8582549 -0.138583E+02  0.338E-05   13.13       0.0  T
   2    -13.8582549 -0.460076E-11  0.159E-05   13.13    1681.5  T
   3    -13.8582549 -0.262901E-12  0.864E-06   13.13    3093.6  T
     SCC iter.                  ...        0 min,  0.002 sec
     gradient                   ...        0 min,  0.002 sec
 * total energy  :   -13.6521192 Eh     change       -0.1220535E-10 Eh
   gradient norm :     0.0162795 Eh/α   predicted     0.0000000E+00 (-100.00%)
   displ. norm   :     0.1869485 α      lambda       -0.9226667E-03
   maximum displ.:     0.1554688 α      in ANC's #2, #5, #10, ...

........................................................................
.............................. CYCLE    2 ..............................
........................................................................

 iter      E             dE          RMSdq      gap      omega  full diag
   1    -13.8607156 -0.138607E+02  0.954E-02   12.96       0.0  T
   2    -13.8607178 -0.214653E-05  0.570E-02   12.96       1.0  T
   3    -13.8607180 -0.196370E-06  0.386E-03   12.96       6.9  T
   4    -13.8607180 -0.109924E-07  0.172E-03   12.96      15.6  T
   5    -13.8607180 -0.793268E-09  0.534E-04   12.96      50.0  T
   6    -13.8607180 -0.433435E-09  0.927E-05   12.96     288.4  T
     SCC iter.                  ...        0 min,  0.003 sec
     gradient                   ...        0 min,  0.002 sec
 * total energy  :   -13.6527403 Eh     change       -0.6210275E-03 Eh
   gradient norm :     0.0072859 Eh/α   predicted    -0.4774561E-03 ( -23.12%)
   displ. norm   :     0.2775386 α      lambda       -0.7010421E-03
   maximum displ.:     0.2194246 α      in ANC's #2, #4, #1, ...

........................................................................
.............................. CYCLE    3 ..............................
........................................................................

 iter      E             dE          RMSdq      gap      omega  full diag
   1    -13.8614057 -0.138614E+02  0.885E-02   12.91       0.0  T
   2    -13.8614073 -0.159802E-05  0.532E-02   12.91       1.0  T
   3    -13.8614074 -0.591213E-07  0.449E-03   12.91       5.9  T
   4    -13.8614074 -0.578744E-07  0.131E-03   12.91      20.4  T
   5    -13.8614074 -0.632674E-09  0.587E-04   12.91      45.6  T
   6    -13.8614074 -0.168145E-09  0.739E-05   12.91     361.7  T
     SCC iter.                  ...        0 min,  0.003 sec
     gradient                   ...        0 min,  0.002 sec
 * total energy  :   -13.6533336 Eh     change       -0.5933771E-03 Eh
   gradient norm :     0.0066516 Eh/α   predicted    -0.3775178E-03 ( -36.38%)
   displ. norm   :     0.4909235 α      lambda       -0.1059371E-02
   maximum displ.:     0.3523958 α      in ANC's #2, #4, #1, ...

........................................................................
.............................. CYCLE    4 ..............................
........................................................................

 iter      E             dE          RMSdq      gap      omega  full diag
   1    -13.8579211 -0.138579E+02  0.156E-01   12.91       0.0  T
   2    -13.8579318 -0.107403E-04  0.912E-02   12.91       1.0  T
   3    -13.8579322 -0.384761E-06  0.166E-02   12.91       1.6  T
   4    -13.8579326 -0.391712E-06  0.350E-03   12.91       7.6  T
   5    -13.8579326 -0.275543E-08  0.159E-03   12.91      16.8  T
   6    -13.8579326 -0.160712E-08  0.157E-04   12.91     169.9  T
   7    -13.8579326 -0.356497E-10  0.698E-05   12.91     383.0  T
     SCC iter.                  ...        0 min,  0.004 sec
     gradient                   ...        0 min,  0.002 sec
 * total energy  :   -13.6538818 Eh     change       -0.5481320E-03 Eh
   gradient norm :     0.0224453 Eh/α   predicted    -0.6573388E-03 (  19.92%)
   displ. norm   :     0.0747066 α      lambda       -0.7172471E-03
   maximum displ.:     0.0394190 α      in ANC's #4, #1, #3, ...

........................................................................
.............................. CYCLE    5 ..............................
........................................................................

 iter      E             dE          RMSdq      gap      omega  full diag
   1    -13.8615585 -0.138616E+02  0.556E-02   13.02       0.0  T
   2    -13.8615619 -0.339443E-05  0.308E-02   13.02       1.0  T
   3    -13.8615621 -0.155922E-06  0.970E-03   13.02       2.8  T
   4    -13.8615622 -0.738259E-07  0.197E-03   13.02      13.6  T
   5    -13.8615622 -0.123109E-08  0.960E-04   13.02      27.8  T
   6    -13.8615622 -0.503539E-09  0.114E-04   13.02     234.8  T
     SCC iter.                  ...        0 min,  0.003 sec
     gradient                   ...        0 min,  0.002 sec
 * total energy  :   -13.6544420 Eh     change       -0.5602123E-03 Eh
   gradient norm :     0.0150548 Eh/α   predicted    -0.3606245E-03 ( -35.63%)
   displ. norm   :     0.4400976 α      lambda       -0.1333594E-02
   maximum displ.:     0.2610348 α      in ANC's #2, #4, #1, ...

........................................................................
.............................. CYCLE    6 ..............................
........................................................................

 iter      E             dE          RMSdq      gap      omega  full diag
   1    -13.8624760 -0.138625E+02  0.123E-01   13.20       0.0  T
   2    -13.8624773 -0.129359E-05  0.739E-02   13.20       1.0  T
   3    -13.8624774 -0.142190E-06  0.306E-03   13.20       8.7  T
   4    -13.8624774 -0.241398E-07  0.142E-03   13.20      18.8  T
   5    -13.8624774 -0.172273E-08  0.682E-04   13.20      39.2  T
   6    -13.8624774 -0.296350E-09  0.786E-05   13.20     339.9  T
     SCC iter.                  ...        0 min,  0.003 sec
     gradient                   ...        0 min,  0.002 sec
 * total energy  :   -13.6554547 Eh     change       -0.1012699E-02 Eh
   gradient norm :     0.0114271 Eh/α   predicted    -0.7959543E-03 ( -21.40%)
   displ. norm   :     0.3935614 α      lambda       -0.1046597E-02
   maximum displ.:     0.2144556 α      in ANC's #2, #1, #3, ...

........................................................................
.............................. CYCLE    7 ..............................
........................................................................

 iter      E             dE          RMSdq      gap      omega  full diag
   1    -13.8628479 -0.138628E+02  0.111E-01   13.33       0.0  T
   2    -13.8628504 -0.249903E-05  0.667E-02   13.32       1.0  T
   3    -13.8628505 -0.117044E-06  0.478E-03   13.32       5.6  T
   4    -13.8628506 -0.300995E-07  0.135E-03   13.32      19.8  T
   5    -13.8628506 -0.137078E-08  0.662E-04   13.32      40.4  T
   6    -13.8628506 -0.157911E-09  0.888E-05   13.32     300.8  T
     SCC iter.                  ...        0 min,  0.003 sec
     gradient                   ...        0 min,  0.002 sec
 * total energy  :   -13.6561984 Eh     change       -0.7437622E-03 Eh
   gradient norm :     0.0098914 Eh/α   predicted    -0.6043558E-03 ( -18.74%)
   displ. norm   :     0.3586278 α      lambda       -0.6534265E-03
   maximum displ.:     0.1891277 α      in ANC's #1, #3, #2, ...

........................................................................
.............................. CYCLE    8 ..............................
........................................................................

 iter      E             dE          RMSdq      gap      omega  full diag
   1    -13.8624153 -0.138624E+02  0.975E-02   13.38       0.0  T
   2    -13.8624167 -0.145309E-05  0.580E-02   13.38       1.0  T
   3    -13.8624168 -0.626181E-07  0.400E-03   13.38       6.7  T
   4    -13.8624168 -0.363173E-07  0.110E-03   13.38      24.3  T
   5    -13.8624168 -0.103382E-08  0.539E-04   13.38      49.6  T
   6    -13.8624168 -0.105787E-09  0.849E-05   13.38     314.9  T
     SCC iter.                  ...        0 min,  0.003 sec
     gradient                   ...        0 min,  0.002 sec
 * total energy  :   -13.6567344 Eh     change       -0.5359485E-03 Eh
   gradient norm :     0.0135513 Eh/α   predicted    -0.3687363E-03 ( -31.20%)
   displ. norm   :     0.5197188 α      lambda       -0.1020833E-02
   maximum displ.:     0.2974982 α      in ANC's #1, #3, #4, ...

........................................................................
.............................. CYCLE    9 ..............................
........................................................................

 iter      E             dE          RMSdq      gap      omega  full diag
   1    -13.8632549 -0.138633E+02  0.147E-01   13.43       0.0  T
   2    -13.8632594 -0.446896E-05  0.869E-02   13.43       1.0  T
   3    -13.8632596 -0.212353E-06  0.858E-03   13.43       3.1  T
   4    -13.8632597 -0.126668E-06  0.225E-03   13.43      11.9  T
   5    -13.8632597 -0.178687E-08  0.771E-04   13.43      34.7  T
   6    -13.8632597 -0.628232E-09  0.154E-04   13.43     173.6  T
     SCC iter.                  ...        0 min,  0.004 sec
     gradient                   ...        0 min,  0.002 sec
 * total energy  :   -13.6575437 Eh     change       -0.8093258E-03 Eh
   gradient norm :     0.0187887 Eh/α   predicted    -0.6482890E-03 ( -19.90%)
   displ. norm   :     0.7998872 α      lambda       -0.1554773E-02
   maximum displ.:     0.4566366 α      in ANC's #1, #3, #2, ...

........................................................................
.............................. CYCLE   10 ..............................
........................................................................

 iter      E             dE          RMSdq      gap      omega  full diag
   1    -13.8480132 -0.138480E+02  0.257E-01   13.39       0.0  T
   2    -13.8480536 -0.403521E-04  0.148E-01   13.39       1.0  T
   3    -13.8480552 -0.167551E-05  0.308E-02   13.39       1.0  T
   4    -13.8480560 -0.751655E-06  0.657E-03   13.39       4.1  T
   5    -13.8480560 -0.268338E-07  0.353E-03   13.39       7.6  T
   6    -13.8480560 -0.554878E-08  0.362E-04   13.39      73.8  T
   7    -13.8480560 -0.217682E-09  0.162E-04   13.39     164.9  T
     SCC iter.                  ...        0 min,  0.004 sec
     gradient                   ...        0 min,  0.002 sec
 * total energy  :   -13.6575022 Eh     change        0.4156152E-04 Eh
   gradient norm :     0.0352578 Eh/α   predicted    -0.1274785E-02 (*******%)
   displ. norm   :     0.1964247 α      lambda       -0.4162357E-02
   maximum displ.:     0.0898307 α      in ANC's #5, #7, #24, ...

........................................................................
.............................. CYCLE   11 ..............................
........................................................................

 iter      E             dE          RMSdq      gap      omega  full diag
   1    -13.8705577 -0.138706E+02  0.198E-01   13.52       0.0  T
   2    -13.8706204 -0.627355E-04  0.107E-01   13.53       1.0  T
   3    -13.8706226 -0.220200E-05  0.367E-02   13.54       1.0  T
   4    -13.8706230 -0.337890E-06  0.677E-03   13.53       3.9  T
   5    -13.8706230 -0.257498E-07  0.346E-03   13.53       7.7  T
   6    -13.8706230 -0.671434E-08  0.366E-04   13.53      73.0  T
   7    -13.8706230 -0.144396E-09  0.145E-04   13.53     183.7  T
     SCC iter.                  ...        0 min,  0.005 sec
     gradient                   ...        0 min,  0.002 sec
 * total energy  :   -13.6592094 Eh     change       -0.1707254E-02 Eh
   gradient norm :     0.0165857 Eh/α   predicted    -0.2161474E-02 (  26.61%)
   displ. norm   :     0.4616775 α      lambda       -0.2342961E-02
   maximum displ.:     0.3376098 α      in ANC's #3, #1, #5, ...

........................................................................
.............................. CYCLE   12 ..............................
........................................................................

 iter      E             dE          RMSdq      gap      omega  full diag
   1    -13.8690277 -0.138690E+02  0.219E-01   13.58       0.0  T
   2    -13.8690618 -0.341330E-04  0.124E-01   13.57       1.0  T
   3    -13.8690633 -0.156074E-05  0.308E-02   13.57       1.0  T
   4    -13.8690641 -0.779874E-06  0.635E-03   13.57       4.2  T
   5    -13.8690641 -0.147393E-07  0.301E-03   13.57       8.9  T
   6    -13.8690641 -0.823264E-08  0.308E-04   13.57      86.7  T
   7    -13.8690641 -0.687166E-10  0.113E-04   13.57     236.7  T
     SCC iter.                  ...        0 min,  0.004 sec
     gradient                   ...        0 min,  0.002 sec
 * total energy  :   -13.6599554 Eh     change       -0.7459977E-03 Eh
   gradient norm :     0.0279234 Eh/α   predicted    -0.1421178E-02 (  90.51%)
   displ. norm   :     0.4227495 α      lambda       -0.1830997E-02
   maximum displ.:     0.2563402 α      in ANC's #1, #2, #24, ...

........................................................................
.............................. CYCLE   13 ..............................
........................................................................

 iter      E             dE          RMSdq      gap      omega  full diag
   1    -13.8621456 -0.138621E+02  0.154E-01   13.66       0.0  T
   2    -13.8621619 -0.163061E-04  0.880E-02   13.66       1.0  T
   3    -13.8621625 -0.598544E-06  0.206E-02   13.66       1.3  T
   4    -13.8621629 -0.428550E-06  0.419E-03   13.66       6.4  T
   5    -13.8621629 -0.183096E-07  0.228E-03   13.66      11.7  T
   6    -13.8621629 -0.234735E-08  0.262E-04   13.66     102.0  T
   7    -13.8621629 -0.491731E-10  0.110E-04   13.66     242.8  T
     SCC iter.                  ...        0 min,  0.004 sec
     gradient                   ...        0 min,  0.002 sec
 * total energy  :   -13.6611139 Eh     change       -0.1158536E-02 Eh
   gradient norm :     0.0184856 Eh/α   predicted    -0.1079116E-02 (  -6.86%)
   displ. norm   :     0.2219217 α      lambda       -0.1192697E-02
   maximum displ.:     0.1367897 α      in ANC's #1, #24, #3, ...

........................................................................
.............................. CYCLE   14 ..............................
........................................................................

 iter      E             dE          RMSdq      gap      omega  full diag
   1    -13.8689621 -0.138690E+02  0.939E-02   13.84       0.0  T
   2    -13.8689699 -0.781695E-05  0.527E-02   13.85       1.0  T
   3    -13.8689703 -0.413730E-06  0.136E-02   13.85       2.0  T
   4    -13.8689704 -0.513271E-07  0.290E-03   13.85       9.2  T
   5    -13.8689704 -0.148387E-08  0.753E-04   13.85      35.5  T
   6    -13.8689704 -0.780531E-10  0.134E-04   13.85     200.1  T
     SCC iter.                  ...        0 min,  0.003 sec
     gradient                   ...        0 min,  0.002 sec
 * total energy  :   -13.6618656 Eh     change       -0.7516165E-03 Eh
   gradient norm :     0.0096015 Eh/α   predicted    -0.6257175E-03 ( -16.75%)
   displ. norm   :     0.6190024 α      lambda       -0.1545572E-02
   maximum displ.:     0.3858208 α      in ANC's #1, #3, #24, ...

........................................................................
.............................. CYCLE   15 ..............................
........................................................................

 iter      E             dE          RMSdq      gap      omega  full diag
   1    -13.8664068 -0.138664E+02  0.181E-01   14.01       0.0  T
   2    -13.8664132 -0.641716E-05  0.108E-01   14.01       1.0  T
   3    -13.8664136 -0.444204E-06  0.841E-03   14.01       3.2  T
   4    -13.8664137 -0.986763E-07  0.299E-03   14.01       8.9  T
   5    -13.8664137 -0.374970E-08  0.121E-03   14.01      22.1  T
   6    -13.8664137 -0.140832E-08  0.214E-04   14.01     124.7  T
   7    -13.8664137 -0.332872E-10  0.910E-05   14.01     293.6  T
     SCC iter.                  ...        0 min,  0.004 sec
     gradient                   ...        0 min,  0.002 sec
 * total energy  :   -13.6629468 Eh     change       -0.1081271E-02 Eh
   gradient norm :     0.0123888 Eh/α   predicted    -0.1068895E-02 (  -1.14%)
   displ. norm   :     0.3651220 α      lambda       -0.1413833E-02
   maximum displ.:     0.2299143 α      in ANC's #1, #3, #24, ...

........................................................................
.............................. CYCLE   16 ..............................
........................................................................

 iter      E             dE          RMSdq      gap      omega  full diag
   1    -13.8775647 -0.138776E+02  0.157E-01   14.26       0.0  T
   2    -13.8775790 -0.142763E-04  0.896E-02   14.26       1.0  T
   3    -13.8775798 -0.846664E-06  0.177E-02   14.27       1.5  T
   4    -13.8775800 -0.240679E-06  0.444E-03   14.27       6.0  T
   5    -13.8775801 -0.900249E-08  0.211E-03   14.27      12.7  T
   6    -13.8775801 -0.230699E-08  0.263E-04   14.27     101.6  T
   7    -13.8775801 -0.678941E-10  0.116E-04   14.27     231.0  T
     SCC iter.                  ...        0 min,  0.004 sec
     gradient                   ...        0 min,  0.002 sec
 * total energy  :   -13.6634551 Eh     change       -0.5082489E-03 Eh
   gradient norm :     0.0171475 Eh/α   predicted    -0.8011597E-03 (  57.63%)
   displ. norm   :     0.3985853 α      lambda       -0.9901344E-03
   maximum displ.:     0.2363208 α      in ANC's #1, #3, #24, ...

........................................................................
.............................. CYCLE   17 ..............................
........................................................................

 iter      E             dE          RMSdq      gap      omega  full diag
   1    -13.8697443 -0.138697E+02  0.166E-01   14.14       0.0  T
   2    -13.8697557 -0.113937E-04  0.958E-02   14.14       1.0  T
   3    -13.8697562 -0.556793E-06  0.165E-02   14.14       1.6  T
   4    -13.8697567 -0.435131E-06  0.408E-03   14.14       6.5  T
   5    -13.8697567 -0.892977E-08  0.198E-03   14.14      13.5  T
   6    -13.8697567 -0.179997E-08  0.265E-04   14.14     100.8  T
   7    -13.8697567 -0.657856E-10  0.117E-04   14.14     227.8  T
     SCC iter.                  ...        0 min,  0.005 sec
     gradient                   ...        0 min,  0.002 sec
 * total energy  :   -13.6636042 Eh     change       -0.1490864E-03 Eh
   gradient norm :     0.0184113 Eh/α   predicted    -0.5737193E-03 ( 284.82%)
   displ. norm   :     0.1078572 α      lambda       -0.9102939E-03
   maximum displ.:     0.1002282 α      in ANC's #3, #5, #24, ...

........................................................................
.............................. CYCLE   18 ..............................
........................................................................

 iter      E             dE          RMSdq      gap      omega  full diag
   1    -13.8736987 -0.138737E+02  0.975E-02   14.25       0.0  T
   2    -13.8737062 -0.749433E-05  0.539E-02   14.25       1.0  T
   3    -13.8737066 -0.385833E-06  0.155E-02   14.25       1.7  T
   4    -13.8737069 -0.252070E-06  0.330E-03   14.25       8.1  T
   5    -13.8737069 -0.432461E-08  0.164E-03   14.25      16.3  T
   6    -13.8737069 -0.137782E-08  0.157E-04   14.25     170.4  T
   7    -13.8737069 -0.185487E-10  0.728E-05   14.25     367.1  T
     SCC iter.                  ...        0 min,  0.004 sec
     gradient                   ...        0 min,  0.002 sec
 * total energy  :   -13.6639554 Eh     change       -0.3512516E-03 Eh
   gradient norm :     0.0067791 Eh/α   predicted    -0.4604416E-03 (  31.09%)
   displ. norm   :     0.0842410 α      lambda       -0.2187855E-03
   maximum displ.:     0.0459829 α      in ANC's #3, #5, #2, ...

........................................................................
.............................. CYCLE   19 ..............................
........................................................................

 iter      E             dE          RMSdq      gap      omega  full diag
   1    -13.8758046 -0.138758E+02  0.569E-02   14.26       0.0  T
   2    -13.8758073 -0.270157E-05  0.319E-02   14.26       1.0  T
   3    -13.8758075 -0.144392E-06  0.788E-03   14.26       3.4  T
   4    -13.8758075 -0.217970E-07  0.172E-03   14.26      15.5  T
   5    -13.8758075 -0.585901E-09  0.461E-04   14.26      58.0  T
   6    -13.8758075 -0.254991E-09  0.108E-04   14.26     246.8  T
     SCC iter.                  ...        0 min,  0.003 sec
     gradient                   ...        0 min,  0.002 sec
 * total energy  :   -13.6640265 Eh     change       -0.7106515E-04 Eh
   gradient norm :     0.0061034 Eh/α   predicted    -0.1101694E-03 (  55.03%)
   displ. norm   :     0.1821764 α      lambda       -0.1904291E-03
   maximum displ.:     0.1460771 α      in ANC's #1, #3, #24, ...

........................................................................
.............................. CYCLE   20 ..............................
........................................................................

 iter      E             dE          RMSdq      gap      omega  full diag
   1    -13.8740044 -0.138740E+02  0.667E-02   14.29       0.0  T
   2    -13.8740048 -0.466618E-06  0.396E-02   14.29       1.0  T
   3    -13.8740049 -0.937249E-07  0.304E-03   14.29       8.8  T
   4    -13.8740049 -0.225387E-07  0.141E-03   14.29      18.9  T
   5    -13.8740049 -0.169847E-08  0.216E-04   14.29     124.0  T
   6    -13.8740049 -0.121343E-10  0.884E-05   14.29     302.2  T
     SCC iter.                  ...        0 min,  0.010 sec
     gradient                   ...        0 min,  0.002 sec
 * total energy  :   -13.6640122 Eh     change        0.1427937E-04 Eh
   gradient norm :     0.0097881 Eh/α   predicted    -0.9837579E-04 (-788.94%)
   displ. norm   :     0.0786335 α      lambda       -0.2075346E-03
   maximum displ.:     0.0485469 α      in ANC's #1, #5, #24, ...
 * RMSD in coord.:     1.4214019 α      energy gain  -0.1189297E-01 Eh

generating ANC from exact Hessian ...
Using Lindh-Hessian (1995)
 Shifting diagonal of input Hessian by    5.8746033995331331E-003
 Lowest  eigenvalues of input Hessian
    0.000000    0.000000    0.000000    0.000000    0.000000    0.000000
    0.010000    0.012708    0.013919    0.020812    0.024704    0.046189
    0.051426    0.058691    0.059351    0.061270    0.062442    0.067843
 Highest eigenvalues
    1.132440    1.159786    1.166642    1.212161    1.247834    1.278108


........................................................................
.............................. CYCLE   21 ..............................
........................................................................

 iter      E             dE          RMSdq      gap      omega  full diag
   1    -13.8759113 -0.138759E+02  0.401E-02   14.27       0.0  T
   2    -13.8759123 -0.994164E-06  0.228E-02   14.28       1.2  T
   3    -13.8759124 -0.731659E-07  0.497E-03   14.27       5.4  T
   4    -13.8759124 -0.314769E-07  0.135E-03   14.27      19.7  T
   5    -13.8759124 -0.120270E-08  0.569E-04   14.27      47.0  T
   6    -13.8759124 -0.261753E-09  0.109E-04   14.27     244.4  T
     SCC iter.                  ...        0 min,  0.003 sec
     gradient                   ...        0 min,  0.002 sec
 * total energy  :   -13.6640990 Eh     change       -0.8681920E-04 Eh
   gradient norm :     0.0046390 Eh/α   predicted     0.0000000E+00 (-100.00%)
   displ. norm   :     0.0349594 α      lambda       -0.5507015E-04
   maximum displ.:     0.0249144 α      in ANC's #2, #3, #4, ...

........................................................................
.............................. CYCLE   22 ..............................
........................................................................

 iter      E             dE          RMSdq      gap      omega  full diag
   1    -13.8751035 -0.138751E+02  0.227E-02   14.27       0.0  T
   2    -13.8751037 -0.235768E-06  0.130E-02   14.27       2.1  T
   3    -13.8751037 -0.187683E-08  0.269E-03   14.27       9.9  T
   4    -13.8751037 -0.183991E-07  0.503E-04   14.27      53.1  T
   5    -13.8751037 -0.215422E-09  0.246E-04   14.27     108.4  T
     SCC iter.                  ...        0 min,  0.003 sec
     gradient                   ...        0 min,  0.002 sec
 * total energy  :   -13.6641351 Eh     change       -0.3606057E-04 Eh
   gradient norm :     0.0015921 Eh/α   predicted    -0.2756765E-04 ( -23.55%)
   displ. norm   :     0.0639750 α      lambda       -0.2096566E-04
   maximum displ.:     0.0443988 α      in ANC's #2, #3, #4, ...

........................................................................
.............................. CYCLE   23 ..............................
........................................................................

 iter      E             dE          RMSdq      gap      omega  full diag
   1    -13.8744250 -0.138744E+02  0.205E-02   14.27       0.0  T
   2    -13.8744252 -0.129313E-06  0.120E-02   14.27       2.2  T
   3    -13.8744252 -0.708816E-08  0.170E-03   14.27      15.8  T
   4    -13.8744252 -0.565687E-08  0.468E-04   14.27      57.1  T
   5    -13.8744252 -0.274614E-09  0.210E-04   14.27     127.1  T
     SCC iter.                  ...        0 min,  0.003 sec
     gradient                   ...        0 min,  0.002 sec
 * total energy  :   -13.6641506 Eh     change       -0.1550374E-04 Eh
   gradient norm :     0.0020147 Eh/α   predicted    -0.1050311E-04 ( -32.25%)
   displ. norm   :     0.0259330 α      lambda       -0.8533641E-05
   maximum displ.:     0.0171169 α      in ANC's #3, #4, #2, ...

........................................................................
.............................. CYCLE   24 ..............................
........................................................................

 iter      E             dE          RMSdq      gap      omega  full diag
   1    -13.8745978 -0.138746E+02  0.777E-03   14.27       0.0  T
   2    -13.8745978 -0.515402E-08  0.465E-03   14.27       5.7  T
   3    -13.8745978 -0.810729E-09  0.285E-04   14.27      93.9  T
   4    -13.8745978 -0.232456E-09  0.130E-04   14.27     206.1  T
     SCC iter.                  ...        0 min,  0.002 sec
     gradient                   ...        0 min,  0.002 sec
 * total energy  :   -13.6641580 Eh     change       -0.7442202E-05 Eh
   gradient norm :     0.0015308 Eh/α   predicted    -0.4268282E-05 ( -42.65%)
   displ. norm   :     0.1196517 α      lambda       -0.2045313E-04
   maximum displ.:     0.0773059 α      in ANC's #3, #1, #4, ...

........................................................................
.............................. CYCLE   25 ..............................
........................................................................

 iter      E             dE          RMSdq      gap      omega  full diag
   1    -13.8750067 -0.138750E+02  0.337E-02   14.27       0.0  T
   2    -13.8750068 -0.792960E-07  0.202E-02   14.27       1.3  T
   3    -13.8750068 -0.891501E-08  0.122E-03   14.27      21.8  T
   4    -13.8750068 -0.716618E-08  0.471E-04   14.27      56.7  T
   5    -13.8750068 -0.105388E-09  0.175E-04   14.27     152.8  T
     SCC iter.                  ...        0 min,  0.003 sec
     gradient                   ...        0 min,  0.002 sec
 * total energy  :   -13.6641707 Eh     change       -0.1263688E-04 Eh
   gradient norm :     0.0009948 Eh/α   predicted    -0.1029141E-04 ( -18.56%)
   displ. norm   :     0.0125122 α      lambda       -0.2645267E-05
   maximum displ.:     0.0075095 α      in ANC's #4, #1, #2, ...

........................................................................
.............................. CYCLE   26 ..............................
........................................................................

 iter      E             dE          RMSdq      gap      omega  full diag
   1    -13.8750737 -0.138751E+02  0.632E-03   14.27       0.0  T
   2    -13.8750737 -0.195931E-07  0.361E-03   14.27       7.4  T
   3    -13.8750737 -0.144983E-08  0.655E-04   14.27      40.8  T
   4    -13.8750737 -0.427340E-09  0.178E-04   14.27     150.0  T
     SCC iter.                  ...        0 min,  0.002 sec
     gradient                   ...        0 min,  0.002 sec
 * total energy  :   -13.6641730 Eh     change       -0.2380805E-05 Eh
   gradient norm :     0.0003080 Eh/α   predicted    -0.1323425E-05 ( -44.41%)
   displ. norm   :     0.0161932 α      lambda       -0.1133709E-05
   maximum displ.:     0.0142802 α      in ANC's #1, #3, #4, ...

........................................................................
.............................. CYCLE   27 ..............................
........................................................................

 iter      E             dE          RMSdq      gap      omega  full diag
   1    -13.8749679 -0.138750E+02  0.552E-03   14.26       0.0  T
   2    -13.8749679 -0.270185E-08  0.326E-03   14.26       8.2  T
   3    -13.8749679 -0.362482E-09  0.244E-04   14.26     109.6  T
   4    -13.8749679 -0.224381E-09  0.101E-04   14.26     263.5  T
     SCC iter.                  ...        0 min,  0.002 sec
     gradient                   ...        0 min,  0.002 sec
 * total energy  :   -13.6641743 Eh     change       -0.1296452E-05 Eh
   gradient norm :     0.0002226 Eh/α   predicted    -0.5686770E-06 ( -56.14%)
   displ. norm   :     0.0148398 α      lambda       -0.7180989E-06
   maximum displ.:     0.0131204 α      in ANC's #1, #4, #3, ...

........................................................................
.............................. CYCLE   28 ..............................
........................................................................

 iter      E             dE          RMSdq      gap      omega  full diag
   1    -13.8749698 -0.138750E+02  0.438E-03   14.26       0.0  T
   2    -13.8749698 -0.710058E-09  0.262E-03   14.26      10.2  T
   3    -13.8749698 -0.243938E-09  0.125E-04   14.26     213.7  T
   4    -13.8749698 -0.153069E-10  0.540E-05   14.26     494.9  T
     SCC iter.                  ...        0 min,  0.002 sec
     gradient                   ...        0 min,  0.002 sec
 * total energy  :   -13.6641752 Eh     change       -0.8839617E-06 Eh
   gradient norm :     0.0001968 Eh/α   predicted    -0.3603133E-06 ( -59.24%)
   displ. norm   :     0.0122641 α      lambda       -0.4297171E-06
   maximum displ.:     0.0110162 α      in ANC's #1, #3, #2, ...

   *** GEOMETRY OPTIMIZATION CONVERGED AFTER 28 ITERATIONS ***

------------------------------------------------------------------------
 total energy gain   :        -0.0120560 Eh       -7.5653 kcal/mol
 total RMSD          :         1.3840757 a0        0.7324 Å
 total power (kW/mol):        -1.1304646 (step) -151.0109 (real)
------------------------------------------------------------------------

 ANCopt (total)                0 d,  0 h,  0 min,  0.210 sec
 optimizer setup                ...        0 min,  0.000 sec (  0.060%)
 model hessian                  ...        0 min,  0.015 sec (  7.157%)
 ANC generation                 ...        0 min,  0.001 sec (  0.496%)
 coordinate transformation      ...        0 min,  0.000 sec (  0.108%)
 single point calculation       ...        0 min,  0.181 sec ( 86.401%)
 optimization log               ...        0 min,  0.003 sec (  1.515%)
 hessian update                 ...        0 min,  0.002 sec (  1.152%)
 rational function              ...        0 min,  0.005 sec (  2.181%)

================
 final structure:
================
14
 xtb: 6.7.1 (edcfbbe)
C           -0.98656682681195        0.90358254445202        0.33025886824932
H           -0.16529105266691        1.19970276101379        0.97747142849966
H           -0.93853570375874        1.49565775149735       -0.58142431363861
H           -0.84856913531103       -0.14290055597956        0.06695391868714
C           -2.32942280418480        1.10173009373482        1.02392557526697
H           -2.34216778017550        0.53420842555249        1.95750998831625
H           -3.11952522156506        0.70132616867042        0.38353316757398
C           -2.64173565457495        2.56839033808355        1.32297650799865
H           -2.58542517925529        3.14368329806606        0.39589214454568
H           -3.66799284682831        2.63732772559724        1.69214390928718
C           -1.70496051049049        3.18247708836203        2.35684615726100
H           -0.68462170756367        3.22193400262216        1.98483539448243
H           -2.01747257702401        4.19720697524232        2.59350246973645
H           -1.71560699978905        2.59777378308573        3.27431712373375

 Bond Distances (Angstroems)
 ---------------------------
C1-H2=1.0868         C1-H3=1.0881         C1-H4=1.0879         C1-C5=1.5244         H2-C1=1.0868         H3-C1=1.0881         
H4-C1=1.0879         C5-C1=1.5244         C5-H6=1.0926         C5-H7=1.0930         C5-C8=1.5291         H6-C5=1.0926         
H7-C5=1.0930         C8-C5=1.5291         C8-H9=1.0925         C8-H10=1.0928        C8-C11=1.5243        H9-C8=1.0925         
H10-C8=1.0928        C11-C8=1.5243        C11-H12=1.0868       C11-H13=1.0878       C11-H14=1.0880       H12-C11=1.0868       
H13-C11=1.0878       H14-C11=1.0880       
 C  H  Rav=1.0896 sigma=0.0026  Rmin=1.0868  Rmax=1.0930    10
 C  C  Rav=1.5259 sigma=0.0022  Rmin=1.5243  Rmax=1.5291     3

 selected bond angles (degree)
 --------------------
H3-C1-H2=108.50                H4-C1-H2=108.08                H4-C1-H3=108.36                C5-C1-H2=111.06                
C5-C1-H3=110.45                C5-C1-H4=110.30                H6-C5-C1=109.36                H7-C5-C1=108.82                
H7-C5-H6=107.57                C8-C5-C1=113.18                C8-C5-H6=109.19                C8-C5-H7=108.56                
H9-C8-C5=109.18                H10-C8-C5=108.57               H10-C8-H9=107.57               C11-C8-C5=113.18               
C11-C8-H9=109.37               C11-C8-H10=108.82              

 selected dihedral angles (degree)
 ---------------------------------
H6-C5-C1-H2=302.86            H6-C5-C1-H3=182.42            H6-C5-C1-H4= 62.66            H7-C5-C1-H2=185.61            
H7-C5-C1-H3= 65.17            H7-C5-C1-H4=305.41            C8-C5-C1-H2= 64.83            C8-C5-C1-H3=304.40            
C8-C5-C1-H4=184.63            H9-C8-C5-C1= 55.45            H9-C8-C5-H6=177.52            H9-C8-C5-H7=294.52            
H10-C8-C5-C1=172.45           H10-C8-C5-H6=294.52           H10-C8-C5-H7= 51.52           C11-C8-C5-C1=293.37           
C11-C8-C5-H6= 55.44           C11-C8-C5-H7=172.45           
           -------------------------------------------------
          |                Final Singlepoint                |
           -------------------------------------------------

          ...................................................
          :                      SETUP                      :
          :.................................................:
          :  # basis functions                  26          :
          :  # atomic orbitals                  26          :
          :  # shells                           18          :
          :  # electrons                        26          :
          :  max. iterations                   250          :
          :  Hamiltonian                  GFN2-xTB          :
          :  restarted?                      false          :
          :  GBSA solvation                  false          :
          :  PC potential                    false          :
          :  electronic temp.          300.0000000     K    :
          :  accuracy                    1.0000000          :
          :  -> integral cutoff          0.2500000E+02      :
          :  -> integral neglect         0.1000000E-07      :
          :  -> SCF convergence          0.1000000E-05 Eh   :
          :  -> wf. convergence          0.1000000E-03 e    :
          :  Broyden damping             0.4000000          :
          :  net charge                          0          :
          :  unpaired electrons                  0          :
          ...................................................

 iter      E             dE          RMSdq      gap      omega  full diag
   1    -13.8749698 -0.138750E+02  0.860E-06   14.26       0.0  T
   2    -13.8749698 -0.319744E-13  0.499E-06   14.26    5351.4  T
   3    -13.8749698  0.532907E-14  0.120E-06   14.26   22307.9  T

   *** convergence criteria satisfied after 3 iterations ***

         #    Occupation            Energy/Eh            Energy/eV
      -------------------------------------------------------------
         1        2.0000           -0.6178037             -16.8113
       ...           ...                  ...                  ...
         7        2.0000           -0.4848683             -13.1939
         8        2.0000           -0.4664533             -12.6928
         9        2.0000           -0.4618450             -12.5674
        10        2.0000           -0.4480537             -12.1922
        11        2.0000           -0.4257986             -11.5866
        12        2.0000           -0.4233538             -11.5200
        13        2.0000           -0.4223132             -11.4917 (HOMO)
        14                          0.1017891               2.7698 (LUMO)
        15                          0.1111584               3.0248
        16                          0.1369907               3.7277
        17                          0.1488539               4.0505
        18                          0.1501391               4.0855
       ...                                ...                  ...
        26                          0.2990842               8.1385
      -------------------------------------------------------------
                  HL-Gap            0.5241023 Eh           14.2615 eV
             Fermi-level           -0.1602621 Eh           -4.3610 eV

 SCC (total)                   0 d,  0 h,  0 min,  0.005 sec
 SCC setup                      ...        0 min,  0.001 sec ( 11.651%)
 Dispersion                     ...        0 min,  0.000 sec (  1.975%)
 classical contributions        ...        0 min,  0.000 sec (  0.927%)
 integral evaluation            ...        0 min,  0.001 sec ( 13.662%)
 iterations                     ...        0 min,  0.001 sec ( 29.517%)
 molecular gradient             ...        0 min,  0.002 sec ( 37.069%)
 printout                       ...        0 min,  0.000 sec (  4.823%)

         :::::::::::::::::::::::::::::::::::::::::::::::::::::
         ::                     SUMMARY                     ::
         :::::::::::::::::::::::::::::::::::::::::::::::::::::
         :: total energy             -13.664175222468 Eh    ::
         :: gradient norm              0.000196819151 Eh/a0 ::
         :: HOMO-LUMO gap             14.261549998447 eV    ::
         ::.................................................::
         :: SCC energy               -13.874962690640 Eh    ::
         :: -> isotropic ES            0.002972528451 Eh    ::
         :: -> anisotropic ES          0.004965501665 Eh    ::
         :: -> anisotropic XC          0.008997040012 Eh    ::
         :: -> dispersion             -0.006305606887 Eh    ::
         :: repulsion energy           0.210787468172 Eh    ::
         :: add. restraining           0.000000000000 Eh    ::
         :: total charge              -0.000000000000 e     ::
         :::::::::::::::::::::::::::::::::::::::::::::::::::::

           -------------------------------------------------
          |                Property Printout                |
           -------------------------------------------------

    * Orbital Energies and Occupations

         #    Occupation            Energy/Eh            Energy/eV
      -------------------------------------------------------------
         1        2.0000           -0.6178037             -16.8113
         2        2.0000           -0.5960178             -16.2185
         3        2.0000           -0.5731815             -15.5971
         4        2.0000           -0.5474203             -14.8961
         5        2.0000           -0.5064065             -13.7800
         6        2.0000           -0.5060395             -13.7700
         7        2.0000           -0.4848683             -13.1939
         8        2.0000           -0.4664533             -12.6928
         9        2.0000           -0.4618450             -12.5674
        10        2.0000           -0.4480537             -12.1922
        11        2.0000           -0.4257986             -11.5866
        12        2.0000           -0.4233538             -11.5200
        13        2.0000           -0.4223132             -11.4917 (HOMO)
        14                          0.1017891               2.7698 (LUMO)
        15                          0.1111584               3.0248
        16                          0.1369907               3.7277
        17                          0.1488539               4.0505
        18                          0.1501391               4.0855
        19                          0.1577929               4.2938
        20                          0.2029335               5.5221
        21                          0.2064259               5.6171
        22                          0.2346225               6.3844
        23                          0.2484187               6.7598
        24                          0.2786600               7.5827
       ...                                ...                  ...
        26                          0.2990842               8.1385
      -------------------------------------------------------------
                  HL-Gap            0.5241023 Eh           14.2615 eV
             Fermi-level           -0.1602621 Eh           -4.3610 eV

     #   Z          covCN         q      C6AA      α(0)
     1   6 C        3.751    -0.101    22.493     6.764
     2   1 H        0.925     0.035     2.510     2.478
     3   1 H        0.925     0.033     2.550     2.497
     4   1 H        0.925     0.030     2.586     2.515
     5   6 C        3.800    -0.052    21.517     6.605
     6   1 H        0.924     0.030     2.594     2.518
     7   1 H        0.924     0.026     2.644     2.543
     8   6 C        3.800    -0.053    21.518     6.605
     9   1 H        0.924     0.030     2.593     2.518
    10   1 H        0.924     0.026     2.643     2.543
    11   6 C        3.751    -0.101    22.494     6.764
    12   1 H        0.925     0.035     2.510     2.478
    13   1 H        0.925     0.030     2.586     2.515
    14   1 H        0.925     0.033     2.549     2.497

 Mol. C6AA /au·bohr⁶  :       1208.197888
 Mol. C8AA /au·bohr⁸  :      24487.240924
 Mol. α(0) /au        :         51.836870


Wiberg/Mayer (AO) data.
largest (>0.10) Wiberg bond orders for each atom

 ---------------------------------------------------------------------------
     #   Z sym  total        # sym  WBO       # sym  WBO       # sym  WBO
 ---------------------------------------------------------------------------
     1   6 C    3.997 --     5 C    1.020     3 H    0.988     4 H    0.988
                             2 H    0.986
     2   1 H    0.999 --     1 C    0.986
     3   1 H    0.999 --     1 C    0.988
     4   1 H    0.999 --     1 C    0.988
     5   6 C    3.998 --     1 C    1.020     8 C    1.008     7 H    0.979
                             6 H    0.978
     6   1 H    0.999 --     5 C    0.978
     7   1 H    0.999 --     5 C    0.979
     8   6 C    3.998 --    11 C    1.020     5 C    1.008    10 H    0.979
                             9 H    0.978
     9   1 H    0.999 --     8 C    0.978
    10   1 H    0.999 --     8 C    0.979
    11   6 C    3.997 --     8 C    1.020    14 H    0.988    13 H    0.988
                            12 H    0.986
    12   1 H    0.999 --    11 C    0.986
    13   1 H    0.999 --    11 C    0.988
    14   1 H    0.999 --    11 C    0.988
 ---------------------------------------------------------------------------

Topologies differ in total number of bonds
Writing topology from bond orders to xtbtopo.mol

molecular dipole:
                 x           y           z       tot (Debye)
 q only:        0.016       0.003       0.002
   full:        0.012       0.002       0.002       0.032
molecular quadrupole (traceless):
                xx          xy          yy          xz          yz          zz
 q only:       -0.039       0.092       0.036       0.062       0.046       0.003
  q+dip:       -0.267       0.127      -0.061       0.065      -0.505       0.328
   full:       -0.162       0.092      -0.002       0.052      -0.222       0.164

           -------------------------------------------------
          |                Geometry Summary                 |
           -------------------------------------------------

      molecular mass/u    :       58.1223511
   center of mass at/Å    :       -1.8970899       1.9424350       1.2612717
Note: The following floating-point exceptions are signalling: IEEE_UNDERFLOW_FLAG IEEE_DENORMAL
normal termination of xtb
  moments of inertia/u·Å² :        0.3776680E+02   0.1051027E+03   0.1227355E+03
rotational constants/cm⁻¹ :        0.4463611E+00   0.1603921E+00   0.1373492E+00

 * 13 selected distances

     #   Z          #   Z                                           value/Å
     1   6 C        2   1 H                                       1.0867683
     1   6 C        3   1 H                                       1.0881298
     1   6 C        4   1 H                                       1.0878878
     1   6 C        5   6 C                                       1.5243682
     5   6 C        6   1 H                                       1.0926222
     5   6 C        7   1 H                                       1.0930177
     5   6 C        8   6 C                                       1.5290728 (max)
     8   6 C        9   1 H                                       1.0925285
     8   6 C       10   1 H                                       1.0928133
     8   6 C       11   6 C                                       1.5243153
    11   6 C       12   1 H                                       1.0867568 (min)
    11   6 C       13   1 H                                       1.0878175
    11   6 C       14   1 H                                       1.0880002

 * 2 distinct bonds (by element types)

   Z      Z             #   av. dist./Å        max./Å        min./Å
   1 H    6 C          10     1.0896342     1.0930177     1.0867568
   6 C    6 C           3     1.5259188     1.5290728     1.5243153


optimized geometry written to: xtbopt.xyz


           -------------------------------------------------
          | TOTAL ENERGY              -13.664175222468 Eh   |
          | GRADIENT NORM               0.000196819151 Eh/α |
          | HOMO-LUMO GAP              14.261549998447 eV   |
           -------------------------------------------------

------------------------------------------------------------------------
 * finished run on 2026/08/11 at 11:11:55.271     
------------------------------------------------------------------------
 total:
 * wall-time:     0 d,  0 h,  0 min,  0.346 sec
 *  cpu-time:     0 d,  0 h,  0 min,  1.324 sec
 * ratio c/w:     3.822 speedup
 SCF:
 * wall-time:     0 d,  0 h,  0 min,  0.091 sec
 *  cpu-time:     0 d,  0 h,  0 min,  0.342 sec
 * ratio c/w:     3.765 speedup
 ANC optimizer:
 * wall-time:     0 d,  0 h,  0 min,  0.216 sec
 *  cpu-time:     0 d,  0 h,  0 min,  0.829 sec
 * ratio c/w:     3.841 speedup

