14
 energy: -13.664175222468 gnorm: 0.000196819151 xtb: 6.7.1 (edcfbbe)
C           -0.98656682681195        0.90358254445202        0.33025886824932
H           -0.16529105266691        1.19970276101379        0.97747142849966
H           -0.93853570375874        1.49565775149735       -0.58142431363861
H           -0.84856913531103       -0.14290055597956        0.06695391868714
C           -2.32942280418480        1.10173009373482        1.02392557526697
H           -2.34216778017550        0.53420842555249        1.95750998831625
H           -3.11952522156506        0.70132616867042        0.38353316757398
C           -2.64173565457495        2.56839033808355        1.32297650799865
H           -2.58542517925529        3.14368329806606        0.39589214454568
H           -3.66799284682831        2.63732772559724        1.69214390928718
C           -1.70496051049049        3.18247708836203        2.35684615726100
H           -0.68462170756367        3.22193400262216        1.98483539448243
H           -2.01747257702401        4.19720697524232        2.59350246973645
H           -1.71560699978905        2.59777378308573        3.27431712373375
