%mem=1GB
%nprocshared=1
%chk=GauHarm.chk
#p Amber=(SoftOnly,Print) nosymm  Freq=intmodes
 
Title

0 1
C-CT-0.00  1.956897  -0.120392  0.000000
H-HC-0.00  2.742005  0.637259  -0.000000
H-HC-0.00  2.103753  -0.749379  -0.880760
H-HC-0.00  2.103753  -0.749379  0.880760
C-CT-0.00  0.566957  0.512915  -0.000000
H-HC-0.00  0.461751  1.163403  -0.874026
H-HC-0.00  0.461751  1.163404  0.874026
C-CT-0.00  -0.566957  -0.512915  -0.000000
H-HC-0.00  -0.461751  -1.163403  -0.874026
H-HC-0.00  -0.461751  -1.163404  0.874026
C-CT-0.00  -1.956897  0.120392  0.000000
H-HC-0.00  -2.103753  0.749379  -0.880760
H-HC-0.00  -2.742005  -0.637259  0.000000
H-HC-0.00  -2.103753  0.749379  0.880760

! Master function
NonBon 3 1 0 0 0.000 0.000 0.500 0.000 0.000 -1.2
! SMARTFIELD FF
!Bonds
HrmStr1 CT CT  1.0 1.528
HrmStr1 CT HC  1.0 1.093
!Angles
HrmBnd1 CT CT CT  1.0 113.369
HrmBnd1 CT CT HC  1.0 110.156
HrmBnd1 HC CT HC  1.0 110.156

