%mem=1GB
%nprocshared=1
%chk=smartfield4gau.chk
#p Amber=(SoftFirst,Print) nosymm geom=nocrowd opt Freq
 
Title

0 1
C-CT--0.267532  1.956897  -0.120392  0.000000
H-HC-+0.083821  2.742005  0.637259  -0.000000
H-HC-+0.077363  2.103753  -0.749379  -0.880760
H-HC-+0.077360  2.103753  -0.749379  0.880760
C-CT--0.092257  0.566957  0.512915  -0.000000
H-HC-+0.060623  0.461751  1.163403  -0.874026
H-HC-+0.060622  0.461751  1.163404  0.874026
C-CT--0.092258  -0.566957  -0.512915  -0.000000
H-HC-+0.060627  -0.461751  -1.163403  -0.874026
H-HC-+0.060618  -0.461751  -1.163404  0.874026
C-CT--0.267532  -1.956897  0.120392  0.000000
H-HC-+0.077330  -2.103753  0.749379  -0.880760
H-HC-+0.083821  -2.742005  -0.637259  0.000000
H-HC-+0.077394  -2.103753  0.749379  0.880760

! Master function
NonBon 3 1 0 0 0.000 0.000 0.500 0.000 0.000 -1.2
! SMARTFIELD FF
!Bonds
HrmStr1 CT CT  302.209  1.528
HrmStr1 CT HC  368.267  1.093
!Angles
HrmBnd1 CT CT CT  53.412  113.369
HrmBnd1 CT CT HC  45.920  110.156
HrmBnd1 HC CT CT  45.920  110.156
HrmBnd1 HC CT HC  42.554  107.190
! Torsions
AmbTrs CT CT CT CT 0 0 0 0  0.00 0.00 1.92 0.  9.0
AmbTrs CT CT CT HC 0 0 0 0  0.00 0.00 1.96 0.  9.0
AmbTrs HC CT CT CT 0 0 0 0  0.00 0.00 1.96 0.  9.0
AmbTrs HC CT CT HC 0 0 0 0  0.00 0.00 2.23 0.  9.0

