      -----------------------------------------------------------      
     |                   =====================                   |     
     |                           x T B                           |     
     |                   =====================                   |     
     |                         S. Grimme                         |     
     |          Mulliken Center for Theoretical Chemistry        |     
     |                    University of Bonn                     |     
      -----------------------------------------------------------      

   * xtb version 6.7.1 (edcfbbe) compiled by 'conda@5dfe00f5fb80' on 2026-06-10

   xtb is free software: you can redistribute it and/or modify it under
   the terms of the GNU Lesser General Public License as published by
   the Free Software Foundation, either version 3 of the License, or
   (at your option) any later version.
   
   xtb is distributed in the hope that it will be useful,
   but WITHOUT ANY WARRANTY; without even the implied warranty of
   MERCHANTABILITY or FITNESS FOR A PARTICULAR PURPOSE.  See the
   GNU Lesser General Public License for more details.
   
   Cite this work as:
   * C. Bannwarth, E. Caldeweyher, S. Ehlert, A. Hansen, P. Pracht,
     J. Seibert, S. Spicher, S. Grimme, WIREs Comput. Mol. Sci., 2020, 11,
     e01493. DOI: 10.1002/wcms.1493
   
   for GFN2-xTB:
   * C. Bannwarth, S. Ehlert and S. Grimme., J. Chem. Theory Comput., 2019,
     15, 1652-1671. DOI: 10.1021/acs.jctc.8b01176
   for GFN1-xTB:
   * S. Grimme, C. Bannwarth, P. Shushkov, J. Chem. Theory Comput., 2017,
     13, 1989-2009. DOI: 10.1021/acs.jctc.7b00118
   for GFN0-xTB:
   * P. Pracht, E. Caldeweyher, S. Ehlert, S. Grimme, ChemRxiv, 2019, preprint.
     DOI: 10.26434/chemrxiv.8326202.v1
   for GFN-FF:
   * S. Spicher and S. Grimme, Angew. Chem. Int. Ed., 2020, 59, 15665-15673.
     DOI: 10.1002/anie.202004239
   
   for ALPB and GBSA implicit solvation:
   * S. Ehlert, M. Stahn, S. Spicher, S. Grimme, J. Chem. Theory Comput.,
     2021, 17, 4250-4261. DOI: 10.1021/acs.jctc.1c00471
   
   for ddCOSMO and CPCM-X implicit solvation:
   * M. Stahn, S. Ehlert, S. Grimme, J. Phys. Chem. A,
     2023, XX, XXXX-XXXX. DOI: 10.1021/acs.jpca.3c04382
   
   for DFT-D4:
   * E. Caldeweyher, C. Bannwarth and S. Grimme, J. Chem. Phys., 2017,
     147, 034112. DOI: 10.1063/1.4993215
   * E. Caldeweyher, S. Ehlert, A. Hansen, H. Neugebauer, S. Spicher,
     C. Bannwarth and S. Grimme, J. Chem. Phys., 2019, 150, 154122.
     DOI: 10.1063/1.5090222
   * E. Caldeweyher, J.-M. Mewes, S. Ehlert and S. Grimme, Phys. Chem. Chem. Phys.
     2020, 22, 8499-8512. DOI: 10.1039/D0CP00502A
   
   for sTDA-xTB:
   * S. Grimme and C. Bannwarth, J. Chem. Phys., 2016, 145, 054103.
     DOI: 10.1063/1.4959605
   
   in the mass-spec context:
   * V. Asgeirsson, C. Bauer and S. Grimme, Chem. Sci., 2017, 8, 4879.
     DOI: 10.1039/c7sc00601b
   * J. Koopman and S. Grimme, ACS Omega 2019, 4, 12, 15120-15133.
     DOI: 10.1021/acsomega.9b02011
   
   for metadynamics refer to:
   * S. Grimme, J. Chem. Theory Comput., 2019, 155, 2847-2862
     DOI: 10.1021/acs.jctc.9b00143
   
   for SPH calculations refer to:
   * S. Spicher and S. Grimme, J. Chem. Theory Comput., 2021, 17, 1701-1714
     DOI: 10.1021/acs.jctc.0c01306
   
   for ONIOM refer to:
   * C. Plett, A. Katbashev, S. Ehlert, S. Grimme, M. Bursch,
     Phys. Chem. Chem. Phys., 2023, 25, 17860-17868. DOI: 10.1039/D3CP02178E
   
   for DIPRO refer to:
   * J. Kohn, N. Gildemeister, S. Grimme, D. Fazzi, A. Hansen,
     J. Chem. Phys., 2023, just accepted.
   
   for PTB refer to:
   * S. Grimme, M. Mueller, A. Hansen, J. Chem. Phys., 2023, 158, 124111.
     DOI: 10.1063/5.0137838
   
   with help from (in alphabetical order)
   P. Atkinson, C. Bannwarth, F. Bohle, G. Brandenburg, E. Caldeweyher
   M. Checinski, S. Dohm, S. Ehlert, S. Ehrlich, I. Gerasimov, C. Hölzer
   A. Katbashev, J. Kohn, J. Koopman, C. Lavigne, S. Lehtola, F. März, M. Müller,
   F. Musil, H. Neugebauer, J. Pisarek, C. Plett, P. Pracht, F. Pultar,
   J. Seibert, P. Shushkov, S. Spicher, M. Stahn, M. Steiner, T. Strunk,
   J. Stückrath, T. Rose, and J. Unsleber
   
 * started run on 2026/08/17 at 12:14:22.960     
   ID    Z sym.   atoms
    1    6 C      1, 5, 8, 11
    2    1 H      2-4, 6, 7, 9, 10, 12-14

           -------------------------------------------------
          |                Calculation Setup                |
           -------------------------------------------------

          program call               : xtb input.xyz --gfn2 --opt tight --chrg 0 --uhf 0 --iterations 250
          coordinate file            : input.xyz
          omp threads                :                     4


           -------------------------------------------------
          |                 G F N 2 - x T B                 |
           -------------------------------------------------

        Reference                      10.1021/acs.jctc.8b01176
      * Hamiltonian:
        H0-scaling (s, p, d)           1.850000    2.230000    2.230000
        zeta-weighting                 0.500000
      * Dispersion:
        s8                             2.700000
        a1                             0.520000
        a2                             5.000000
        s9                             5.000000
      * Repulsion:
        kExp                           1.500000    1.000000
        rExp                           1.000000
      * Coulomb:
        alpha                          2.000000
        third order                    shell-resolved
        anisotropic                    true
        a3                             3.000000
        a5                             4.000000
        cn-shift                       1.200000
        cn-exp                         4.000000
        max-rad                        5.000000

q/qsh data taken from xtbrestart
CAMM data taken from xtbrestart

          ...................................................
          :                      SETUP                      :
          :.................................................:
          :  # basis functions                  26          :
          :  # atomic orbitals                  26          :
          :  # shells                           18          :
          :  # electrons                        26          :
          :  max. iterations                   250          :
          :  Hamiltonian                  GFN2-xTB          :
          :  restarted?                       true          :
          :  GBSA solvation                  false          :
          :  PC potential                    false          :
          :  electronic temp.          300.0000000     K    :
          :  accuracy                    1.0000000          :
          :  -> integral cutoff          0.2500000E+02      :
          :  -> integral neglect         0.1000000E-07      :
          :  -> SCF convergence          0.1000000E-05 Eh   :
          :  -> wf. convergence          0.1000000E-03 e    :
          :  Broyden damping             0.4000000          :
          :  net charge                          0          :
          :  unpaired electrons                  0          :
          ...................................................

 iter      E             dE          RMSdq      gap      omega  full diag
   1    -13.8583890 -0.138584E+02  0.111E+00   13.64       0.0  T
   2    -13.8585280 -0.138963E-03  0.665E-01   13.61       1.0  T
   3    -13.8585755 -0.474420E-04  0.589E-02   13.57       1.0  T
   4    -13.8585780 -0.255699E-05  0.245E-02   13.57       1.1  T
   5    -13.8585785 -0.497453E-06  0.491E-03   13.57       5.4  T
   6    -13.8585785 -0.260396E-07  0.199E-03   13.57      13.4  T
   7    -13.8585785 -0.299917E-08  0.246E-04   13.57     108.5  T
   8    -13.8585785 -0.630855E-10  0.108E-04   13.57     247.6  T

   *** convergence criteria satisfied after 8 iterations ***

         #    Occupation            Energy/Eh            Energy/eV
      -------------------------------------------------------------
         1        2.0000           -0.6176517             -16.8072
       ...           ...                  ...                  ...
         7        2.0000           -0.4808069             -13.0834
         8        2.0000           -0.4753760             -12.9356
         9        2.0000           -0.4499628             -12.2441
        10        2.0000           -0.4486352             -12.2080
        11        2.0000           -0.4310401             -11.7292
        12        2.0000           -0.4240945             -11.5402
        13        2.0000           -0.4110361             -11.1849 (HOMO)
        14                          0.0877962               2.3891 (LUMO)
        15                          0.0963877               2.6228
        16                          0.1173554               3.1934
        17                          0.1189728               3.2374
        18                          0.1517876               4.1304
       ...                                ...                  ...
        26                          0.3641249               9.9083
      -------------------------------------------------------------
                  HL-Gap            0.4988322 Eh           13.5739 eV
             Fermi-level           -0.1616199 Eh           -4.3979 eV

 SCC (total)                   0 d,  0 h,  0 min,  0.083 sec
 SCC setup                      ...        0 min,  0.003 sec (  3.230%)
 Dispersion                     ...        0 min,  0.011 sec ( 13.127%)
 classical contributions        ...        0 min,  0.003 sec (  3.449%)
 integral evaluation            ...        0 min,  0.011 sec ( 13.472%)
 iterations                     ...        0 min,  0.052 sec ( 62.721%)
 molecular gradient             ...        0 min,  0.003 sec (  3.586%)
 printout                       ...        0 min,  0.000 sec (  0.377%)

         :::::::::::::::::::::::::::::::::::::::::::::::::::::
         ::                     SUMMARY                     ::
         :::::::::::::::::::::::::::::::::::::::::::::::::::::
         :: total energy             -13.652223797548 Eh    ::
         :: gradient norm              0.021454035336 Eh/a0 ::
         :: HOMO-LUMO gap             13.573916266671 eV    ::
         ::.................................................::
         :: SCC energy               -13.858571323875 Eh    ::
         :: -> isotropic ES            0.003062890740 Eh    ::
         :: -> anisotropic ES          0.005442479832 Eh    ::
         :: -> anisotropic XC          0.009062872692 Eh    ::
         :: -> dispersion             -0.006373264983 Eh    ::
         :: repulsion energy           0.206347526327 Eh    ::
         :: add. restraining           0.000000000000 Eh    ::
         :: total charge              -0.000000000000 e     ::
         :::::::::::::::::::::::::::::::::::::::::::::::::::::

      ----------------------------------------------------------- 
     |                   =====================                   |
     |                        A N C O P T                        |
     |                   =====================                   |
     |               Approximate Normal Coordinate               |
     |                Rational Function Optimizer                |
      ----------------------------------------------------------- 
      ----------------------------------------------------------- 
     |                   =====================                   |
     |                        A N C O P T                        |
     |                   =====================                   |
     |               Approximate Normal Coordinate               |
     |                Rational Function Optimizer                |
      ----------------------------------------------------------- 

          ...................................................
          :                      SETUP                      :
          :.................................................:
          :   optimization level             tight          :
          :   max. optcycles                   200          :
          :   ANC micro-cycles                  20          :
          :   degrees of freedom                36          :
          :.................................................:
          :   RF solver                   davidson          :
          :   write xtbopt.log                true          :
          :   linear?                        false          :
          :   energy convergence         0.1000000E-05 Eh   :
          :   grad. convergence          0.8000000E-03 Eh/α :
          :   maxmium RF displ.          1.0000000          :
          :   Hlow (freq-cutoff)         0.1000000E-01      :
          :   Hmax (freq-cutoff)         5.0000000          :
          :   S6 in model hess.         20.0000000          :
          ...................................................

generating ANC from exact Hessian ...
Using Lindh-Hessian (1995)
 Shifting diagonal of input Hessian by    6.4730943557496194E-003
 Lowest  eigenvalues of input Hessian
    0.000000    0.000000    0.000000    0.000000    0.000000    0.000000
    0.010000    0.011915    0.014373    0.020224    0.027165    0.042986
    0.051497    0.057673    0.058497    0.060355    0.060852    0.069124
 Highest eigenvalues
    1.109802    1.130101    1.155091    1.187931    1.251692    1.268634


........................................................................
.............................. CYCLE    1 ..............................
........................................................................

 iter      E             dE          RMSdq      gap      omega  full diag
   1    -13.8585785 -0.138586E+02  0.216E-05   13.57       0.0  T
   2    -13.8585785 -0.424549E-12  0.122E-05   13.57    2194.4  T
   3    -13.8585785 -0.159872E-13  0.368E-06   13.57    7268.0  T
     SCC iter.                  ...        0 min,  0.002 sec
     gradient                   ...        0 min,  0.002 sec
 * total energy  :   -13.6522238 Eh     change       -0.1001510E-10 Eh
   gradient norm :     0.0214526 Eh/α   predicted     0.0000000E+00 (-100.00%)
   displ. norm   :     0.5939508 α      lambda       -0.7160365E-02
   maximum displ.:     0.5208679 α      in ANC's #1, #2, #3, ...

........................................................................
.............................. CYCLE    2 ..............................
........................................................................

 iter      E             dE          RMSdq      gap      omega  full diag
   1    -13.8637225 -0.138637E+02  0.187E-01   13.43       0.0  T
   2    -13.8637351 -0.125525E-04  0.110E-01   13.43       1.0  T
   3    -13.8637370 -0.189214E-05  0.165E-02   13.43       1.6  T
   4    -13.8637374 -0.432867E-06  0.672E-03   13.43       4.0  T
   5    -13.8637375 -0.519259E-07  0.903E-04   13.43      29.6  T
   6    -13.8637375 -0.924979E-09  0.421E-04   13.43      63.5  T
     SCC iter.                  ...        0 min,  0.003 sec
     gradient                   ...        0 min,  0.002 sec
 * total energy  :   -13.6559042 Eh     change       -0.3680423E-02 Eh
   gradient norm :     0.0090078 Eh/α   predicted    -0.4843194E-02 (  31.59%)
   displ. norm   :     0.2786872 α      lambda       -0.1204928E-02
   maximum displ.:     0.2081606 α      in ANC's #1, #4, #2, ...

........................................................................
.............................. CYCLE    3 ..............................
........................................................................

 iter      E             dE          RMSdq      gap      omega  full diag
   1    -13.8644067 -0.138644E+02  0.119E-01   13.53       0.0  T
   2    -13.8644076 -0.922325E-06  0.708E-02   13.53       1.0  T
   3    -13.8644078 -0.200438E-06  0.404E-03   13.53       6.6  T
   4    -13.8644078 -0.365020E-07  0.194E-03   13.53      13.7  T
   5    -13.8644078 -0.334932E-08  0.384E-04   13.53      69.5  T
   6    -13.8644078 -0.161165E-09  0.151E-04   13.53     176.6  T
     SCC iter.                  ...        0 min,  0.003 sec
     gradient                   ...        0 min,  0.002 sec
 * total energy  :   -13.6568983 Eh     change       -0.9940753E-03 Eh
   gradient norm :     0.0056551 Eh/α   predicted    -0.6492544E-03 ( -34.69%)
   displ. norm   :     0.5958570 α      lambda       -0.1829817E-02
   maximum displ.:     0.4075171 α      in ANC's #1, #2, #4, ...

........................................................................
.............................. CYCLE    4 ..............................
........................................................................

 iter      E             dE          RMSdq      gap      omega  full diag
   1    -13.8625328 -0.138625E+02  0.193E-01   13.67       0.0  T
   2    -13.8625363 -0.347995E-05  0.115E-01   13.66       1.0  T
   3    -13.8625368 -0.524137E-06  0.624E-03   13.67       4.3  T
   4    -13.8625369 -0.523281E-07  0.311E-03   13.67       8.6  T
   5    -13.8625369 -0.315010E-08  0.833E-04   13.67      32.1  T
   6    -13.8625369 -0.110515E-08  0.214E-04   13.67     124.8  T
     SCC iter.                  ...        0 min,  0.003 sec
     gradient                   ...        0 min,  0.002 sec
 * total energy  :   -13.6582231 Eh     change       -0.1324852E-02 Eh
   gradient norm :     0.0120846 Eh/α   predicted    -0.1239748E-02 (  -6.42%)
   displ. norm   :     0.4257967 α      lambda       -0.1008568E-02
   maximum displ.:     0.2656794 α      in ANC's #1, #2, #4, ...

........................................................................
.............................. CYCLE    5 ..............................
........................................................................

 iter      E             dE          RMSdq      gap      omega  full diag
   1    -13.8627032 -0.138627E+02  0.117E-01   13.76       0.0  T
   2    -13.8627042 -0.102551E-05  0.704E-02   13.76       1.0  T
   3    -13.8627043 -0.159228E-06  0.411E-03   13.76       6.5  T
   4    -13.8627044 -0.601285E-07  0.192E-03   13.76      13.9  T
   5    -13.8627044 -0.191808E-08  0.397E-04   13.76      67.4  T
   6    -13.8627044 -0.118037E-09  0.127E-04   13.76     210.9  T
     SCC iter.                  ...        0 min,  0.003 sec
     gradient                   ...        0 min,  0.002 sec
 * total energy  :   -13.6589550 Eh     change       -0.7318297E-03 Eh
   gradient norm :     0.0133292 Eh/α   predicted    -0.5957131E-03 ( -18.60%)
   displ. norm   :     0.2968877 α      lambda       -0.9948951E-03
   maximum displ.:     0.1992158 α      in ANC's #2, #1, #4, ...

........................................................................
.............................. CYCLE    6 ..............................
........................................................................

 iter      E             dE          RMSdq      gap      omega  full diag
   1    -13.8690785 -0.138691E+02  0.996E-02   13.90       0.0  T
   2    -13.8690810 -0.248189E-05  0.583E-02   13.90       1.0  T
   3    -13.8690812 -0.262033E-06  0.576E-03   13.90       4.6  T
   4    -13.8690813 -0.128461E-07  0.218E-03   13.90      12.2  T
   5    -13.8690813 -0.979538E-09  0.689E-04   13.90      38.8  T
   6    -13.8690813 -0.105416E-08  0.140E-04   13.90     190.3  T
     SCC iter.                  ...        0 min,  0.003 sec
     gradient                   ...        0 min,  0.002 sec
 * total energy  :   -13.6596029 Eh     change       -0.6479141E-03 Eh
   gradient norm :     0.0061543 Eh/α   predicted    -0.5412947E-03 ( -16.46%)
   displ. norm   :     0.3364043 α      lambda       -0.4120683E-03
   maximum displ.:     0.2347420 α      in ANC's #2, #1, #4, ...

........................................................................
.............................. CYCLE    7 ..............................
........................................................................

 iter      E             dE          RMSdq      gap      omega  full diag
   1    -13.8671496 -0.138671E+02  0.958E-02   13.95       0.0  T
   2    -13.8671511 -0.151715E-05  0.568E-02   13.95       1.0  T
   3    -13.8671512 -0.155046E-06  0.438E-03   13.95       6.1  T
   4    -13.8671512 -0.130953E-07  0.171E-03   13.95      15.6  T
   5    -13.8671512 -0.840457E-09  0.458E-04   13.95      58.3  T
   6    -13.8671512 -0.316271E-09  0.110E-04   13.95     243.0  T
     SCC iter.                  ...        0 min,  0.003 sec
     gradient                   ...        0 min,  0.002 sec
 * total energy  :   -13.6598301 Eh     change       -0.2272114E-03 Eh
   gradient norm :     0.0078237 Eh/α   predicted    -0.2293518E-03 (   0.94%)
   displ. norm   :     0.1494366 α      lambda       -0.2683518E-03
   maximum displ.:     0.0963459 α      in ANC's #2, #1, #3, ...

........................................................................
.............................. CYCLE    8 ..............................
........................................................................

 iter      E             dE          RMSdq      gap      omega  full diag
   1    -13.8706091 -0.138706E+02  0.540E-02   13.99       0.0  T
   2    -13.8706104 -0.134879E-05  0.314E-02   13.99       1.0  T
   3    -13.8706105 -0.819279E-07  0.492E-03   13.99       5.4  T
   4    -13.8706105 -0.832930E-08  0.127E-03   13.99      21.0  T
   5    -13.8706105 -0.402357E-09  0.496E-04   13.99      53.9  T
   6    -13.8706105 -0.231134E-09  0.829E-05   13.99     322.2  T
     SCC iter.                  ...        0 min,  0.022 sec
     gradient                   ...        0 min,  0.002 sec
 * total energy  :   -13.6600080 Eh     change       -0.1779066E-03 Eh
   gradient norm :     0.0047513 Eh/α   predicted    -0.1371718E-03 ( -22.90%)
   displ. norm   :     0.2384922 α      lambda       -0.2154397E-03
   maximum displ.:     0.1603059 α      in ANC's #2, #1, #3, ...

........................................................................
.............................. CYCLE    9 ..............................
........................................................................

 iter      E             dE          RMSdq      gap      omega  full diag
   1    -13.8703308 -0.138703E+02  0.681E-02   13.97       0.0  T
   2    -13.8703312 -0.354569E-06  0.407E-02   13.97       1.0  T
   3    -13.8703312 -0.504899E-07  0.235E-03   13.97      11.4  T
   4    -13.8703313 -0.161515E-07  0.102E-03   13.97      26.2  T
   5    -13.8703313 -0.478003E-09  0.270E-04   13.97      99.1  T
   6    -13.8703313 -0.714433E-10  0.769E-05   13.97     347.4  T
     SCC iter.                  ...        0 min,  0.003 sec
     gradient                   ...        0 min,  0.002 sec
 * total energy  :   -13.6601738 Eh     change       -0.1657672E-03 Eh
   gradient norm :     0.0055964 Eh/α   predicted    -0.1138473E-03 ( -31.32%)
   displ. norm   :     0.2896304 α      lambda       -0.2734915E-03
   maximum displ.:     0.1658640 α      in ANC's #2, #4, #1, ...

........................................................................
.............................. CYCLE   10 ..............................
........................................................................

 iter      E             dE          RMSdq      gap      omega  full diag
   1    -13.8695660 -0.138696E+02  0.849E-02   13.93       0.0  T
   2    -13.8695671 -0.101457E-05  0.506E-02   13.93       1.0  T
   3    -13.8695671 -0.391200E-07  0.462E-03   13.93       5.8  T
   4    -13.8695672 -0.932617E-07  0.136E-03   13.93      19.6  T
   5    -13.8695672 -0.421439E-09  0.371E-04   13.93      72.1  T
   6    -13.8695672 -0.424212E-10  0.699E-05   13.93     382.4  T
     SCC iter.                  ...        0 min,  0.005 sec
     gradient                   ...        0 min,  0.002 sec
 * total energy  :   -13.6603296 Eh     change       -0.1558671E-03 Eh
   gradient norm :     0.0092484 Eh/α   predicted    -0.1482176E-03 (  -4.91%)
   displ. norm   :     0.0826450 α      lambda       -0.1822182E-03
   maximum displ.:     0.0662645 α      in ANC's #4, #2, #3, ...

........................................................................
.............................. CYCLE   11 ..............................
........................................................................

 iter      E             dE          RMSdq      gap      omega  full diag
   1    -13.8701675 -0.138702E+02  0.352E-02   13.91       0.0  T
   2    -13.8701680 -0.525843E-06  0.202E-02   13.91       1.3  T
   3    -13.8701681 -0.437885E-07  0.381E-03   13.91       7.0  T
   4    -13.8701681 -0.161436E-07  0.102E-03   13.91      26.2  T
   5    -13.8701681 -0.264020E-09  0.369E-04   13.91      72.4  T
   6    -13.8701681 -0.111594E-09  0.490E-05   13.91     545.1  T
     SCC iter.                  ...        0 min,  0.003 sec
     gradient                   ...        0 min,  0.002 sec
 * total energy  :   -13.6604624 Eh     change       -0.1327913E-03 Eh
   gradient norm :     0.0055244 Eh/α   predicted    -0.9173091E-04 ( -30.92%)
   displ. norm   :     0.2506160 α      lambda       -0.2750211E-03
   maximum displ.:     0.1766852 α      in ANC's #4, #2, #1, ...

........................................................................
.............................. CYCLE   12 ..............................
........................................................................

 iter      E             dE          RMSdq      gap      omega  full diag
   1    -13.8683999 -0.138684E+02  0.751E-02   13.90       0.0  T
   2    -13.8684009 -0.982955E-06  0.448E-02   13.90       1.0  T
   3    -13.8684010 -0.648815E-07  0.367E-03   13.90       7.3  T
   4    -13.8684010 -0.216892E-07  0.112E-03   13.90      23.8  T
   5    -13.8684010 -0.555172E-09  0.480E-04   13.90      55.7  T
   6    -13.8684010 -0.144707E-09  0.824E-05   13.90     324.4  T
     SCC iter.                  ...        0 min,  0.003 sec
     gradient                   ...        0 min,  0.002 sec
 * total energy  :   -13.6606450 Eh     change       -0.1825523E-03 Eh
   gradient norm :     0.0073487 Eh/α   predicted    -0.1461478E-03 ( -19.94%)
   displ. norm   :     0.1988675 α      lambda       -0.2417041E-03
   maximum displ.:     0.1694528 α      in ANC's #4, #2, #1, ...

........................................................................
.............................. CYCLE   13 ..............................
........................................................................

 iter      E             dE          RMSdq      gap      omega  full diag
   1    -13.8705219 -0.138705E+02  0.631E-02   13.95       0.0  T
   2    -13.8705227 -0.778173E-06  0.373E-02   13.95       1.0  T
   3    -13.8705228 -0.618871E-07  0.367E-03   13.95       7.3  T
   4    -13.8705228 -0.215120E-07  0.115E-03   13.95      23.2  T
   5    -13.8705228 -0.515319E-09  0.461E-04   13.95      58.0  T
   6    -13.8705228 -0.146644E-09  0.737E-05   13.95     362.8  T
     SCC iter.                  ...        0 min,  0.003 sec
     gradient                   ...        0 min,  0.002 sec
 * total energy  :   -13.6607878 Eh     change       -0.1428112E-03 Eh
   gradient norm :     0.0061176 Eh/α   predicted    -0.1256329E-03 ( -12.03%)
   displ. norm   :     0.3261371 α      lambda       -0.2084787E-03
   maximum displ.:     0.2136040 α      in ANC's #2, #4, #1, ...

........................................................................
.............................. CYCLE   14 ..............................
........................................................................

 iter      E             dE          RMSdq      gap      omega  full diag
   1    -13.8661841 -0.138662E+02  0.101E-01   13.98       0.0  T
   2    -13.8661875 -0.340726E-05  0.597E-02   13.98       1.0  T
   3    -13.8661877 -0.210301E-06  0.720E-03   13.98       3.7  T
   4    -13.8661877 -0.334876E-07  0.204E-03   13.98      13.1  T
   5    -13.8661877 -0.116116E-08  0.937E-04   13.98      28.5  T
   6    -13.8661877 -0.647468E-09  0.866E-05   13.98     308.5  T
     SCC iter.                  ...        0 min,  0.003 sec
     gradient                   ...        0 min,  0.002 sec
 * total energy  :   -13.6608077 Eh     change       -0.1986207E-04 Eh
   gradient norm :     0.0104632 Eh/α   predicted    -0.1153333E-03 ( 480.67%)
   displ. norm   :     0.0990372 α      lambda       -0.3097412E-03
   maximum displ.:     0.0692315 α      in ANC's #3, #4, #1, ...

........................................................................
.............................. CYCLE   15 ..............................
........................................................................

 iter      E             dE          RMSdq      gap      omega  full diag
   1    -13.8697595 -0.138698E+02  0.538E-02   14.06       0.0  T
   2    -13.8697627 -0.320376E-05  0.301E-02   14.06       1.0  T
   3    -13.8697628 -0.124136E-06  0.916E-03   14.06       2.9  T
   4    -13.8697629 -0.605012E-07  0.175E-03   14.06      15.3  T
   5    -13.8697629 -0.112148E-08  0.894E-04   14.06      29.9  T
   6    -13.8697629 -0.233754E-09  0.825E-05   14.06     324.1  T
     SCC iter.                  ...        0 min,  0.003 sec
     gradient                   ...        0 min,  0.002 sec
 * total energy  :   -13.6609748 Eh     change       -0.1671185E-03 Eh
   gradient norm :     0.0074424 Eh/α   predicted    -0.1563913E-03 (  -6.42%)
   displ. norm   :     0.0988842 α      lambda       -0.1544633E-03
   maximum displ.:     0.0691409 α      in ANC's #4, #2, #3, ...

........................................................................
.............................. CYCLE   16 ..............................
........................................................................

 iter      E             dE          RMSdq      gap      omega  full diag
   1    -13.8718244 -0.138718E+02  0.378E-02   14.09       0.0  T
   2    -13.8718248 -0.393928E-06  0.222E-02   14.09       1.2  T
   3    -13.8718248 -0.257265E-07  0.225E-03   14.09      11.9  T
   4    -13.8718248 -0.292004E-08  0.716E-04   14.09      37.3  T
   5    -13.8718248 -0.210893E-09  0.282E-04   14.09      94.8  T
     SCC iter.                  ...        0 min,  0.003 sec
     gradient                   ...        0 min,  0.002 sec
 * total energy  :   -13.6611022 Eh     change       -0.1273952E-03 Eh
   gradient norm :     0.0059616 Eh/α   predicted    -0.7798596E-04 ( -38.78%)
   displ. norm   :     0.4968280 α      lambda       -0.4882662E-03
   maximum displ.:     0.3060931 α      in ANC's #4, #2, #3, ...

........................................................................
.............................. CYCLE   17 ..............................
........................................................................

 iter      E             dE          RMSdq      gap      omega  full diag
   1    -13.8700082 -0.138700E+02  0.155E-01   14.09       0.0  T
   2    -13.8700150 -0.674665E-05  0.917E-02   14.08       1.0  T
   3    -13.8700153 -0.350525E-06  0.116E-02   14.08       2.3  T
   4    -13.8700155 -0.159606E-06  0.287E-03   14.08       9.3  T
   5    -13.8700155 -0.150468E-08  0.115E-03   14.08      23.2  T
   6    -13.8700155 -0.122962E-08  0.140E-04   14.08     191.2  T
   7    -13.8700155 -0.133475E-10  0.572E-05   14.08     467.1  T
     SCC iter.                  ...        0 min,  0.004 sec
     gradient                   ...        0 min,  0.003 sec
 * total energy  :   -13.6613080 Eh     change       -0.2058488E-03 Eh
   gradient norm :     0.0165458 Eh/α   predicted    -0.3043964E-03 (  47.87%)
   displ. norm   :     0.1373729 α      lambda       -0.7460901E-03
   maximum displ.:     0.0586826 α      in ANC's #2, #4, #24, ...

........................................................................
.............................. CYCLE   18 ..............................
........................................................................

 iter      E             dE          RMSdq      gap      omega  full diag
   1    -13.8730401 -0.138730E+02  0.855E-02   14.08       0.0  T
   2    -13.8730471 -0.709353E-05  0.480E-02   14.08       1.0  T
   3    -13.8730475 -0.365917E-06  0.139E-02   14.08       1.9  T
   4    -13.8730476 -0.105041E-06  0.289E-03   14.08       9.3  T
   5    -13.8730476 -0.344446E-08  0.132E-03   14.08      20.3  T
   6    -13.8730476 -0.132228E-08  0.182E-04   14.08     146.6  T
   7    -13.8730476 -0.320828E-10  0.705E-05   14.08     379.3  T
     SCC iter.                  ...        0 min,  0.004 sec
     gradient                   ...        0 min,  0.002 sec
 * total energy  :   -13.6617082 Eh     change       -0.4001437E-03 Eh
   gradient norm :     0.0083741 Eh/α   predicted    -0.3800853E-03 (  -5.01%)
   displ. norm   :     0.3594222 α      lambda       -0.4633876E-03
   maximum displ.:     0.2062769 α      in ANC's #4, #2, #3, ...

........................................................................
.............................. CYCLE   19 ..............................
........................................................................

 iter      E             dE          RMSdq      gap      omega  full diag
   1    -13.8699719 -0.138700E+02  0.109E-01   14.06       0.0  T
   2    -13.8699767 -0.483360E-05  0.643E-02   14.05       1.0  T
   3    -13.8699769 -0.179042E-06  0.101E-02   14.05       2.7  T
   4    -13.8699770 -0.111498E-06  0.217E-03   14.05      12.3  T
   5    -13.8699770 -0.178377E-08  0.997E-04   14.05      26.8  T
   6    -13.8699770 -0.562313E-09  0.132E-04   14.05     202.0  T
     SCC iter.                  ...        0 min,  0.005 sec
     gradient                   ...        0 min,  0.002 sec
 * total energy  :   -13.6619963 Eh     change       -0.2881670E-03 Eh
   gradient norm :     0.0117793 Eh/α   predicted    -0.2616224E-03 (  -9.21%)
   displ. norm   :     0.1933452 α      lambda       -0.5843408E-03
   maximum displ.:     0.1521462 α      in ANC's #3, #23, #25, ...

........................................................................
.............................. CYCLE   20 ..............................
........................................................................

 iter      E             dE          RMSdq      gap      omega  full diag
   1    -13.8743553 -0.138744E+02  0.866E-02   14.06       0.0  T
   2    -13.8743572 -0.190426E-05  0.508E-02   14.06       1.0  T
   3    -13.8743574 -0.219739E-06  0.523E-03   14.06       5.1  T
   4    -13.8743574 -0.118313E-07  0.195E-03   14.06      13.7  T
   5    -13.8743574 -0.116368E-08  0.587E-04   14.06      45.5  T
   6    -13.8743574 -0.557739E-09  0.140E-04   14.06     191.3  T
     SCC iter.                  ...        0 min,  0.003 sec
     gradient                   ...        0 min,  0.002 sec
 * total energy  :   -13.6622768 Eh     change       -0.2805114E-03 Eh
   gradient norm :     0.0166169 Eh/α   predicted    -0.3030920E-03 (   8.05%)
   displ. norm   :     0.2131678 α      lambda       -0.5480876E-03
   maximum displ.:     0.1235391 α      in ANC's #3, #23, #24, ...
 * RMSD in coord.:     0.9677325 α      energy gain  -0.1005305E-01 Eh

generating ANC from exact Hessian ...
Using Lindh-Hessian (1995)
 Shifting diagonal of input Hessian by    5.8383370937905568E-003
 Lowest  eigenvalues of input Hessian
    0.000000    0.000000    0.000000    0.000000    0.000000    0.000000
    0.010000    0.012635    0.013803    0.020516    0.024656    0.046122
    0.051478    0.057604    0.058790    0.060905    0.062050    0.066937
 Highest eigenvalues
    1.136813    1.152169    1.179358    1.211065    1.248715    1.269816


........................................................................
.............................. CYCLE   21 ..............................
........................................................................

 iter      E             dE          RMSdq      gap      omega  full diag
   1    -13.8740805 -0.138741E+02  0.729E-02   14.06       0.0  T
   2    -13.8740812 -0.693787E-06  0.437E-02   14.06       1.0  T
   3    -13.8740813 -0.729140E-07  0.304E-03   14.06       8.8  T
   4    -13.8740813 -0.238197E-07  0.124E-03   14.06      21.5  T
   5    -13.8740813 -0.116279E-08  0.387E-04   14.06      69.0  T
   6    -13.8740813 -0.128571E-09  0.111E-04   14.06     240.4  T
     SCC iter.                  ...        0 min,  0.003 sec
     gradient                   ...        0 min,  0.002 sec
 * total energy  :   -13.6626460 Eh     change       -0.3691259E-03 Eh
   gradient norm :     0.0141015 Eh/α   predicted     0.0000000E+00 (-100.00%)
   displ. norm   :     0.1531066 α      lambda       -0.7193042E-03
   maximum displ.:     0.1368297 α      in ANC's #3, #2, #1, ...

........................................................................
.............................. CYCLE   22 ..............................
........................................................................

 iter      E             dE          RMSdq      gap      omega  full diag
   1    -13.8737433 -0.138737E+02  0.766E-02   14.14       0.0  T
   2    -13.8737467 -0.332286E-05  0.445E-02   14.14       1.0  T
   3    -13.8737469 -0.231237E-06  0.764E-03   14.14       3.5  T
   4    -13.8737469 -0.233728E-07  0.210E-03   14.14      12.8  T
   5    -13.8737469 -0.174942E-08  0.364E-04   14.14      73.3  T
   6    -13.8737469 -0.624460E-10  0.140E-04   14.14     191.4  T
     SCC iter.                  ...        0 min,  0.003 sec
     gradient                   ...        0 min,  0.005 sec
 * total energy  :   -13.6631537 Eh     change       -0.5076891E-03 Eh
   gradient norm :     0.0044282 Eh/α   predicted    -0.3680821E-03 ( -27.50%)
   displ. norm   :     0.2115334 α      lambda       -0.4043941E-03
   maximum displ.:     0.2000969 α      in ANC's #3, #1, #2, ...

........................................................................
.............................. CYCLE   23 ..............................
........................................................................

 iter      E             dE          RMSdq      gap      omega  full diag
   1    -13.8725831 -0.138726E+02  0.689E-02   14.21       0.0  T
   2    -13.8725849 -0.176979E-05  0.406E-02   14.21       1.0  T
   3    -13.8725850 -0.106584E-06  0.535E-03   14.21       5.0  T
   4    -13.8725850 -0.119081E-07  0.137E-03   14.21      19.5  T
   5    -13.8725850 -0.114027E-08  0.350E-04   14.21      76.3  T
   6    -13.8725850 -0.265317E-10  0.109E-04   14.21     245.0  T
     SCC iter.                  ...        0 min,  0.039 sec
     gradient                   ...        0 min,  0.003 sec
 * total energy  :   -13.6634410 Eh     change       -0.2873406E-03 Eh
   gradient norm :     0.0054100 Eh/α   predicted    -0.2112482E-03 ( -26.48%)
   displ. norm   :     0.1411516 α      lambda       -0.2003853E-03
   maximum displ.:     0.1266328 α      in ANC's #3, #5, #1, ...

........................................................................
.............................. CYCLE   24 ..............................
........................................................................

 iter      E             dE          RMSdq      gap      omega  full diag
   1    -13.8724713 -0.138725E+02  0.403E-02   14.24       0.0  T
   2    -13.8724714 -0.907599E-07  0.243E-02   14.24       1.1  T
   3    -13.8724714 -0.154996E-07  0.876E-04   14.24      30.5  T
   4    -13.8724714 -0.120630E-08  0.443E-04   14.24      60.4  T
     SCC iter.                  ...        0 min,  0.005 sec
     gradient                   ...        0 min,  0.003 sec
 * total energy  :   -13.6636201 Eh     change       -0.1790886E-03 Eh
   gradient norm :     0.0060686 Eh/α   predicted    -0.1021880E-03 ( -42.94%)
   displ. norm   :     0.2622497 α      lambda       -0.3704528E-03
   maximum displ.:     0.2226607 α      in ANC's #3, #5, #1, ...

........................................................................
.............................. CYCLE   25 ..............................
........................................................................

 iter      E             dE          RMSdq      gap      omega  full diag
   1    -13.8724496 -0.138724E+02  0.764E-02   14.26       0.0  T
   2    -13.8724502 -0.580769E-06  0.458E-02   14.26       1.0  T
   3    -13.8724503 -0.785892E-07  0.260E-03   14.26      10.3  T
   4    -13.8724503 -0.634115E-08  0.112E-03   14.26      23.8  T
   5    -13.8724503 -0.132305E-09  0.191E-04   14.26     139.6  T
   6    -13.8724503 -0.891607E-10  0.459E-05   14.26     582.4  T
     SCC iter.                  ...        0 min,  0.004 sec
     gradient                   ...        0 min,  0.005 sec
 * total energy  :   -13.6638990 Eh     change       -0.2789059E-03 Eh
   gradient norm :     0.0056269 Eh/α   predicted    -0.1979667E-03 ( -29.02%)
   displ. norm   :     0.2632349 α      lambda       -0.2499318E-03
   maximum displ.:     0.2322825 α      in ANC's #3, #5, #1, ...

........................................................................
.............................. CYCLE   26 ..............................
........................................................................

 iter      E             dE          RMSdq      gap      omega  full diag
   1    -13.8722522 -0.138723E+02  0.738E-02   14.25       0.0  T
   2    -13.8722524 -0.233386E-06  0.444E-02   14.25       1.0  T
   3    -13.8722525 -0.488998E-07  0.165E-03   14.25      16.2  T
   4    -13.8722525 -0.685498E-08  0.820E-04   14.25      32.6  T
   5    -13.8722525 -0.932729E-10  0.244E-04   14.25     109.5  T
     SCC iter.                  ...        0 min,  0.022 sec
     gradient                   ...        0 min,  0.002 sec
 * total energy  :   -13.6640553 Eh     change       -0.1563391E-03 Eh
   gradient norm :     0.0064186 Eh/α   predicted    -0.1336220E-03 ( -14.53%)
   displ. norm   :     0.1120147 α      lambda       -0.1441788E-03
   maximum displ.:     0.0980215 α      in ANC's #3, #5, #24, ...

........................................................................
.............................. CYCLE   27 ..............................
........................................................................

 iter      E             dE          RMSdq      gap      omega  full diag
   1    -13.8746290 -0.138746E+02  0.413E-02   14.25       0.0  T
   2    -13.8746300 -0.985905E-06  0.239E-02   14.25       1.1  T
   3    -13.8746300 -0.491648E-07  0.470E-03   14.25       5.7  T
   4    -13.8746300 -0.141222E-07  0.107E-03   14.25      25.0  T
   5    -13.8746301 -0.497247E-09  0.534E-04   14.25      50.1  T
   6    -13.8746301 -0.153634E-09  0.567E-05   14.25     471.4  T
     SCC iter.                  ...        0 min,  0.018 sec
     gradient                   ...        0 min,  0.006 sec
 * total energy  :   -13.6641402 Eh     change       -0.8490474E-04 Eh
   gradient norm :     0.0019335 Eh/α   predicted    -0.7299560E-04 ( -14.03%)
   displ. norm   :     0.2180380 α      lambda       -0.5452747E-04
   maximum displ.:     0.2016968 α      in ANC's #3, #5, #1, ...

........................................................................
.............................. CYCLE   28 ..............................
........................................................................

 iter      E             dE          RMSdq      gap      omega  full diag
   1    -13.8738578 -0.138739E+02  0.648E-02   14.23       0.0  T
   2    -13.8738583 -0.521475E-06  0.386E-02   14.23       1.0  T
   3    -13.8738584 -0.467928E-07  0.300E-03   14.23       8.9  T
   4    -13.8738584 -0.271205E-07  0.104E-03   14.23      25.8  T
   5    -13.8738584 -0.709440E-09  0.323E-04   14.23      82.9  T
   6    -13.8738584 -0.633182E-10  0.849E-05   14.23     314.9  T
     SCC iter.                  ...        0 min,  0.094 sec
     gradient                   ...        0 min,  0.020 sec
 * total energy  :   -13.6641584 Eh     change       -0.1812215E-04 Eh
   gradient norm :     0.0037956 Eh/α   predicted    -0.2783948E-04 (  53.62%)
   displ. norm   :     0.0437724 α      lambda       -0.2987557E-04
   maximum displ.:     0.0376624 α      in ANC's #3, #5, #1, ...

........................................................................
.............................. CYCLE   29 ..............................
........................................................................

 iter      E             dE          RMSdq      gap      omega  full diag
   1    -13.8751088 -0.138751E+02  0.183E-02   14.25       0.0  T
   2    -13.8751091 -0.296989E-06  0.103E-02   14.25       2.6  T
   3    -13.8751091 -0.112724E-07  0.283E-03   14.25       9.5  T
   4    -13.8751091 -0.565632E-08  0.533E-04   14.25      50.2  T
   5    -13.8751091 -0.138405E-09  0.281E-04   14.25      95.0  T
     SCC iter.                  ...        0 min,  0.125 sec
     gradient                   ...        0 min,  0.026 sec
 * total energy  :   -13.6641742 Eh     change       -0.1579839E-04 Eh
   gradient norm :     0.0013912 Eh/α   predicted    -0.1496763E-04 (  -5.26%)
   displ. norm   :     0.0095634 α      lambda       -0.3384006E-05
   maximum displ.:     0.0059719 α      in ANC's #2, #1, #18, ...

........................................................................
.............................. CYCLE   30 ..............................
........................................................................

 iter      E             dE          RMSdq      gap      omega  full diag
   1    -13.8748896 -0.138749E+02  0.938E-03   14.25       0.0  T
   2    -13.8748896 -0.810110E-07  0.530E-03   14.25       5.0  T
   3    -13.8748896 -0.391640E-08  0.139E-03   14.25      19.2  T
   4    -13.8748896 -0.890781E-09  0.287E-04   14.25      93.3  T
   5    -13.8748896 -0.381561E-10  0.109E-04   14.25     245.6  T
     SCC iter.                  ...        0 min,  0.041 sec
     gradient                   ...        0 min,  0.015 sec
 * total energy  :   -13.6641746 Eh     change       -0.4747613E-06 Eh
   gradient norm :     0.0008356 Eh/α   predicted    -0.1691092E-05 ( 256.20%)
   displ. norm   :     0.0084804 α      lambda       -0.1824332E-05
   maximum displ.:     0.0047319 α      in ANC's #4, #2, #1, ...

........................................................................
.............................. CYCLE   31 ..............................
........................................................................

 iter      E             dE          RMSdq      gap      omega  full diag
   1    -13.8750150 -0.138750E+02  0.565E-03   14.26       0.0  T
   2    -13.8750150 -0.249830E-07  0.319E-03   14.26       8.4  T
   3    -13.8750150 -0.128612E-08  0.796E-04   14.26      33.6  T
   4    -13.8750150 -0.397170E-09  0.174E-04   14.26     153.7  T
     SCC iter.                  ...        0 min,  0.002 sec
     gradient                   ...        0 min,  0.002 sec
 * total energy  :   -13.6641760 Eh     change       -0.1359349E-05 Eh
   gradient norm :     0.0003088 Eh/α   predicted    -0.9120127E-06 ( -32.91%)
   displ. norm   :     0.0042994 α      lambda       -0.2108612E-06
   maximum displ.:     0.0036041 α      in ANC's #3, #4, #2, ...

........................................................................
.............................. CYCLE   32 ..............................
........................................................................

 iter      E             dE          RMSdq      gap      omega  full diag
   1    -13.8749920 -0.138750E+02  0.205E-03   14.26       0.0  T
   2    -13.8749920 -0.985944E-09  0.121E-03   14.26      22.2  T
   3    -13.8749920 -0.699139E-10  0.146E-04   14.26     183.4  T
   4    -13.8749920 -0.705853E-10  0.475E-05   14.26     563.1  T
     SCC iter.                  ...        0 min,  0.002 sec
     gradient                   ...        0 min,  0.002 sec
 * total energy  :   -13.6641762 Eh     change       -0.1787422E-06 Eh
   gradient norm :     0.0002058 Eh/α   predicted    -0.1046219E-06 ( -41.47%)
   displ. norm   :     0.0049340 α      lambda       -0.1575143E-06
   maximum displ.:     0.0029346 α      in ANC's #4, #3, #2, ...

   *** GEOMETRY OPTIMIZATION CONVERGED AFTER 32 ITERATIONS ***

------------------------------------------------------------------------
 total energy gain   :        -0.0119524 Eh       -7.5002 kcal/mol
 total RMSD          :         1.1369638 a0        0.6017 Å
 total power (kW/mol):        -0.9806549 (step)  -45.0220 (real)
------------------------------------------------------------------------

 ANCopt (total)                0 d,  0 h,  0 min,  0.697 sec
 optimizer setup                ...        0 min,  0.000 sec (  0.018%)
 model hessian                  ...        0 min,  0.023 sec (  3.254%)
 ANC generation                 ...        0 min,  0.001 sec (  0.160%)
 coordinate transformation      ...        0 min,  0.000 sec (  0.049%)
 single point calculation       ...        0 min,  0.649 sec ( 93.139%)
 optimization log               ...        0 min,  0.009 sec (  1.293%)
 hessian update                 ...        0 min,  0.006 sec (  0.919%)
 rational function              ...        0 min,  0.006 sec (  0.827%)

================
 final structure:
================
14
 xtb: 6.7.1 (edcfbbe)
C           -0.50770723010149        0.85407208527073        1.58184878255130
H           -0.24685150036345        1.15212329030117        2.59388925952561
H            0.12869248464007        1.39812045035320        0.88673126825440
H           -0.29834425268503       -0.20854203396881        1.47815913323141
C           -1.97716619711685        1.13454392611142        1.28954364562275
H           -2.59826131150177        0.61502160544704        2.02302887225659
H           -2.22377414414670        0.73152740929138        0.30409074205834
C           -2.32004983767007        2.62456854504127        1.30615854829905
H           -1.66342946526127        3.15180561196278        0.61007096591710
H           -3.34593045211525        2.74965095616468        0.95083245352723
C           -2.19911539750005        3.25260731501955        2.68978853549960
H           -1.16964347565989        3.23690276999174        3.03736539055467
H           -2.53145393633334        4.28806403276691        2.66470813852072
H           -2.81385808418474        2.71298512624684        3.40718692418118

 Bond Distances (Angstroems)
 ---------------------------
C1-H2=1.0868         C1-H3=1.0882         C1-H4=1.0880         C1-C5=1.5243         H2-C1=1.0868         H3-C1=1.0882         
H4-C1=1.0880         C5-C1=1.5243         C5-H6=1.0925         C5-H7=1.0929         C5-C8=1.5291         H6-C5=1.0925         
H7-C5=1.0929         C8-C5=1.5291         C8-H9=1.0926         C8-H10=1.0929        C8-C11=1.5243        H9-C8=1.0926         
H10-C8=1.0929        C11-C8=1.5243        C11-H12=1.0867       C11-H13=1.0878       C11-H14=1.0880       H12-C11=1.0867       
H13-C11=1.0878       H14-C11=1.0880       
 C  H  Rav=1.0896 sigma=0.0026  Rmin=1.0867  Rmax=1.0929    10
 C  C  Rav=1.5259 sigma=0.0022  Rmin=1.5243  Rmax=1.5291     3

 selected bond angles (degree)
 --------------------
H3-C1-H2=108.50                H4-C1-H2=108.08                H4-C1-H3=108.35                C5-C1-H2=111.07                
C5-C1-H3=110.44                C5-C1-H4=110.30                H6-C5-C1=109.38                H7-C5-C1=108.82                
H7-C5-H6=107.56                C8-C5-C1=113.17                C8-C5-H6=109.18                C8-C5-H7=108.58                
H9-C8-C5=109.18                H10-C8-C5=108.57               H10-C8-H9=107.56               C11-C8-C5=113.18               
C11-C8-H9=109.38               C11-C8-H10=108.81              

 selected dihedral angles (degree)
 ---------------------------------
H6-C5-C1-H2=302.86            H6-C5-C1-H3=182.42            H6-C5-C1-H4= 62.67            H7-C5-C1-H2=185.61            
H7-C5-C1-H3= 65.18            H7-C5-C1-H4=305.43            C8-C5-C1-H2= 64.82            C8-C5-C1-H3=304.39            
C8-C5-C1-H4=184.64            H9-C8-C5-C1= 55.03            H9-C8-C5-H6=177.10            H9-C8-C5-H7=294.10            
H10-C8-C5-C1=172.03           H10-C8-C5-H6=294.10           H10-C8-C5-H7= 51.10           C11-C8-C5-C1=292.95           
C11-C8-C5-H6= 55.02           C11-C8-C5-H7=172.02           
           -------------------------------------------------
          |                Final Singlepoint                |
           -------------------------------------------------

          ...................................................
          :                      SETUP                      :
          :.................................................:
          :  # basis functions                  26          :
          :  # atomic orbitals                  26          :
          :  # shells                           18          :
          :  # electrons                        26          :
          :  max. iterations                   250          :
          :  Hamiltonian                  GFN2-xTB          :
          :  restarted?                      false          :
          :  GBSA solvation                  false          :
          :  PC potential                    false          :
          :  electronic temp.          300.0000000     K    :
          :  accuracy                    1.0000000          :
          :  -> integral cutoff          0.2500000E+02      :
          :  -> integral neglect         0.1000000E-07      :
          :  -> SCF convergence          0.1000000E-05 Eh   :
          :  -> wf. convergence          0.1000000E-03 e    :
          :  Broyden damping             0.4000000          :
          :  net charge                          0          :
          :  unpaired electrons                  0          :
          ...................................................

 iter      E             dE          RMSdq      gap      omega  full diag
   1    -13.8749920 -0.138750E+02  0.910E-06   14.26       0.0  T
   2    -13.8749920 -0.142109E-13  0.529E-06   14.26    5050.6  T
   3    -13.8749920 -0.177636E-13  0.973E-07   14.26   27479.6  T

   *** convergence criteria satisfied after 3 iterations ***

         #    Occupation            Energy/Eh            Energy/eV
      -------------------------------------------------------------
         1        2.0000           -0.6178101             -16.8115
       ...           ...                  ...                  ...
         7        2.0000           -0.4848972             -13.1947
         8        2.0000           -0.4663607             -12.6903
         9        2.0000           -0.4619361             -12.5699
        10        2.0000           -0.4480755             -12.1928
        11        2.0000           -0.4257857             -11.5862
        12        2.0000           -0.4234403             -11.5224
        13        2.0000           -0.4222451             -11.4899 (HOMO)
        14                          0.1016927               2.7672 (LUMO)
        15                          0.1112795               3.0281
        16                          0.1369861               3.7276
        17                          0.1487851               4.0486
        18                          0.1501938               4.0870
       ...                                ...                  ...
        26                          0.2993124               8.1447
      -------------------------------------------------------------
                  HL-Gap            0.5239378 Eh           14.2571 eV
             Fermi-level           -0.1602762 Eh           -4.3613 eV

 SCC (total)                   0 d,  0 h,  0 min,  0.010 sec
 SCC setup                      ...        0 min,  0.000 sec (  1.357%)
 Dispersion                     ...        0 min,  0.000 sec (  1.227%)
 classical contributions        ...        0 min,  0.000 sec (  0.517%)
 integral evaluation            ...        0 min,  0.004 sec ( 44.959%)
 iterations                     ...        0 min,  0.003 sec ( 29.600%)
 molecular gradient             ...        0 min,  0.002 sec ( 20.218%)
 printout                       ...        0 min,  0.000 sec (  1.864%)

         :::::::::::::::::::::::::::::::::::::::::::::::::::::
         ::                     SUMMARY                     ::
         :::::::::::::::::::::::::::::::::::::::::::::::::::::
         :: total energy             -13.664176172431 Eh    ::
         :: gradient norm              0.000206217011 Eh/a0 ::
         :: HOMO-LUMO gap             14.257072203946 eV    ::
         ::.................................................::
         :: SCC energy               -13.874984871000 Eh    ::
         :: -> isotropic ES            0.002972087116 Eh    ::
         :: -> anisotropic ES          0.004966284956 Eh    ::
         :: -> anisotropic XC          0.008995377316 Eh    ::
         :: -> dispersion             -0.006304199144 Eh    ::
         :: repulsion energy           0.210808698569 Eh    ::
         :: add. restraining           0.000000000000 Eh    ::
         :: total charge              -0.000000000000 e     ::
         :::::::::::::::::::::::::::::::::::::::::::::::::::::

           -------------------------------------------------
          |                Property Printout                |
           -------------------------------------------------

    * Orbital Energies and Occupations

         #    Occupation            Energy/Eh            Energy/eV
      -------------------------------------------------------------
         1        2.0000           -0.6178101             -16.8115
         2        2.0000           -0.5960395             -16.2191
         3        2.0000           -0.5731515             -15.5962
         4        2.0000           -0.5474778             -14.8976
         5        2.0000           -0.5064326             -13.7807
         6        2.0000           -0.5059827             -13.7685
         7        2.0000           -0.4848972             -13.1947
         8        2.0000           -0.4663607             -12.6903
         9        2.0000           -0.4619361             -12.5699
        10        2.0000           -0.4480755             -12.1928
        11        2.0000           -0.4257857             -11.5862
        12        2.0000           -0.4234403             -11.5224
        13        2.0000           -0.4222451             -11.4899 (HOMO)
        14                          0.1016927               2.7672 (LUMO)
        15                          0.1112795               3.0281
        16                          0.1369861               3.7276
        17                          0.1487851               4.0486
        18                          0.1501938               4.0870
        19                          0.1578708               4.2959
        20                          0.2028872               5.5208
        21                          0.2065663               5.6210
        22                          0.2344946               6.3809
        23                          0.2484823               6.7615
        24                          0.2786271               7.5818
       ...                                ...                  ...
        26                          0.2993124               8.1447
      -------------------------------------------------------------
                  HL-Gap            0.5239378 Eh           14.2571 eV
             Fermi-level           -0.1602762 Eh           -4.3613 eV

     #   Z          covCN         q      C6AA      α(0)
     1   6 C        3.751    -0.101    22.493     6.763
     2   1 H        0.925     0.035     2.511     2.478
     3   1 H        0.925     0.033     2.550     2.497
     4   1 H        0.925     0.030     2.586     2.515
     5   6 C        3.800    -0.053    21.518     6.605
     6   1 H        0.924     0.030     2.593     2.518
     7   1 H        0.924     0.026     2.644     2.543
     8   6 C        3.800    -0.053    21.518     6.605
     9   1 H        0.924     0.030     2.593     2.518
    10   1 H        0.924     0.026     2.644     2.543
    11   6 C        3.751    -0.101    22.493     6.764
    12   1 H        0.925     0.035     2.511     2.478
    13   1 H        0.925     0.030     2.585     2.514
    14   1 H        0.925     0.033     2.550     2.497

 Mol. C6AA /au·bohr⁶  :       1208.197687
 Mol. C8AA /au·bohr⁸  :      24487.225123
 Mol. α(0) /au        :         51.836859


Wiberg/Mayer (AO) data.
largest (>0.10) Wiberg bond orders for each atom

 ---------------------------------------------------------------------------
     #   Z sym  total        # sym  WBO       # sym  WBO       # sym  WBO
 ---------------------------------------------------------------------------
     1   6 C    3.997 --     5 C    1.020     3 H    0.988     4 H    0.988
                             2 H    0.986
     2   1 H    0.999 --     1 C    0.986
     3   1 H    0.999 --     1 C    0.988
     4   1 H    0.999 --     1 C    0.988
     5   6 C    3.998 --     1 C    1.020     8 C    1.008     7 H    0.979
                             6 H    0.978
     6   1 H    0.999 --     5 C    0.978
     7   1 H    0.999 --     5 C    0.979
     8   6 C    3.998 --    11 C    1.020     5 C    1.008    10 H    0.979
                             9 H    0.978
     9   1 H    0.999 --     8 C    0.978
    10   1 H    0.999 --     8 C    0.979
    11   6 C    3.997 --     8 C    1.020    14 H    0.988    13 H    0.988
                            12 H    0.986
    12   1 H    0.999 --    11 C    0.986
    13   1 H    0.999 --    11 C    0.988
    14   1 H    0.999 --    11 C    0.988
 ---------------------------------------------------------------------------

Topologies differ in total number of bonds
Writing topology from bond orders to xtbtopo.mol

molecular dipole:
                 x           y           z       tot (Debye)
 q only:        0.011       0.002       0.012
   full:        0.008       0.002       0.009       0.032
molecular quadrupole (traceless):
                xx          xy          yy          xz          yz          zz
 q only:       -0.102       0.049      -0.019       0.071       0.103       0.121
  q+dip:       -0.071       0.409      -0.159      -0.238      -0.287       0.230
   full:       -0.080       0.210      -0.072      -0.098      -0.097       0.152

           -------------------------------------------------
          |                Geometry Summary                 |
           -------------------------------------------------

      molecular mass/u    :       58.1223511
   center of mass at/Å    :       -1.7380514       1.9692780       1.7304953
Note: The following floating-point exceptions are signalling: IEEE_UNDERFLOW_FLAG IEEE_DENORMAL
normal termination of xtb
  moments of inertia/u·Å² :        0.3769814E+02   0.1052974E+03   0.1227909E+03
rotational constants/cm⁻¹ :        0.4471741E+00   0.1600954E+00   0.1372873E+00

 * 13 selected distances

     #   Z          #   Z                                           value/Å
     1   6 C        2   1 H                                       1.0867872
     1   6 C        3   1 H                                       1.0882012
     1   6 C        4   1 H                                       1.0879951
     1   6 C        5   6 C                                       1.5242758
     5   6 C        6   1 H                                       1.0925490
     5   6 C        7   1 H                                       1.0928657
     5   6 C        8   6 C                                       1.5290582 (max)
     8   6 C        9   1 H                                       1.0925509
     8   6 C       10   1 H                                       1.0928557
     8   6 C       11   6 C                                       1.5242999
    11   6 C       12   1 H                                       1.0866779 (min)
    11   6 C       13   1 H                                       1.0877724
    11   6 C       14   1 H                                       1.0880080

 * 2 distinct bonds (by element types)

   Z      Z             #   av. dist./Å        max./Å        min./Å
   1 H    6 C          10     1.0896263     1.0928657     1.0866779
   6 C    6 C           3     1.5258780     1.5290582     1.5242758


optimized geometry written to: xtbopt.xyz


           -------------------------------------------------
          | TOTAL ENERGY              -13.664176172431 Eh   |
          | GRADIENT NORM               0.000206217011 Eh/α |
          | HOMO-LUMO GAP              14.257072203946 eV   |
           -------------------------------------------------

------------------------------------------------------------------------
 * finished run on 2026/08/17 at 12:14:23.796     
------------------------------------------------------------------------
 total:
 * wall-time:     0 d,  0 h,  0 min,  0.836 sec
 *  cpu-time:     0 d,  0 h,  0 min,  2.555 sec
 * ratio c/w:     3.055 speedup
 SCF:
 * wall-time:     0 d,  0 h,  0 min,  0.083 sec
 *  cpu-time:     0 d,  0 h,  0 min,  0.320 sec
 * ratio c/w:     3.852 speedup
 ANC optimizer:
 * wall-time:     0 d,  0 h,  0 min,  0.708 sec
 *  cpu-time:     0 d,  0 h,  0 min,  2.071 sec
 * ratio c/w:     2.925 speedup

