14
 energy: -13.664176172431 gnorm: 0.000206217011 xtb: 6.7.1 (edcfbbe)
C           -0.50770723010149        0.85407208527073        1.58184878255130
H           -0.24685150036345        1.15212329030117        2.59388925952561
H            0.12869248464007        1.39812045035320        0.88673126825440
H           -0.29834425268503       -0.20854203396881        1.47815913323141
C           -1.97716619711685        1.13454392611142        1.28954364562275
H           -2.59826131150177        0.61502160544704        2.02302887225659
H           -2.22377414414670        0.73152740929138        0.30409074205834
C           -2.32004983767007        2.62456854504127        1.30615854829905
H           -1.66342946526127        3.15180561196278        0.61007096591710
H           -3.34593045211525        2.74965095616468        0.95083245352723
C           -2.19911539750005        3.25260731501955        2.68978853549960
H           -1.16964347565989        3.23690276999174        3.03736539055467
H           -2.53145393633334        4.28806403276691        2.66470813852072
H           -2.81385808418474        2.71298512624684        3.40718692418118
