      -----------------------------------------------------------      
     |                   =====================                   |     
     |                           x T B                           |     
     |                   =====================                   |     
     |                         S. Grimme                         |     
     |          Mulliken Center for Theoretical Chemistry        |     
     |                    University of Bonn                     |     
      -----------------------------------------------------------      

   * xtb version 6.7.1 (edcfbbe) compiled by 'conda@5dfe00f5fb80' on 2026-06-10

   xtb is free software: you can redistribute it and/or modify it under
   the terms of the GNU Lesser General Public License as published by
   the Free Software Foundation, either version 3 of the License, or
   (at your option) any later version.
   
   xtb is distributed in the hope that it will be useful,
   but WITHOUT ANY WARRANTY; without even the implied warranty of
   MERCHANTABILITY or FITNESS FOR A PARTICULAR PURPOSE.  See the
   GNU Lesser General Public License for more details.
   
   Cite this work as:
   * C. Bannwarth, E. Caldeweyher, S. Ehlert, A. Hansen, P. Pracht,
     J. Seibert, S. Spicher, S. Grimme, WIREs Comput. Mol. Sci., 2020, 11,
     e01493. DOI: 10.1002/wcms.1493
   
   for GFN2-xTB:
   * C. Bannwarth, S. Ehlert and S. Grimme., J. Chem. Theory Comput., 2019,
     15, 1652-1671. DOI: 10.1021/acs.jctc.8b01176
   for GFN1-xTB:
   * S. Grimme, C. Bannwarth, P. Shushkov, J. Chem. Theory Comput., 2017,
     13, 1989-2009. DOI: 10.1021/acs.jctc.7b00118
   for GFN0-xTB:
   * P. Pracht, E. Caldeweyher, S. Ehlert, S. Grimme, ChemRxiv, 2019, preprint.
     DOI: 10.26434/chemrxiv.8326202.v1
   for GFN-FF:
   * S. Spicher and S. Grimme, Angew. Chem. Int. Ed., 2020, 59, 15665-15673.
     DOI: 10.1002/anie.202004239
   
   for ALPB and GBSA implicit solvation:
   * S. Ehlert, M. Stahn, S. Spicher, S. Grimme, J. Chem. Theory Comput.,
     2021, 17, 4250-4261. DOI: 10.1021/acs.jctc.1c00471
   
   for ddCOSMO and CPCM-X implicit solvation:
   * M. Stahn, S. Ehlert, S. Grimme, J. Phys. Chem. A,
     2023, XX, XXXX-XXXX. DOI: 10.1021/acs.jpca.3c04382
   
   for DFT-D4:
   * E. Caldeweyher, C. Bannwarth and S. Grimme, J. Chem. Phys., 2017,
     147, 034112. DOI: 10.1063/1.4993215
   * E. Caldeweyher, S. Ehlert, A. Hansen, H. Neugebauer, S. Spicher,
     C. Bannwarth and S. Grimme, J. Chem. Phys., 2019, 150, 154122.
     DOI: 10.1063/1.5090222
   * E. Caldeweyher, J.-M. Mewes, S. Ehlert and S. Grimme, Phys. Chem. Chem. Phys.
     2020, 22, 8499-8512. DOI: 10.1039/D0CP00502A
   
   for sTDA-xTB:
   * S. Grimme and C. Bannwarth, J. Chem. Phys., 2016, 145, 054103.
     DOI: 10.1063/1.4959605
   
   in the mass-spec context:
   * V. Asgeirsson, C. Bauer and S. Grimme, Chem. Sci., 2017, 8, 4879.
     DOI: 10.1039/c7sc00601b
   * J. Koopman and S. Grimme, ACS Omega 2019, 4, 12, 15120-15133.
     DOI: 10.1021/acsomega.9b02011
   
   for metadynamics refer to:
   * S. Grimme, J. Chem. Theory Comput., 2019, 155, 2847-2862
     DOI: 10.1021/acs.jctc.9b00143
   
   for SPH calculations refer to:
   * S. Spicher and S. Grimme, J. Chem. Theory Comput., 2021, 17, 1701-1714
     DOI: 10.1021/acs.jctc.0c01306
   
   for ONIOM refer to:
   * C. Plett, A. Katbashev, S. Ehlert, S. Grimme, M. Bursch,
     Phys. Chem. Chem. Phys., 2023, 25, 17860-17868. DOI: 10.1039/D3CP02178E
   
   for DIPRO refer to:
   * J. Kohn, N. Gildemeister, S. Grimme, D. Fazzi, A. Hansen,
     J. Chem. Phys., 2023, just accepted.
   
   for PTB refer to:
   * S. Grimme, M. Mueller, A. Hansen, J. Chem. Phys., 2023, 158, 124111.
     DOI: 10.1063/5.0137838
   
   with help from (in alphabetical order)
   P. Atkinson, C. Bannwarth, F. Bohle, G. Brandenburg, E. Caldeweyher
   M. Checinski, S. Dohm, S. Ehlert, S. Ehrlich, I. Gerasimov, C. Hölzer
   A. Katbashev, J. Kohn, J. Koopman, C. Lavigne, S. Lehtola, F. März, M. Müller,
   F. Musil, H. Neugebauer, J. Pisarek, C. Plett, P. Pracht, F. Pultar,
   J. Seibert, P. Shushkov, S. Spicher, M. Stahn, M. Steiner, T. Strunk,
   J. Stückrath, T. Rose, and J. Unsleber
   
 * started run on 2026/08/17 at 12:14:24.517     
   ID    Z sym.   atoms
    1    6 C      1, 5, 8, 11
    2    1 H      2-4, 6, 7, 9, 10, 12-14

           -------------------------------------------------
          |                Calculation Setup                |
           -------------------------------------------------

          program call               : xtb input.xyz --gfn2 --opt tight --chrg 0 --uhf 0 --iterations 250
          coordinate file            : input.xyz
          omp threads                :                     4


           -------------------------------------------------
          |                 G F N 2 - x T B                 |
           -------------------------------------------------

        Reference                      10.1021/acs.jctc.8b01176
      * Hamiltonian:
        H0-scaling (s, p, d)           1.850000    2.230000    2.230000
        zeta-weighting                 0.500000
      * Dispersion:
        s8                             2.700000
        a1                             0.520000
        a2                             5.000000
        s9                             5.000000
      * Repulsion:
        kExp                           1.500000    1.000000
        rExp                           1.000000
      * Coulomb:
        alpha                          2.000000
        third order                    shell-resolved
        anisotropic                    true
        a3                             3.000000
        a5                             4.000000
        cn-shift                       1.200000
        cn-exp                         4.000000
        max-rad                        5.000000

q/qsh data taken from xtbrestart
CAMM data taken from xtbrestart

          ...................................................
          :                      SETUP                      :
          :.................................................:
          :  # basis functions                  26          :
          :  # atomic orbitals                  26          :
          :  # shells                           18          :
          :  # electrons                        26          :
          :  max. iterations                   250          :
          :  Hamiltonian                  GFN2-xTB          :
          :  restarted?                       true          :
          :  GBSA solvation                  false          :
          :  PC potential                    false          :
          :  electronic temp.          300.0000000     K    :
          :  accuracy                    1.0000000          :
          :  -> integral cutoff          0.2500000E+02      :
          :  -> integral neglect         0.1000000E-07      :
          :  -> SCF convergence          0.1000000E-05 Eh   :
          :  -> wf. convergence          0.1000000E-03 e    :
          :  Broyden damping             0.4000000          :
          :  net charge                          0          :
          :  unpaired electrons                  0          :
          ...................................................

 iter      E             dE          RMSdq      gap      omega  full diag
   1    -13.8673277 -0.138673E+02  0.860E-01   13.41       0.0  T
   2    -13.8673483 -0.205479E-04  0.511E-01   13.41       1.0  T
   3    -13.8673556 -0.732694E-05  0.197E-02   13.42       1.4  T
   4    -13.8673560 -0.430991E-06  0.104E-02   13.42       2.6  T
   5    -13.8673561 -0.425177E-07  0.156E-03   13.41      17.2  T
   6    -13.8673561 -0.175712E-08  0.617E-04   13.41      43.3  T
   7    -13.8673561 -0.184468E-09  0.458E-05   13.41     583.6  T

   *** convergence criteria satisfied after 7 iterations ***

         #    Occupation            Energy/Eh            Energy/eV
      -------------------------------------------------------------
         1        2.0000           -0.6167296             -16.7821
       ...           ...                  ...                  ...
         7        2.0000           -0.4896019             -13.3227
         8        2.0000           -0.4747499             -12.9186
         9        2.0000           -0.4537525             -12.3472
        10        2.0000           -0.4500554             -12.2466
        11        2.0000           -0.4292607             -11.6808
        12        2.0000           -0.4267832             -11.6134
        13        2.0000           -0.4158711             -11.3164 (HOMO)
        14                          0.0771165               2.0984 (LUMO)
        15                          0.1169939               3.1836
        16                          0.1264188               3.4400
        17                          0.1479341               4.0255
        18                          0.1580306               4.3002
       ...                                ...                  ...
        26                          0.3177930               8.6476
      -------------------------------------------------------------
                  HL-Gap            0.4929875 Eh           13.4149 eV
             Fermi-level           -0.1693773 Eh           -4.6090 eV

 SCC (total)                   0 d,  0 h,  0 min,  0.090 sec
 SCC setup                      ...        0 min,  0.002 sec (  2.259%)
 Dispersion                     ...        0 min,  0.005 sec (  5.559%)
 classical contributions        ...        0 min,  0.005 sec (  5.107%)
 integral evaluation            ...        0 min,  0.016 sec ( 18.104%)
 iterations                     ...        0 min,  0.060 sec ( 66.548%)
 molecular gradient             ...        0 min,  0.002 sec (  2.200%)
 printout                       ...        0 min,  0.000 sec (  0.193%)

         :::::::::::::::::::::::::::::::::::::::::::::::::::::
         ::                     SUMMARY                     ::
         :::::::::::::::::::::::::::::::::::::::::::::::::::::
         :: total energy             -13.661320316653 Eh    ::
         :: gradient norm              0.013689526758 Eh/a0 ::
         :: HOMO-LUMO gap             13.414873978661 eV    ::
         ::.................................................::
         :: SCC energy               -13.867350976899 Eh    ::
         :: -> isotropic ES            0.002915631456 Eh    ::
         :: -> anisotropic ES          0.005011090857 Eh    ::
         :: -> anisotropic XC          0.009053233272 Eh    ::
         :: -> dispersion             -0.006051235745 Eh    ::
         :: repulsion energy           0.206030660246 Eh    ::
         :: add. restraining           0.000000000000 Eh    ::
         :: total charge              -0.000000000000 e     ::
         :::::::::::::::::::::::::::::::::::::::::::::::::::::

      ----------------------------------------------------------- 
     |                   =====================                   |
     |                        A N C O P T                        |
     |                   =====================                   |
     |               Approximate Normal Coordinate               |
     |                Rational Function Optimizer                |
      ----------------------------------------------------------- 
      ----------------------------------------------------------- 
     |                   =====================                   |
     |                        A N C O P T                        |
     |                   =====================                   |
     |               Approximate Normal Coordinate               |
     |                Rational Function Optimizer                |
      ----------------------------------------------------------- 

          ...................................................
          :                      SETUP                      :
          :.................................................:
          :   optimization level             tight          :
          :   max. optcycles                   200          :
          :   ANC micro-cycles                  20          :
          :   degrees of freedom                36          :
          :.................................................:
          :   RF solver                   davidson          :
          :   write xtbopt.log                true          :
          :   linear?                        false          :
          :   energy convergence         0.1000000E-05 Eh   :
          :   grad. convergence          0.8000000E-03 Eh/α :
          :   maxmium RF displ.          1.0000000          :
          :   Hlow (freq-cutoff)         0.1000000E-01      :
          :   Hmax (freq-cutoff)         5.0000000          :
          :   S6 in model hess.         20.0000000          :
          ...................................................

generating ANC from exact Hessian ...
Using Lindh-Hessian (1995)
 Shifting diagonal of input Hessian by    6.0855646268020659E-003
 Lowest  eigenvalues of input Hessian
    0.000000    0.000000    0.000000    0.000000    0.000000    0.000000
    0.010000    0.013354    0.013641    0.019328    0.021716    0.046526
    0.046670    0.057347    0.058786    0.059861    0.062023    0.068317
 Highest eigenvalues
    1.108827    1.130671    1.157023    1.210468    1.211740    1.286521


........................................................................
.............................. CYCLE    1 ..............................
........................................................................

 iter      E             dE          RMSdq      gap      omega  full diag
   1    -13.8673561 -0.138674E+02  0.151E-05   13.41       0.0  T
   2    -13.8673561 -0.307310E-12  0.801E-06   13.41    3338.7  T
   3    -13.8673561 -0.230926E-13  0.269E-06   13.41    9920.1  T
     SCC iter.                  ...        0 min,  0.002 sec
     gradient                   ...        0 min,  0.002 sec
 * total energy  :   -13.6613203 Eh     change       -0.2271960E-11 Eh
   gradient norm :     0.0136895 Eh/α   predicted     0.0000000E+00 (-100.00%)
   displ. norm   :     0.1571938 α      lambda       -0.1014367E-02
   maximum displ.:     0.0885154 α      in ANC's #8, #5, #1, ...

........................................................................
.............................. CYCLE    2 ..............................
........................................................................

 iter      E             dE          RMSdq      gap      omega  full diag
   1    -13.8706402 -0.138706E+02  0.148E-01   13.67       0.0  T
   2    -13.8706412 -0.100398E-05  0.867E-02   13.67       1.0  T
   3    -13.8706414 -0.228101E-06  0.258E-03   13.67      10.3  T
   4    -13.8706414 -0.314071E-08  0.114E-03   13.67      23.4  T
   5    -13.8706414 -0.390088E-09  0.231E-04   13.67     115.6  T
   6    -13.8706414 -0.786358E-10  0.924E-05   13.67     289.4  T
     SCC iter.                  ...        0 min,  0.006 sec
     gradient                   ...        0 min,  0.002 sec
 * total energy  :   -13.6619094 Eh     change       -0.5891161E-03 Eh
   gradient norm :     0.0051949 Eh/α   predicted    -0.5197129E-03 ( -11.78%)
   displ. norm   :     0.1373925 α      lambda       -0.2316882E-03
   maximum displ.:     0.1227988 α      in ANC's #1, #5, #6, ...

........................................................................
.............................. CYCLE    3 ..............................
........................................................................

 iter      E             dE          RMSdq      gap      omega  full diag
   1    -13.8722837 -0.138723E+02  0.541E-02   13.69       0.0  T
   2    -13.8722842 -0.483802E-06  0.315E-02   13.69       1.0  T
   3    -13.8722842 -0.281156E-07  0.225E-03   13.69      11.9  T
   4    -13.8722842 -0.443907E-08  0.612E-04   13.69      43.7  T
   5    -13.8722842 -0.351264E-09  0.267E-04   13.69     100.2  T
     SCC iter.                  ...        0 min,  0.003 sec
     gradient                   ...        0 min,  0.009 sec
 * total energy  :   -13.6621080 Eh     change       -0.1985177E-03 Eh
   gradient norm :     0.0022090 Eh/α   predicted    -0.1180311E-03 ( -40.54%)
   displ. norm   :     0.2367326 α      lambda       -0.3182286E-03
   maximum displ.:     0.2187571 α      in ANC's #1, #5, #6, ...

........................................................................
.............................. CYCLE    4 ..............................
........................................................................

 iter      E             dE          RMSdq      gap      omega  full diag
   1    -13.8733159 -0.138733E+02  0.771E-02   13.68       0.0  T
   2    -13.8733163 -0.388453E-06  0.455E-02   13.68       1.0  T
   3    -13.8733164 -0.534104E-07  0.186E-03   13.68      14.4  T
   4    -13.8733164 -0.223596E-08  0.782E-04   13.68      34.2  T
   5    -13.8733164 -0.297772E-09  0.158E-04   13.68     169.5  T
     SCC iter.                  ...        0 min,  0.027 sec
     gradient                   ...        0 min,  0.009 sec
 * total energy  :   -13.6623990 Eh     change       -0.2910275E-03 Eh
   gradient norm :     0.0047161 Eh/α   predicted    -0.1680327E-03 ( -42.26%)
   displ. norm   :     0.3124957 α      lambda       -0.3956879E-03
   maximum displ.:     0.2951608 α      in ANC's #1, #5, #6, ...

........................................................................
.............................. CYCLE    5 ..............................
........................................................................

 iter      E             dE          RMSdq      gap      omega  full diag
   1    -13.8731650 -0.138732E+02  0.950E-02   13.66       0.0  T
   2    -13.8731652 -0.216340E-06  0.563E-02   13.66       1.0  T
   3    -13.8731653 -0.774699E-07  0.201E-03   13.65      13.3  T
   4    -13.8731653 -0.573313E-08  0.103E-03   13.65      26.0  T
   5    -13.8731653 -0.551088E-09  0.157E-04   13.65     170.7  T
   6    -13.8731653 -0.122728E-10  0.459E-05   13.65     582.3  T
     SCC iter.                  ...        0 min,  0.036 sec
     gradient                   ...        0 min,  0.012 sec
 * total energy  :   -13.6627744 Eh     change       -0.3753860E-03 Eh
   gradient norm :     0.0073749 Eh/α   predicted    -0.2171654E-03 ( -42.15%)
   displ. norm   :     0.2492911 α      lambda       -0.3445446E-03
   maximum displ.:     0.2384941 α      in ANC's #1, #5, #4, ...

........................................................................
.............................. CYCLE    6 ..............................
........................................................................

 iter      E             dE          RMSdq      gap      omega  full diag
   1    -13.8728988 -0.138729E+02  0.731E-02   13.64       0.0  T
   2    -13.8728990 -0.218423E-06  0.434E-02   13.64       1.0  T
   3    -13.8728990 -0.441961E-07  0.169E-03   13.63      15.9  T
   4    -13.8728990 -0.897958E-08  0.864E-04   13.63      30.9  T
   5    -13.8728990 -0.287329E-09  0.238E-04   13.63     112.3  T
     SCC iter.                  ...        0 min,  0.028 sec
     gradient                   ...        0 min,  0.002 sec
 * total energy  :   -13.6631023 Eh     change       -0.3279674E-03 Eh
   gradient norm :     0.0075347 Eh/α   predicted    -0.1829777E-03 ( -44.21%)
   displ. norm   :     0.2184696 α      lambda       -0.3427668E-03
   maximum displ.:     0.2103593 α      in ANC's #1, #5, #4, ...

........................................................................
.............................. CYCLE    7 ..............................
........................................................................

 iter      E             dE          RMSdq      gap      omega  full diag
   1    -13.8730885 -0.138731E+02  0.617E-02   13.64       0.0  T
   2    -13.8730888 -0.245383E-06  0.366E-02   13.64       1.0  T
   3    -13.8730888 -0.341138E-07  0.162E-03   13.64      16.5  T
   4    -13.8730888 -0.100410E-07  0.791E-04   13.64      33.8  T
   5    -13.8730888 -0.339460E-09  0.280E-04   13.64      95.5  T
     SCC iter.                  ...        0 min,  0.003 sec
     gradient                   ...        0 min,  0.002 sec
 * total energy  :   -13.6634239 Eh     change       -0.3215396E-03 Eh
   gradient norm :     0.0060618 Eh/α   predicted    -0.1795623E-03 ( -44.16%)
   displ. norm   :     0.2541537 α      lambda       -0.3979587E-03
   maximum displ.:     0.2453818 α      in ANC's #1, #5, #24, ...

........................................................................
.............................. CYCLE    8 ..............................
........................................................................

 iter      E             dE          RMSdq      gap      omega  full diag
   1    -13.8731393 -0.138731E+02  0.688E-02   13.68       0.0  T
   2    -13.8731398 -0.492771E-06  0.409E-02   13.68       1.0  T
   3    -13.8731398 -0.391591E-07  0.218E-03   13.68      12.3  T
   4    -13.8731398 -0.202053E-07  0.916E-04   13.68      29.2  T
   5    -13.8731398 -0.615090E-09  0.378E-04   13.68      70.8  T
     SCC iter.                  ...        0 min,  0.003 sec
     gradient                   ...        0 min,  0.002 sec
 * total energy  :   -13.6637864 Eh     change       -0.3625029E-03 Eh
   gradient norm :     0.0043091 Eh/α   predicted    -0.2118354E-03 ( -41.56%)
   displ. norm   :     0.3200666 α      lambda       -0.4443488E-03
   maximum displ.:     0.3090257 α      in ANC's #1, #5, #24, ...

........................................................................
.............................. CYCLE    9 ..............................
........................................................................

 iter      E             dE          RMSdq      gap      omega  full diag
   1    -13.8728625 -0.138729E+02  0.817E-02   13.71       0.0  T
   2    -13.8728632 -0.704564E-06  0.485E-02   13.71       1.0  T
   3    -13.8728633 -0.585930E-07  0.268E-03   13.71      10.0  T
   4    -13.8728633 -0.266179E-07  0.112E-03   13.71      23.9  T
   5    -13.8728633 -0.905162E-09  0.453E-04   13.71      59.0  T
   6    -13.8728633 -0.569127E-10  0.760E-05   13.71     351.6  T
     SCC iter.                  ...        0 min,  0.004 sec
     gradient                   ...        0 min,  0.002 sec
 * total energy  :   -13.6641726 Eh     change       -0.3861942E-03 Eh
   gradient norm :     0.0048341 Eh/α   predicted    -0.2449335E-03 ( -36.58%)
   displ. norm   :     0.4719162 α      lambda       -0.5253094E-03
   maximum displ.:     0.4537666 α      in ANC's #1, #5, #24, ...

........................................................................
.............................. CYCLE   10 ..............................
........................................................................

 iter      E             dE          RMSdq      gap      omega  full diag
   1    -13.8711730 -0.138712E+02  0.119E-01   13.70       0.0  T
   2    -13.8711746 -0.150327E-05  0.705E-02   13.70       1.0  T
   3    -13.8711747 -0.141926E-06  0.400E-03   13.70       6.7  T
   4    -13.8711747 -0.487871E-07  0.171E-03   13.70      15.6  T
   5    -13.8711747 -0.176817E-08  0.692E-04   13.70      38.6  T
   6    -13.8711747 -0.168136E-09  0.110E-04   13.70     243.1  T
     SCC iter.                  ...        0 min,  0.007 sec
     gradient                   ...        0 min,  0.002 sec
 * total energy  :   -13.6645501 Eh     change       -0.3775504E-03 Eh
   gradient norm :     0.0087581 Eh/α   predicted    -0.3211377E-03 ( -14.94%)
   displ. norm   :     0.3153063 α      lambda       -0.2796135E-03
   maximum displ.:     0.2965469 α      in ANC's #1, #24, #8, ...

........................................................................
.............................. CYCLE   11 ..............................
........................................................................

 iter      E             dE          RMSdq      gap      omega  full diag
   1    -13.8717817 -0.138718E+02  0.763E-02   13.68       0.0  T
   2    -13.8717819 -0.167855E-06  0.453E-02   13.68       1.0  T
   3    -13.8717819 -0.643784E-07  0.190E-03   13.68      14.1  T
   4    -13.8717819 -0.322507E-08  0.920E-04   13.68      29.1  T
   5    -13.8717819 -0.562016E-09  0.129E-04   13.68     208.0  T
     SCC iter.                  ...        0 min,  0.003 sec
     gradient                   ...        0 min,  0.002 sec
 * total energy  :   -13.6647495 Eh     change       -0.1994131E-03 Eh
   gradient norm :     0.0086810 Eh/α   predicted    -0.1537065E-03 ( -22.92%)
   displ. norm   :     0.2147378 α      lambda       -0.2493435E-03
   maximum displ.:     0.1862436 α      in ANC's #1, #24, #8, ...

........................................................................
.............................. CYCLE   12 ..............................
........................................................................

 iter      E             dE          RMSdq      gap      omega  full diag
   1    -13.8746968 -0.138747E+02  0.654E-02   13.78       0.0  T
   2    -13.8746973 -0.499740E-06  0.384E-02   13.78       1.0  T
   3    -13.8746973 -0.508348E-07  0.233E-03   13.78      11.5  T
   4    -13.8746973 -0.703799E-08  0.951E-04   13.78      28.1  T
   5    -13.8746973 -0.255024E-09  0.413E-04   13.78      64.8  T
     SCC iter.                  ...        0 min,  0.003 sec
     gradient                   ...        0 min,  0.002 sec
 * total energy  :   -13.6649226 Eh     change       -0.1731036E-03 Eh
   gradient norm :     0.0049609 Eh/α   predicted    -0.1304229E-03 ( -24.66%)
   displ. norm   :     0.2699350 α      lambda       -0.1327240E-03
   maximum displ.:     0.2415582 α      in ANC's #1, #5, #24, ...

........................................................................
.............................. CYCLE   13 ..............................
........................................................................

 iter      E             dE          RMSdq      gap      omega  full diag
   1    -13.8741062 -0.138741E+02  0.768E-02   13.83       0.0  T
   2    -13.8741063 -0.165047E-06  0.456E-02   13.83       1.0  T
   3    -13.8741064 -0.631631E-07  0.173E-03   13.83      15.4  T
   4    -13.8741064 -0.100017E-08  0.815E-04   13.83      32.8  T
   5    -13.8741064 -0.167395E-09  0.125E-04   13.83     213.6  T
     SCC iter.                  ...        0 min,  0.003 sec
     gradient                   ...        0 min,  0.002 sec
 * total energy  :   -13.6649997 Eh     change       -0.7703320E-04 Eh
   gradient norm :     0.0050162 Eh/α   predicted    -0.7119968E-04 (  -7.57%)
   displ. norm   :     0.1095843 α      lambda       -0.9369206E-04
   maximum displ.:     0.0794603 α      in ANC's #1, #3, #24, ...

........................................................................
.............................. CYCLE   14 ..............................
........................................................................

 iter      E             dE          RMSdq      gap      omega  full diag
   1    -13.8768041 -0.138768E+02  0.394E-02   13.84       0.0  T
   2    -13.8768049 -0.809745E-06  0.228E-02   13.84       1.2  T
   3    -13.8768049 -0.250215E-07  0.365E-03   13.84       7.3  T
   4    -13.8768049 -0.875196E-08  0.735E-04   13.84      36.3  T
   5    -13.8768049 -0.418460E-09  0.392E-04   13.84      68.2  T
     SCC iter.                  ...        0 min,  0.003 sec
     gradient                   ...        0 min,  0.002 sec
 * total energy  :   -13.6650468 Eh     change       -0.4712910E-04 Eh
   gradient norm :     0.0026535 Eh/α   predicted    -0.4740835E-04 (   0.59%)
   displ. norm   :     0.0965384 α      lambda       -0.3186160E-04
   maximum displ.:     0.0791617 α      in ANC's #1, #3, #24, ...

........................................................................
.............................. CYCLE   15 ..............................
........................................................................

 iter      E             dE          RMSdq      gap      omega  full diag
   1    -13.8761638 -0.138762E+02  0.293E-02   13.83       0.0  T
   2    -13.8761639 -0.579343E-07  0.174E-02   13.83       1.5  T
   3    -13.8761639 -0.100748E-07  0.994E-04   13.83      26.9  T
   4    -13.8761639 -0.251115E-08  0.473E-04   13.83      56.5  T
     SCC iter.                  ...        0 min,  0.002 sec
     gradient                   ...        0 min,  0.020 sec
 * total energy  :   -13.6650697 Eh     change       -0.2286698E-04 Eh
   gradient norm :     0.0020686 Eh/α   predicted    -0.1607981E-04 ( -29.68%)
   displ. norm   :     0.1100754 α      lambda       -0.4100970E-04
   maximum displ.:     0.0863901 α      in ANC's #3, #1, #11, ...

........................................................................
.............................. CYCLE   16 ..............................
........................................................................

 iter      E             dE          RMSdq      gap      omega  full diag
   1    -13.8756377 -0.138756E+02  0.336E-02   13.81       0.0  T
   2    -13.8756377 -0.438443E-07  0.201E-02   13.81       1.3  T
   3    -13.8756378 -0.119738E-07  0.877E-04   13.81      30.5  T
   4    -13.8756378 -0.164919E-08  0.450E-04   13.81      59.4  T
     SCC iter.                  ...        0 min,  0.025 sec
     gradient                   ...        0 min,  0.017 sec
 * total energy  :   -13.6650959 Eh     change       -0.2625351E-04 Eh
   gradient norm :     0.0018352 Eh/α   predicted    -0.2075292E-04 ( -20.95%)
   displ. norm   :     0.1420926 α      lambda       -0.3415156E-04
   maximum displ.:     0.1224679 α      in ANC's #3, #1, #5, ...

........................................................................
.............................. CYCLE   17 ..............................
........................................................................

 iter      E             dE          RMSdq      gap      omega  full diag
   1    -13.8757601 -0.138758E+02  0.418E-02   13.79       0.0  T
   2    -13.8757602 -0.162795E-06  0.249E-02   13.79       1.1  T
   3    -13.8757603 -0.168666E-07  0.195E-03   13.79      13.7  T
   4    -13.8757603 -0.158504E-07  0.708E-04   13.79      37.7  T
   5    -13.8757603 -0.348054E-09  0.195E-04   13.79     137.3  T
     SCC iter.                  ...        0 min,  0.011 sec
     gradient                   ...        0 min,  0.002 sec
 * total energy  :   -13.6651104 Eh     change       -0.1451190E-04 Eh
   gradient norm :     0.0033658 Eh/α   predicted    -0.1722779E-04 (  18.71%)
   displ. norm   :     0.0183002 α      lambda       -0.1754642E-04
   maximum displ.:     0.0121335 α      in ANC's #1, #3, #5, ...

........................................................................
.............................. CYCLE   18 ..............................
........................................................................

 iter      E             dE          RMSdq      gap      omega  full diag
   1    -13.8760298 -0.138760E+02  0.121E-02   13.79       0.0  T
   2    -13.8760299 -0.861931E-07  0.685E-03   13.79       3.9  T
   3    -13.8760299 -0.568286E-08  0.172E-03   13.79      15.6  T
   4    -13.8760299 -0.440181E-08  0.416E-04   13.79      64.3  T
   5    -13.8760299 -0.115460E-09  0.155E-04   13.79     172.7  T
     SCC iter.                  ...        0 min,  0.008 sec
     gradient                   ...        0 min,  0.002 sec
 * total energy  :   -13.6651212 Eh     change       -0.1080717E-04 Eh
   gradient norm :     0.0015704 Eh/α   predicted    -0.8776770E-05 ( -18.79%)
   displ. norm   :     0.0132008 α      lambda       -0.5791010E-05
   maximum displ.:     0.0058393 α      in ANC's #6, #1, #11, ...

........................................................................
.............................. CYCLE   19 ..............................
........................................................................

 iter      E             dE          RMSdq      gap      omega  full diag
   1    -13.8760927 -0.138761E+02  0.994E-03   13.81       0.0  T
   2    -13.8760927 -0.180374E-07  0.577E-03   13.81       4.6  T
   3    -13.8760927 -0.211180E-08  0.635E-04   13.81      42.1  T
   4    -13.8760927 -0.127516E-08  0.222E-04   13.81     120.4  T
     SCC iter.                  ...        0 min,  0.002 sec
     gradient                   ...        0 min,  0.002 sec
 * total energy  :   -13.6651250 Eh     change       -0.3762488E-05 Eh
   gradient norm :     0.0008465 Eh/α   predicted    -0.2895218E-05 ( -23.05%)
   displ. norm   :     0.0084036 α      lambda       -0.1655799E-05
   maximum displ.:     0.0053699 α      in ANC's #3, #4, #7, ...

........................................................................
.............................. CYCLE   20 ..............................
........................................................................

 iter      E             dE          RMSdq      gap      omega  full diag
   1    -13.8760043 -0.138760E+02  0.535E-03   13.80       0.0  T
   2    -13.8760043 -0.203053E-07  0.296E-03   13.80       9.0  T
   3    -13.8760043 -0.921704E-09  0.876E-04   13.80      30.5  T
   4    -13.8760043 -0.107661E-08  0.166E-04   13.80     161.4  T
     SCC iter.                  ...        0 min,  0.005 sec
     gradient                   ...        0 min,  0.002 sec
 * total energy  :   -13.6651262 Eh     change       -0.1171412E-05 Eh
   gradient norm :     0.0004006 Eh/α   predicted    -0.8283284E-06 ( -29.29%)
   displ. norm   :     0.0264091 α      lambda       -0.1319891E-05
   maximum displ.:     0.0210338 α      in ANC's #3, #1, #11, ...
 * RMSD in coord.:     0.8606175 α      energy gain  -0.3805854E-02 Eh

generating ANC from exact Hessian ...
Using Lindh-Hessian (1995)
 Shifting diagonal of input Hessian by    5.7794322842000109E-003
 Lowest  eigenvalues of input Hessian
    0.000000    0.000000    0.000000    0.000000    0.000000    0.000000
    0.010000    0.013352    0.013755    0.018281    0.022451    0.045947
    0.047955    0.057631    0.060161    0.060566    0.062353    0.070996
 Highest eigenvalues
    1.131702    1.150921    1.197775    1.197891    1.225105    1.287461


........................................................................
.............................. CYCLE   21 ..............................
........................................................................

 iter      E             dE          RMSdq      gap      omega  full diag
   1    -13.8758688 -0.138759E+02  0.838E-03   13.79       0.0  T
   2    -13.8758688 -0.829424E-08  0.498E-03   13.79       5.4  T
   3    -13.8758688 -0.667855E-09  0.413E-04   13.79      64.8  T
   4    -13.8758688 -0.610632E-09  0.139E-04   13.79     191.8  T
     SCC iter.                  ...        0 min,  0.043 sec
     gradient                   ...        0 min,  0.002 sec
 * total energy  :   -13.6651269 Eh     change       -0.7405928E-06 Eh
   gradient norm :     0.0004566 Eh/α   predicted     0.0000000E+00 (-100.00%)
   displ. norm   :     0.0053691 α      lambda       -0.6743786E-06
   maximum displ.:     0.0043702 α      in ANC's #4, #8, #1, ...

   *** GEOMETRY OPTIMIZATION CONVERGED AFTER 21 ITERATIONS ***

------------------------------------------------------------------------
 total energy gain   :        -0.0038066 Eh       -2.3887 kcal/mol
 total RMSD          :         0.8606175 a0        0.4554 Å
 total power (kW/mol):        -0.4759149 (step)  -22.2983 (real)
------------------------------------------------------------------------

 ANCopt (total)                0 d,  0 h,  0 min,  0.448 sec
 optimizer setup                ...        0 min,  0.000 sec (  0.025%)
 model hessian                  ...        0 min,  0.013 sec (  3.007%)
 ANC generation                 ...        0 min,  0.001 sec (  0.248%)
 coordinate transformation      ...        0 min,  0.000 sec (  0.043%)
 single point calculation       ...        0 min,  0.410 sec ( 91.516%)
 optimization log               ...        0 min,  0.004 sec (  0.880%)
 hessian update                 ...        0 min,  0.014 sec (  3.028%)
 rational function              ...        0 min,  0.004 sec (  0.909%)

================
 final structure:
================
14
 xtb: 6.7.1 (edcfbbe)
C           -1.75537781164978        0.57278719839055       -0.17814606701188
H           -1.10252581428232        1.12758182202812       -0.84926859807973
H           -2.76332967953743        0.59399507280059       -0.58822163840549
H           -1.41839426282386       -0.46108232945847       -0.14874471363714
C           -1.73302037934343        1.18614459671100        1.21667415525038
H           -0.71723665923849        1.14218768416684        1.61614814894873
H           -2.37440437763871        0.60182399292651        1.88056570515351
C           -2.20747686772657        2.63743201205464        1.20931029742180
H           -1.56714065456900        3.22126043554484        0.54374960621445
H           -3.22430673939222        2.68135032141144        0.81136177065165
C           -2.18250735775576        3.25167793997667        2.60362961532537
H           -1.17418319938941        3.22991524561214        3.01191735739667
H           -2.51849712374120        4.28581883552261        2.57437236355277
H           -2.83461024291167        2.69803534231223        3.27603079721890

 Bond Distances (Angstroems)
 ---------------------------
C1-H2=1.0883         C1-H3=1.0884         C1-H4=1.0878         C1-C5=1.5239         H2-C1=1.0883         H3-C1=1.0884         
H4-C1=1.0878         C5-C1=1.5239         C5-H6=1.0924         C5-H7=1.0925         C5-C8=1.5269         H6-C5=1.0924         
H7-C5=1.0925         C8-C5=1.5269         C8-H9=1.0926         C8-H10=1.0928        C8-C11=1.5238        H9-C8=1.0926         
H10-C8=1.0928        C11-C8=1.5238        C11-H12=1.0881       C11-H13=1.0877       C11-H14=1.0881       H12-C11=1.0881       
H13-C11=1.0877       H14-C11=1.0881       
 C  H  Rav=1.0899 sigma=0.0022  Rmin=1.0877  Rmax=1.0928    10
 C  C  Rav=1.5249 sigma=0.0014  Rmin=1.5238  Rmax=1.5269     3

 selected bond angles (degree)
 --------------------
H3-C1-H2=108.26                H4-C1-H2=108.38                H4-C1-H3=108.40                C5-C1-H2=110.51                
C5-C1-H3=110.52                C5-C1-H4=110.69                H6-C5-C1=109.40                H7-C5-C1=109.41                
H7-C5-H6=107.59                C8-C5-C1=111.94                C8-C5-H6=109.21                C8-C5-H7=109.20                
H9-C8-C5=109.19                H10-C8-C5=109.21               H10-C8-H9=107.58               C11-C8-C5=111.94               
C11-C8-H9=109.41               C11-C8-H10=109.41              

 selected dihedral angles (degree)
 ---------------------------------
H6-C5-C1-H2=298.99            H6-C5-C1-H3=179.18            H6-C5-C1-H4= 59.07            H7-C5-C1-H2=181.36            
H7-C5-C1-H3= 61.55            H7-C5-C1-H4=301.44            C8-C5-C1-H2= 60.18            C8-C5-C1-H3=300.36            
C8-C5-C1-H4=180.26            H9-C8-C5-C1=301.42            H9-C8-C5-H6= 62.72            H9-C8-C5-H7=180.11            
H10-C8-C5-C1= 58.80           H10-C8-C5-H6=180.10           H10-C8-C5-H7=297.49           C11-C8-C5-C1=180.11           
C11-C8-C5-H6=301.41           C11-C8-C5-H7= 58.81           
           -------------------------------------------------
          |                Final Singlepoint                |
           -------------------------------------------------

          ...................................................
          :                      SETUP                      :
          :.................................................:
          :  # basis functions                  26          :
          :  # atomic orbitals                  26          :
          :  # shells                           18          :
          :  # electrons                        26          :
          :  max. iterations                   250          :
          :  Hamiltonian                  GFN2-xTB          :
          :  restarted?                      false          :
          :  GBSA solvation                  false          :
          :  PC potential                    false          :
          :  electronic temp.          300.0000000     K    :
          :  accuracy                    1.0000000          :
          :  -> integral cutoff          0.2500000E+02      :
          :  -> integral neglect         0.1000000E-07      :
          :  -> SCF convergence          0.1000000E-05 Eh   :
          :  -> wf. convergence          0.1000000E-03 e    :
          :  Broyden damping             0.4000000          :
          :  net charge                          0          :
          :  unpaired electrons                  0          :
          ...................................................

 iter      E             dE          RMSdq      gap      omega  full diag
   1    -13.8758688 -0.138759E+02  0.438E-05   13.79       0.0  T
   2    -13.8758688 -0.105160E-11  0.247E-05   13.79    1083.6  T
   3    -13.8758688  0.355271E-13  0.617E-06   13.79    4334.1  T

   *** convergence criteria satisfied after 3 iterations ***

         #    Occupation            Energy/Eh            Energy/eV
      -------------------------------------------------------------
         1        2.0000           -0.6179463             -16.8152
       ...           ...                  ...                  ...
         7        2.0000           -0.4878826             -13.2760
         8        2.0000           -0.4789589             -13.0331
         9        2.0000           -0.4546443             -12.3715
        10        2.0000           -0.4395076             -11.9596
        11        2.0000           -0.4367424             -11.8844
        12        2.0000           -0.4258271             -11.5873
        13        2.0000           -0.4195600             -11.4168 (HOMO)
        14                          0.0873949               2.3781 (LUMO)
        15                          0.1265874               3.4446
        16                          0.1277123               3.4752
        17                          0.1524814               4.1492
        18                          0.1628820               4.4322
       ...                                ...                  ...
        26                          0.3112459               8.4694
      -------------------------------------------------------------
                  HL-Gap            0.5069549 Eh           13.7949 eV
             Fermi-level           -0.1660825 Eh           -4.5193 eV

 SCC (total)                   0 d,  0 h,  0 min,  0.005 sec
 SCC setup                      ...        0 min,  0.000 sec (  2.933%)
 Dispersion                     ...        0 min,  0.000 sec (  2.803%)
 classical contributions        ...        0 min,  0.000 sec (  1.324%)
 integral evaluation            ...        0 min,  0.001 sec ( 12.827%)
 iterations                     ...        0 min,  0.002 sec ( 34.678%)
 molecular gradient             ...        0 min,  0.002 sec ( 40.192%)
 printout                       ...        0 min,  0.000 sec (  4.867%)

         :::::::::::::::::::::::::::::::::::::::::::::::::::::
         ::                     SUMMARY                     ::
         :::::::::::::::::::::::::::::::::::::::::::::::::::::
         :: total energy             -13.665126911466 Eh    ::
         :: gradient norm              0.000456119104 Eh/a0 ::
         :: HOMO-LUMO gap             13.794944681537 eV    ::
         ::.................................................::
         :: SCC energy               -13.875864911744 Eh    ::
         :: -> isotropic ES            0.002996590538 Eh    ::
         :: -> anisotropic ES          0.004915398122 Eh    ::
         :: -> anisotropic XC          0.009064516285 Eh    ::
         :: -> dispersion             -0.006048773140 Eh    ::
         :: repulsion energy           0.210738000279 Eh    ::
         :: add. restraining           0.000000000000 Eh    ::
         :: total charge              -0.000000000000 e     ::
         :::::::::::::::::::::::::::::::::::::::::::::::::::::

           -------------------------------------------------
          |                Property Printout                |
           -------------------------------------------------

    * Orbital Energies and Occupations

         #    Occupation            Energy/Eh            Energy/eV
      -------------------------------------------------------------
         1        2.0000           -0.6179463             -16.8152
         2        2.0000           -0.5989405             -16.2980
         3        2.0000           -0.5679016             -15.4534
         4        2.0000           -0.5523956             -15.0314
         5        2.0000           -0.5138187             -13.9817
         6        2.0000           -0.4918222             -13.3832
         7        2.0000           -0.4878826             -13.2760
         8        2.0000           -0.4789589             -13.0331
         9        2.0000           -0.4546443             -12.3715
        10        2.0000           -0.4395076             -11.9596
        11        2.0000           -0.4367424             -11.8844
        12        2.0000           -0.4258271             -11.5873
        13        2.0000           -0.4195600             -11.4168 (HOMO)
        14                          0.0873949               2.3781 (LUMO)
        15                          0.1265874               3.4446
        16                          0.1277123               3.4752
        17                          0.1524814               4.1492
        18                          0.1628820               4.4322
        19                          0.1834237               4.9912
        20                          0.1935485               5.2667
        21                          0.1969338               5.3588
        22                          0.2242541               6.1023
        23                          0.2548606               6.9351
        24                          0.2643305               7.1928
       ...                                ...                  ...
        26                          0.3112459               8.4694
      -------------------------------------------------------------
                  HL-Gap            0.5069549 Eh           13.7949 eV
             Fermi-level           -0.1660825 Eh           -4.5193 eV

     #   Z          covCN         q      C6AA      α(0)
     1   6 C        3.752    -0.102    22.509     6.766
     2   1 H        0.925     0.033     2.551     2.498
     3   1 H        0.925     0.033     2.550     2.497
     4   1 H        0.925     0.032     2.554     2.499
     5   6 C        3.801    -0.053    21.534     6.607
     6   1 H        0.924     0.029     2.599     2.521
     7   1 H        0.924     0.029     2.600     2.522
     8   6 C        3.801    -0.053    21.534     6.607
     9   1 H        0.924     0.029     2.600     2.522
    10   1 H        0.924     0.029     2.601     2.522
    11   6 C        3.752    -0.102    22.510     6.766
    12   1 H        0.925     0.033     2.550     2.497
    13   1 H        0.925     0.032     2.554     2.499
    14   1 H        0.925     0.033     2.550     2.497

 Mol. C6AA /au·bohr⁶  :       1207.516142
 Mol. C8AA /au·bohr⁸  :      24480.721871
 Mol. α(0) /au        :         51.819892


Wiberg/Mayer (AO) data.
largest (>0.10) Wiberg bond orders for each atom

 ---------------------------------------------------------------------------
     #   Z sym  total        # sym  WBO       # sym  WBO       # sym  WBO
 ---------------------------------------------------------------------------
     1   6 C    3.997 --     5 C    1.019     2 H    0.988     3 H    0.988
                             4 H    0.988
     2   1 H    0.999 --     1 C    0.988
     3   1 H    0.999 --     1 C    0.988
     4   1 H    0.999 --     1 C    0.988
     5   6 C    3.998 --     1 C    1.019     8 C    1.009     7 H    0.979
                             6 H    0.979
     6   1 H    0.999 --     5 C    0.979
     7   1 H    0.999 --     5 C    0.979
     8   6 C    3.998 --    11 C    1.019     5 C    1.009     9 H    0.979
                            10 H    0.979
     9   1 H    0.999 --     8 C    0.979
    10   1 H    0.999 --     8 C    0.979
    11   6 C    3.997 --     8 C    1.019    14 H    0.988    12 H    0.988
                            13 H    0.988
    12   1 H    0.999 --    11 C    0.988
    13   1 H    0.999 --    11 C    0.988
    14   1 H    0.999 --    11 C    0.988
 ---------------------------------------------------------------------------

Topologies differ in total number of bonds
Writing topology from bond orders to xtbtopo.mol

molecular dipole:
                 x           y           z       tot (Debye)
 q only:        0.000      -0.000       0.000
   full:        0.000      -0.000       0.000       0.001
molecular quadrupole (traceless):
                xx          xy          yy          xz          yz          zz
 q only:       -0.158      -0.046       0.026       0.014       0.108       0.133
  q+dip:        0.854       0.274      -0.214      -0.039      -0.663      -0.641
   full:        0.373       0.121      -0.091      -0.020      -0.283      -0.282

           -------------------------------------------------
          |                Geometry Summary                 |
           -------------------------------------------------

      molecular mass/u    :       58.1223511
   center of mass at/Å    :       -1.9695728       1.9120242       1.2128539
Note: The following floating-point exceptions are signalling: IEEE_UNDERFLOW_FLAG IEEE_DENORMAL
normal termination of xtb
  moments of inertia/u·Å² :        0.2163157E+02   0.1370179E+03   0.1461124E+03
rotational constants/cm⁻¹ :        0.7793071E+00   0.1230323E+00   0.1153744E+00

 * 13 selected distances

     #   Z          #   Z                                           value/Å
     1   6 C        2   1 H                                       1.0883099
     1   6 C        3   1 H                                       1.0883836
     1   6 C        4   1 H                                       1.0878000
     1   6 C        5   6 C                                       1.5238868
     5   6 C        6   1 H                                       1.0923957
     5   6 C        7   1 H                                       1.0925000
     5   6 C        8   6 C                                       1.5268919 (max)
     8   6 C        9   1 H                                       1.0926378
     8   6 C       10   1 H                                       1.0928106
     8   6 C       11   6 C                                       1.5238269
    11   6 C       12   1 H                                       1.0880672
    11   6 C       13   1 H                                       1.0877466 (min)
    11   6 C       14   1 H                                       1.0880634

 * 2 distinct bonds (by element types)

   Z      Z             #   av. dist./Å        max./Å        min./Å
   1 H    6 C          10     1.0898715     1.0928106     1.0877466
   6 C    6 C           3     1.5248685     1.5268919     1.5238269


optimized geometry written to: xtbopt.xyz


           -------------------------------------------------
          | TOTAL ENERGY              -13.665126911466 Eh   |
          | GRADIENT NORM               0.000456119104 Eh/α |
          | HOMO-LUMO GAP              13.794944681537 eV   |
           -------------------------------------------------

------------------------------------------------------------------------
 * finished run on 2026/08/17 at 12:14:25.098     
------------------------------------------------------------------------
 total:
 * wall-time:     0 d,  0 h,  0 min,  0.581 sec
 *  cpu-time:     0 d,  0 h,  0 min,  2.057 sec
 * ratio c/w:     3.537 speedup
 SCF:
 * wall-time:     0 d,  0 h,  0 min,  0.090 sec
 *  cpu-time:     0 d,  0 h,  0 min,  0.324 sec
 * ratio c/w:     3.604 speedup
 ANC optimizer:
 * wall-time:     0 d,  0 h,  0 min,  0.455 sec
 *  cpu-time:     0 d,  0 h,  0 min,  1.599 sec
 * ratio c/w:     3.517 speedup

