14
 energy: -13.665126911466 gnorm: 0.000456119104 xtb: 6.7.1 (edcfbbe)
C           -1.75537781164978        0.57278719839055       -0.17814606701188
H           -1.10252581428232        1.12758182202812       -0.84926859807973
H           -2.76332967953743        0.59399507280059       -0.58822163840549
H           -1.41839426282386       -0.46108232945847       -0.14874471363714
C           -1.73302037934343        1.18614459671100        1.21667415525038
H           -0.71723665923849        1.14218768416684        1.61614814894873
H           -2.37440437763871        0.60182399292651        1.88056570515351
C           -2.20747686772657        2.63743201205464        1.20931029742180
H           -1.56714065456900        3.22126043554484        0.54374960621445
H           -3.22430673939222        2.68135032141144        0.81136177065165
C           -2.18250735775576        3.25167793997667        2.60362961532537
H           -1.17418319938941        3.22991524561214        3.01191735739667
H           -2.51849712374120        4.28581883552261        2.57437236355277
H           -2.83461024291167        2.69803534231223        3.27603079721890
