%mem=1GB
%nprocshared=1
%chk=SmartField4gau.chk
#p Amber=(SoftFirst,Print) nosymm geom=nocrowd opt Freq

Title

0 1
O-OW--0.175468  0.000000  0.729012  -0.103191
H-HW-+0.175468  0.000000  0.984051  0.825531
O-OW--0.175468  -0.000000  -0.729012  -0.103191
H-HW-+0.175468  -0.000000  -0.984051  0.825531

! Master function
NonBon 3 1 0 0 0.000 0.000 0.500 0.000 0.000 -1.2
! SMARTFIELD FF
!Bonds
HrmStr1 OW HW  582.673 0.963
HrmStr1 OW OW  337.041 1.458
HrmStr1 OW HW  582.673 0.963
!Angles
HrmBnd1 HW OW OW  69.008 105.356
! Torsions
AmbTrs HW OW OW HW 0  0  0  0 0.00 1.31 0.00 0. 1.0

