      -----------------------------------------------------------      
     |                   =====================                   |     
     |                           x T B                           |     
     |                   =====================                   |     
     |                         S. Grimme                         |     
     |          Mulliken Center for Theoretical Chemistry        |     
     |                    University of Bonn                     |     
      -----------------------------------------------------------      

   * xtb version 6.7.1 (edcfbbe) compiled by 'conda@5dfe00f5fb80' on 2026-06-10

   xtb is free software: you can redistribute it and/or modify it under
   the terms of the GNU Lesser General Public License as published by
   the Free Software Foundation, either version 3 of the License, or
   (at your option) any later version.
   
   xtb is distributed in the hope that it will be useful,
   but WITHOUT ANY WARRANTY; without even the implied warranty of
   MERCHANTABILITY or FITNESS FOR A PARTICULAR PURPOSE.  See the
   GNU Lesser General Public License for more details.
   
   Cite this work as:
   * C. Bannwarth, E. Caldeweyher, S. Ehlert, A. Hansen, P. Pracht,
     J. Seibert, S. Spicher, S. Grimme, WIREs Comput. Mol. Sci., 2020, 11,
     e01493. DOI: 10.1002/wcms.1493
   
   for GFN2-xTB:
   * C. Bannwarth, S. Ehlert and S. Grimme., J. Chem. Theory Comput., 2019,
     15, 1652-1671. DOI: 10.1021/acs.jctc.8b01176
   for GFN1-xTB:
   * S. Grimme, C. Bannwarth, P. Shushkov, J. Chem. Theory Comput., 2017,
     13, 1989-2009. DOI: 10.1021/acs.jctc.7b00118
   for GFN0-xTB:
   * P. Pracht, E. Caldeweyher, S. Ehlert, S. Grimme, ChemRxiv, 2019, preprint.
     DOI: 10.26434/chemrxiv.8326202.v1
   for GFN-FF:
   * S. Spicher and S. Grimme, Angew. Chem. Int. Ed., 2020, 59, 15665-15673.
     DOI: 10.1002/anie.202004239
   
   for ALPB and GBSA implicit solvation:
   * S. Ehlert, M. Stahn, S. Spicher, S. Grimme, J. Chem. Theory Comput.,
     2021, 17, 4250-4261. DOI: 10.1021/acs.jctc.1c00471
   
   for ddCOSMO and CPCM-X implicit solvation:
   * M. Stahn, S. Ehlert, S. Grimme, J. Phys. Chem. A,
     2023, XX, XXXX-XXXX. DOI: 10.1021/acs.jpca.3c04382
   
   for DFT-D4:
   * E. Caldeweyher, C. Bannwarth and S. Grimme, J. Chem. Phys., 2017,
     147, 034112. DOI: 10.1063/1.4993215
   * E. Caldeweyher, S. Ehlert, A. Hansen, H. Neugebauer, S. Spicher,
     C. Bannwarth and S. Grimme, J. Chem. Phys., 2019, 150, 154122.
     DOI: 10.1063/1.5090222
   * E. Caldeweyher, J.-M. Mewes, S. Ehlert and S. Grimme, Phys. Chem. Chem. Phys.
     2020, 22, 8499-8512. DOI: 10.1039/D0CP00502A
   
   for sTDA-xTB:
   * S. Grimme and C. Bannwarth, J. Chem. Phys., 2016, 145, 054103.
     DOI: 10.1063/1.4959605
   
   in the mass-spec context:
   * V. Asgeirsson, C. Bauer and S. Grimme, Chem. Sci., 2017, 8, 4879.
     DOI: 10.1039/c7sc00601b
   * J. Koopman and S. Grimme, ACS Omega 2019, 4, 12, 15120-15133.
     DOI: 10.1021/acsomega.9b02011
   
   for metadynamics refer to:
   * S. Grimme, J. Chem. Theory Comput., 2019, 155, 2847-2862
     DOI: 10.1021/acs.jctc.9b00143
   
   for SPH calculations refer to:
   * S. Spicher and S. Grimme, J. Chem. Theory Comput., 2021, 17, 1701-1714
     DOI: 10.1021/acs.jctc.0c01306
   
   for ONIOM refer to:
   * C. Plett, A. Katbashev, S. Ehlert, S. Grimme, M. Bursch,
     Phys. Chem. Chem. Phys., 2023, 25, 17860-17868. DOI: 10.1039/D3CP02178E
   
   for DIPRO refer to:
   * J. Kohn, N. Gildemeister, S. Grimme, D. Fazzi, A. Hansen,
     J. Chem. Phys., 2023, just accepted.
   
   for PTB refer to:
   * S. Grimme, M. Mueller, A. Hansen, J. Chem. Phys., 2023, 158, 124111.
     DOI: 10.1063/5.0137838
   
   with help from (in alphabetical order)
   P. Atkinson, C. Bannwarth, F. Bohle, G. Brandenburg, E. Caldeweyher
   M. Checinski, S. Dohm, S. Ehlert, S. Ehrlich, I. Gerasimov, C. Hölzer
   A. Katbashev, J. Kohn, J. Koopman, C. Lavigne, S. Lehtola, F. März, M. Müller,
   F. Musil, H. Neugebauer, J. Pisarek, C. Plett, P. Pracht, F. Pultar,
   J. Seibert, P. Shushkov, S. Spicher, M. Stahn, M. Steiner, T. Strunk,
   J. Stückrath, T. Rose, and J. Unsleber
   
 * started run on 2026/08/11 at 11:11:58.865     
   ID    Z sym.   atoms
    1    6 C      1, 5, 8, 11
    2    1 H      2-4, 6, 7, 9, 10, 12-14

           -------------------------------------------------
          |                Calculation Setup                |
           -------------------------------------------------

          program call               : xtb input.xyz --gfn2 --opt tight --chrg 0 --uhf 0 --iterations 250
          coordinate file            : input.xyz
          omp threads                :                     4


           -------------------------------------------------
          |                 G F N 2 - x T B                 |
           -------------------------------------------------

        Reference                      10.1021/acs.jctc.8b01176
      * Hamiltonian:
        H0-scaling (s, p, d)           1.850000    2.230000    2.230000
        zeta-weighting                 0.500000
      * Dispersion:
        s8                             2.700000
        a1                             0.520000
        a2                             5.000000
        s9                             5.000000
      * Repulsion:
        kExp                           1.500000    1.000000
        rExp                           1.000000
      * Coulomb:
        alpha                          2.000000
        third order                    shell-resolved
        anisotropic                    true
        a3                             3.000000
        a5                             4.000000
        cn-shift                       1.200000
        cn-exp                         4.000000
        max-rad                        5.000000


          ...................................................
          :                      SETUP                      :
          :.................................................:
          :  # basis functions                  26          :
          :  # atomic orbitals                  26          :
          :  # shells                           18          :
          :  # electrons                        26          :
          :  max. iterations                   250          :
          :  Hamiltonian                  GFN2-xTB          :
          :  restarted?                      false          :
          :  GBSA solvation                  false          :
          :  PC potential                    false          :
          :  electronic temp.          300.0000000     K    :
          :  accuracy                    1.0000000          :
          :  -> integral cutoff          0.2500000E+02      :
          :  -> integral neglect         0.1000000E-07      :
          :  -> SCF convergence          0.1000000E-05 Eh   :
          :  -> wf. convergence          0.1000000E-03 e    :
          :  Broyden damping             0.4000000          :
          :  net charge                          0          :
          :  unpaired electrons                  0          :
          ...................................................

 iter      E             dE          RMSdq      gap      omega  full diag
   1    -13.8197722 -0.138198E+02  0.248E+00   13.97       0.0  T
   2    -13.8580438 -0.382716E-01  0.129E+00   13.68       1.0  T
   3    -13.8584482 -0.404415E-03  0.686E-01   13.62       1.0  T
   4    -13.8585737 -0.125514E-03  0.928E-02   13.57       1.0  T
   5    -13.8585779 -0.420713E-05  0.489E-02   13.57       1.0  T
   6    -13.8585785 -0.623845E-06  0.245E-03   13.57      10.9  T
   7    -13.8585785 -0.505446E-08  0.831E-04   13.57      32.1  T
   8    -13.8585785 -0.479329E-09  0.160E-04   13.57     167.1  T

   *** convergence criteria satisfied after 8 iterations ***

         #    Occupation            Energy/Eh            Energy/eV
      -------------------------------------------------------------
         1        2.0000           -0.6176504             -16.8071
       ...           ...                  ...                  ...
         7        2.0000           -0.4808059             -13.0834
         8        2.0000           -0.4753751             -12.9356
         9        2.0000           -0.4499622             -12.2441
        10        2.0000           -0.4486342             -12.2080
        11        2.0000           -0.4310395             -11.7292
        12        2.0000           -0.4240938             -11.5402
        13        2.0000           -0.4110351             -11.1848 (HOMO)
        14                          0.0877967               2.3891 (LUMO)
        15                          0.0963883               2.6229
        16                          0.1173560               3.1934
        17                          0.1189731               3.2374
        18                          0.1517878               4.1304
       ...                                ...                  ...
        26                          0.3641255               9.9084
      -------------------------------------------------------------
                  HL-Gap            0.4988319 Eh           13.5739 eV
             Fermi-level           -0.1616192 Eh           -4.3979 eV

 SCC (total)                   0 d,  0 h,  0 min,  0.087 sec
 SCC setup                      ...        0 min,  0.003 sec (  3.215%)
 Dispersion                     ...        0 min,  0.002 sec (  1.744%)
 classical contributions        ...        0 min,  0.003 sec (  3.358%)
 integral evaluation            ...        0 min,  0.009 sec (  9.860%)
 iterations                     ...        0 min,  0.065 sec ( 75.029%)
 molecular gradient             ...        0 min,  0.006 sec (  6.451%)
 printout                       ...        0 min,  0.000 sec (  0.209%)

         :::::::::::::::::::::::::::::::::::::::::::::::::::::
         ::                     SUMMARY                     ::
         :::::::::::::::::::::::::::::::::::::::::::::::::::::
         :: total energy             -13.652223797536 Eh    ::
         :: gradient norm              0.021454147619 Eh/a0 ::
         :: HOMO-LUMO gap             13.573905946909 eV    ::
         ::.................................................::
         :: SCC energy               -13.858571323864 Eh    ::
         :: -> isotropic ES            0.003062939304 Eh    ::
         :: -> anisotropic ES          0.005442414181 Eh    ::
         :: -> anisotropic XC          0.009062823901 Eh    ::
         :: -> dispersion             -0.006373262294 Eh    ::
         :: repulsion energy           0.206347526327 Eh    ::
         :: add. restraining           0.000000000000 Eh    ::
         :: total charge              -0.000000000000 e     ::
         :::::::::::::::::::::::::::::::::::::::::::::::::::::

      ----------------------------------------------------------- 
     |                   =====================                   |
     |                        A N C O P T                        |
     |                   =====================                   |
     |               Approximate Normal Coordinate               |
     |                Rational Function Optimizer                |
      ----------------------------------------------------------- 
      ----------------------------------------------------------- 
     |                   =====================                   |
     |                        A N C O P T                        |
     |                   =====================                   |
     |               Approximate Normal Coordinate               |
     |                Rational Function Optimizer                |
      ----------------------------------------------------------- 

          ...................................................
          :                      SETUP                      :
          :.................................................:
          :   optimization level             tight          :
          :   max. optcycles                   200          :
          :   ANC micro-cycles                  20          :
          :   degrees of freedom                36          :
          :.................................................:
          :   RF solver                   davidson          :
          :   write xtbopt.log                true          :
          :   linear?                        false          :
          :   energy convergence         0.1000000E-05 Eh   :
          :   grad. convergence          0.8000000E-03 Eh/α :
          :   maxmium RF displ.          1.0000000          :
          :   Hlow (freq-cutoff)         0.1000000E-01      :
          :   Hmax (freq-cutoff)         5.0000000          :
          :   S6 in model hess.         20.0000000          :
          ...................................................

generating ANC from exact Hessian ...
Using Lindh-Hessian (1995)
 Shifting diagonal of input Hessian by    6.4730943557496194E-003
 Lowest  eigenvalues of input Hessian
    0.000000    0.000000    0.000000    0.000000    0.000000    0.000000
    0.010000    0.011915    0.014373    0.020224    0.027165    0.042986
    0.051497    0.057673    0.058497    0.060355    0.060852    0.069124
 Highest eigenvalues
    1.109802    1.130101    1.155091    1.187931    1.251692    1.268634


........................................................................
.............................. CYCLE    1 ..............................
........................................................................

 iter      E             dE          RMSdq      gap      omega  full diag
   1    -13.8585785 -0.138586E+02  0.655E-05   13.57       0.0  T
   2    -13.8585785 -0.492406E-11  0.365E-05   13.57     731.7  T
   3    -13.8585785 -0.289546E-12  0.131E-05   13.57    2038.4  T
     SCC iter.                  ...        0 min,  0.002 sec
     gradient                   ...        0 min,  0.002 sec
 * total energy  :   -13.6522238 Eh     change       -0.2083844E-10 Eh
   gradient norm :     0.0214526 Eh/α   predicted     0.0000000E+00 (-100.00%)
   displ. norm   :     0.5939531 α      lambda       -0.7160382E-02
   maximum displ.:     0.5208701 α      in ANC's #1, #2, #3, ...

........................................................................
.............................. CYCLE    2 ..............................
........................................................................

 iter      E             dE          RMSdq      gap      omega  full diag
   1    -13.8637226 -0.138637E+02  0.187E-01   13.43       0.0  T
   2    -13.8637351 -0.125526E-04  0.110E-01   13.43       1.0  T
   3    -13.8637370 -0.189218E-05  0.165E-02   13.43       1.6  T
   4    -13.8637374 -0.432863E-06  0.672E-03   13.43       4.0  T
   5    -13.8637375 -0.519261E-07  0.903E-04   13.43      29.6  T
   6    -13.8637375 -0.924981E-09  0.421E-04   13.43      63.5  T
     SCC iter.                  ...        0 min,  0.003 sec
     gradient                   ...        0 min,  0.003 sec
 * total energy  :   -13.6559042 Eh     change       -0.3680426E-02 Eh
   gradient norm :     0.0090078 Eh/α   predicted    -0.4843205E-02 (  31.59%)
   displ. norm   :     0.2786890 α      lambda       -0.1204929E-02
   maximum displ.:     0.2081618 α      in ANC's #1, #4, #2, ...

........................................................................
.............................. CYCLE    3 ..............................
........................................................................

 iter      E             dE          RMSdq      gap      omega  full diag
   1    -13.8644067 -0.138644E+02  0.119E-01   13.53       0.0  T
   2    -13.8644076 -0.922340E-06  0.708E-02   13.53       1.0  T
   3    -13.8644078 -0.200443E-06  0.404E-03   13.53       6.6  T
   4    -13.8644078 -0.365014E-07  0.194E-03   13.53      13.7  T
   5    -13.8644078 -0.334932E-08  0.384E-04   13.53      69.5  T
   6    -13.8644078 -0.161162E-09  0.151E-04   13.53     176.6  T
     SCC iter.                  ...        0 min,  0.003 sec
     gradient                   ...        0 min,  0.002 sec
 * total energy  :   -13.6568983 Eh     change       -0.9940806E-03 Eh
   gradient norm :     0.0056552 Eh/α   predicted    -0.6492539E-03 ( -34.69%)
   displ. norm   :     0.5958578 α      lambda       -0.1829821E-02
   maximum displ.:     0.4075171 α      in ANC's #1, #2, #4, ...

........................................................................
.............................. CYCLE    4 ..............................
........................................................................

 iter      E             dE          RMSdq      gap      omega  full diag
   1    -13.8625328 -0.138625E+02  0.193E-01   13.67       0.0  T
   2    -13.8625363 -0.347997E-05  0.115E-01   13.66       1.0  T
   3    -13.8625368 -0.524138E-06  0.624E-03   13.67       4.3  T
   4    -13.8625368 -0.523291E-07  0.311E-03   13.67       8.6  T
   5    -13.8625368 -0.315007E-08  0.833E-04   13.67      32.1  T
   6    -13.8625368 -0.110512E-08  0.214E-04   13.67     124.8  T
     SCC iter.                  ...        0 min,  0.003 sec
     gradient                   ...        0 min,  0.002 sec
 * total energy  :   -13.6582232 Eh     change       -0.1324848E-02 Eh
   gradient norm :     0.0120847 Eh/α   predicted    -0.1239746E-02 (  -6.42%)
   displ. norm   :     0.4257811 α      lambda       -0.1008547E-02
   maximum displ.:     0.2656691 α      in ANC's #1, #2, #4, ...

........................................................................
.............................. CYCLE    5 ..............................
........................................................................

 iter      E             dE          RMSdq      gap      omega  full diag
   1    -13.8627033 -0.138627E+02  0.117E-01   13.76       0.0  T
   2    -13.8627044 -0.102536E-05  0.704E-02   13.76       1.0  T
   3    -13.8627045 -0.159216E-06  0.411E-03   13.76       6.5  T
   4    -13.8627046 -0.601207E-07  0.192E-03   13.76      13.9  T
   5    -13.8627046 -0.191794E-08  0.397E-04   13.76      67.4  T
   6    -13.8627046 -0.117993E-09  0.127E-04   13.76     210.9  T
     SCC iter.                  ...        0 min,  0.004 sec
     gradient                   ...        0 min,  0.002 sec
 * total energy  :   -13.6589550 Eh     change       -0.7318261E-03 Eh
   gradient norm :     0.0133289 Eh/α   predicted    -0.5957027E-03 ( -18.60%)
   displ. norm   :     0.2969020 α      lambda       -0.9949188E-03
   maximum displ.:     0.1992269 α      in ANC's #2, #1, #4, ...

........................................................................
.............................. CYCLE    6 ..............................
........................................................................

 iter      E             dE          RMSdq      gap      omega  full diag
   1    -13.8690787 -0.138691E+02  0.996E-02   13.90       0.0  T
   2    -13.8690812 -0.248185E-05  0.583E-02   13.90       1.0  T
   3    -13.8690814 -0.262043E-06  0.576E-03   13.90       4.6  T
   4    -13.8690814 -0.128465E-07  0.218E-03   13.90      12.2  T
   5    -13.8690814 -0.979599E-09  0.689E-04   13.90      38.8  T
   6    -13.8690814 -0.105419E-08  0.140E-04   13.90     190.3  T
     SCC iter.                  ...        0 min,  0.003 sec
     gradient                   ...        0 min,  0.002 sec
 * total energy  :   -13.6596029 Eh     change       -0.6479260E-03 Eh
   gradient norm :     0.0061541 Eh/α   predicted    -0.5413119E-03 ( -16.45%)
   displ. norm   :     0.3364082 α      lambda       -0.4120620E-03
   maximum displ.:     0.2347445 α      in ANC's #2, #1, #4, ...

........................................................................
.............................. CYCLE    7 ..............................
........................................................................

 iter      E             dE          RMSdq      gap      omega  full diag
   1    -13.8671494 -0.138671E+02  0.958E-02   13.95       0.0  T
   2    -13.8671509 -0.151732E-05  0.568E-02   13.95       1.0  T
   3    -13.8671510 -0.155051E-06  0.438E-03   13.95       6.1  T
   4    -13.8671511 -0.130957E-07  0.171E-03   13.95      15.6  T
   5    -13.8671511 -0.840444E-09  0.458E-04   13.95      58.3  T
   6    -13.8671511 -0.316319E-09  0.110E-04   13.95     243.0  T
     SCC iter.                  ...        0 min,  0.003 sec
     gradient                   ...        0 min,  0.002 sec
 * total energy  :   -13.6598301 Eh     change       -0.2272026E-03 Eh
   gradient norm :     0.0078239 Eh/α   predicted    -0.2293514E-03 (   0.95%)
   displ. norm   :     0.1494294 α      lambda       -0.2683524E-03
   maximum displ.:     0.0963399 α      in ANC's #2, #1, #3, ...

........................................................................
.............................. CYCLE    8 ..............................
........................................................................

 iter      E             dE          RMSdq      gap      omega  full diag
   1    -13.8706090 -0.138706E+02  0.540E-02   13.99       0.0  T
   2    -13.8706103 -0.134882E-05  0.314E-02   13.99       1.0  T
   3    -13.8706104 -0.819266E-07  0.492E-03   13.99       5.4  T
   4    -13.8706104 -0.832891E-08  0.127E-03   13.99      21.0  T
   5    -13.8706104 -0.402297E-09  0.496E-04   13.99      53.9  T
   6    -13.8706104 -0.231164E-09  0.829E-05   13.99     322.2  T
     SCC iter.                  ...        0 min,  0.003 sec
     gradient                   ...        0 min,  0.002 sec
 * total energy  :   -13.6600080 Eh     change       -0.1779078E-03 Eh
   gradient norm :     0.0047512 Eh/α   predicted    -0.1371723E-03 ( -22.90%)
   displ. norm   :     0.2384873 α      lambda       -0.2154378E-03
   maximum displ.:     0.1603021 α      in ANC's #2, #1, #3, ...

........................................................................
.............................. CYCLE    9 ..............................
........................................................................

 iter      E             dE          RMSdq      gap      omega  full diag
   1    -13.8703309 -0.138703E+02  0.681E-02   13.97       0.0  T
   2    -13.8703312 -0.354570E-06  0.407E-02   13.97       1.0  T
   3    -13.8703313 -0.504875E-07  0.235E-03   13.97      11.4  T
   4    -13.8703313 -0.161521E-07  0.102E-03   13.97      26.2  T
   5    -13.8703313 -0.477998E-09  0.270E-04   13.97      99.2  T
   6    -13.8703313 -0.714486E-10  0.769E-05   13.97     347.4  T
     SCC iter.                  ...        0 min,  0.004 sec
     gradient                   ...        0 min,  0.005 sec
 * total energy  :   -13.6601738 Eh     change       -0.1657660E-03 Eh
   gradient norm :     0.0055962 Eh/α   predicted    -0.1138466E-03 ( -31.32%)
   displ. norm   :     0.2896315 α      lambda       -0.2734981E-03
   maximum displ.:     0.1658655 α      in ANC's #2, #4, #1, ...

........................................................................
.............................. CYCLE   10 ..............................
........................................................................

 iter      E             dE          RMSdq      gap      omega  full diag
   1    -13.8695661 -0.138696E+02  0.849E-02   13.93       0.0  T
   2    -13.8695671 -0.101454E-05  0.506E-02   13.93       1.0  T
   3    -13.8695672 -0.391200E-07  0.462E-03   13.93       5.8  T
   4    -13.8695673 -0.932598E-07  0.136E-03   13.93      19.6  T
   5    -13.8695673 -0.421391E-09  0.371E-04   13.93      72.1  T
   6    -13.8695673 -0.424443E-10  0.699E-05   13.93     382.4  T
     SCC iter.                  ...        0 min,  0.003 sec
     gradient                   ...        0 min,  0.002 sec
 * total energy  :   -13.6603297 Eh     change       -0.1558697E-03 Eh
   gradient norm :     0.0092483 Eh/α   predicted    -0.1482183E-03 (  -4.91%)
   displ. norm   :     0.0826502 α      lambda       -0.1822153E-03
   maximum displ.:     0.0662679 α      in ANC's #4, #2, #3, ...

........................................................................
.............................. CYCLE   11 ..............................
........................................................................

 iter      E             dE          RMSdq      gap      omega  full diag
   1    -13.8701675 -0.138702E+02  0.352E-02   13.91       0.0  T
   2    -13.8701681 -0.525787E-06  0.202E-02   13.91       1.3  T
   3    -13.8701681 -0.437850E-07  0.381E-03   13.91       7.0  T
   4    -13.8701681 -0.161419E-07  0.102E-03   13.91      26.2  T
   5    -13.8701681 -0.263990E-09  0.369E-04   13.91      72.4  T
   6    -13.8701681 -0.111621E-09  0.490E-05   13.91     545.1  T
     SCC iter.                  ...        0 min,  0.003 sec
     gradient                   ...        0 min,  0.002 sec
 * total energy  :   -13.6604624 Eh     change       -0.1327908E-03 Eh
   gradient norm :     0.0055245 Eh/α   predicted    -0.9172954E-04 ( -30.92%)
   displ. norm   :     0.2506318 α      lambda       -0.2750336E-03
   maximum displ.:     0.1766970 α      in ANC's #4, #2, #1, ...

........................................................................
.............................. CYCLE   12 ..............................
........................................................................

 iter      E             dE          RMSdq      gap      omega  full diag
   1    -13.8683998 -0.138684E+02  0.751E-02   13.90       0.0  T
   2    -13.8684008 -0.983146E-06  0.448E-02   13.90       1.0  T
   3    -13.8684009 -0.648874E-07  0.367E-03   13.90       7.3  T
   4    -13.8684009 -0.216948E-07  0.112E-03   13.90      23.8  T
   5    -13.8684009 -0.555223E-09  0.480E-04   13.90      55.6  T
   6    -13.8684009 -0.144723E-09  0.824E-05   13.90     324.4  T
     SCC iter.                  ...        0 min,  0.003 sec
     gradient                   ...        0 min,  0.002 sec
 * total energy  :   -13.6606450 Eh     change       -0.1825568E-03 Eh
   gradient norm :     0.0073491 Eh/α   predicted    -0.1461535E-03 ( -19.94%)
   displ. norm   :     0.1988580 α      lambda       -0.2417147E-03
   maximum displ.:     0.1694433 α      in ANC's #4, #2, #1, ...

........................................................................
.............................. CYCLE   13 ..............................
........................................................................

 iter      E             dE          RMSdq      gap      omega  full diag
   1    -13.8705221 -0.138705E+02  0.631E-02   13.95       0.0  T
   2    -13.8705229 -0.778432E-06  0.373E-02   13.95       1.0  T
   3    -13.8705229 -0.618919E-07  0.367E-03   13.95       7.3  T
   4    -13.8705230 -0.215229E-07  0.115E-03   13.95      23.2  T
   5    -13.8705230 -0.515445E-09  0.461E-04   13.95      58.0  T
   6    -13.8705230 -0.146679E-09  0.737E-05   13.95     362.7  T
     SCC iter.                  ...        0 min,  0.003 sec
     gradient                   ...        0 min,  0.002 sec
 * total energy  :   -13.6607878 Eh     change       -0.1428088E-03 Eh
   gradient norm :     0.0061178 Eh/α   predicted    -0.1256356E-03 ( -12.03%)
   displ. norm   :     0.3261760 α      lambda       -0.2085100E-03
   maximum displ.:     0.2136258 α      in ANC's #2, #4, #1, ...

........................................................................
.............................. CYCLE   14 ..............................
........................................................................

 iter      E             dE          RMSdq      gap      omega  full diag
   1    -13.8661835 -0.138662E+02  0.101E-01   13.98       0.0  T
   2    -13.8661869 -0.340849E-05  0.597E-02   13.98       1.0  T
   3    -13.8661872 -0.210371E-06  0.720E-03   13.98       3.7  T
   4    -13.8661872 -0.335060E-07  0.204E-03   13.98      13.1  T
   5    -13.8661872 -0.116170E-08  0.938E-04   13.98      28.5  T
   6    -13.8661872 -0.647685E-09  0.867E-05   13.98     308.4  T
     SCC iter.                  ...        0 min,  0.003 sec
     gradient                   ...        0 min,  0.002 sec
 * total energy  :   -13.6608076 Eh     change       -0.1983496E-04 Eh
   gradient norm :     0.0104642 Eh/α   predicted    -0.1153461E-03 ( 481.53%)
   displ. norm   :     0.0990722 α      lambda       -0.3098017E-03
   maximum displ.:     0.0692381 α      in ANC's #3, #4, #1, ...

........................................................................
.............................. CYCLE   15 ..............................
........................................................................

 iter      E             dE          RMSdq      gap      omega  full diag
   1    -13.8697595 -0.138698E+02  0.538E-02   14.06       0.0  T
   2    -13.8697627 -0.320421E-05  0.301E-02   14.06       1.0  T
   3    -13.8697629 -0.124159E-06  0.916E-03   14.06       2.9  T
   4    -13.8697629 -0.605029E-07  0.175E-03   14.06      15.3  T
   5    -13.8697629 -0.112178E-08  0.894E-04   14.06      29.9  T
   6    -13.8697629 -0.233817E-09  0.825E-05   14.06     324.1  T
     SCC iter.                  ...        0 min,  0.003 sec
     gradient                   ...        0 min,  0.002 sec
 * total energy  :   -13.6609748 Eh     change       -0.1671397E-03 Eh
   gradient norm :     0.0074417 Eh/α   predicted    -0.1564205E-03 (  -6.41%)
   displ. norm   :     0.0988666 α      lambda       -0.1544289E-03
   maximum displ.:     0.0691260 α      in ANC's #4, #2, #3, ...

........................................................................
.............................. CYCLE   16 ..............................
........................................................................

 iter      E             dE          RMSdq      gap      omega  full diag
   1    -13.8718240 -0.138718E+02  0.378E-02   14.09       0.0  T
   2    -13.8718244 -0.393777E-06  0.222E-02   14.09       1.2  T
   3    -13.8718244 -0.257149E-07  0.225E-03   14.09      11.9  T
   4    -13.8718244 -0.291947E-08  0.716E-04   14.09      37.3  T
   5    -13.8718244 -0.210823E-09  0.282E-04   14.09      94.8  T
     SCC iter.                  ...        0 min,  0.002 sec
     gradient                   ...        0 min,  0.002 sec
 * total energy  :   -13.6611022 Eh     change       -0.1273758E-03 Eh
   gradient norm :     0.0059609 Eh/α   predicted    -0.7796999E-04 ( -38.79%)
   displ. norm   :     0.4968400 α      lambda       -0.4882991E-03
   maximum displ.:     0.3060890 α      in ANC's #4, #2, #3, ...

........................................................................
.............................. CYCLE   17 ..............................
........................................................................

 iter      E             dE          RMSdq      gap      omega  full diag
   1    -13.8700085 -0.138700E+02  0.155E-01   14.09       0.0  T
   2    -13.8700153 -0.674640E-05  0.917E-02   14.08       1.0  T
   3    -13.8700156 -0.350542E-06  0.116E-02   14.08       2.3  T
   4    -13.8700158 -0.159571E-06  0.287E-03   14.08       9.3  T
   5    -13.8700158 -0.150428E-08  0.115E-03   14.08      23.2  T
   6    -13.8700158 -0.122971E-08  0.140E-04   14.08     191.2  T
   7    -13.8700158 -0.133351E-10  0.572E-05   14.08     467.2  T
     SCC iter.                  ...        0 min,  0.003 sec
     gradient                   ...        0 min,  0.002 sec
 * total energy  :   -13.6613080 Eh     change       -0.2058815E-03 Eh
   gradient norm :     0.0165458 Eh/α   predicted    -0.3044171E-03 (  47.86%)
   displ. norm   :     0.1373846 α      lambda       -0.7461034E-03
   maximum displ.:     0.0586885 α      in ANC's #2, #4, #24, ...

........................................................................
.............................. CYCLE   18 ..............................
........................................................................

 iter      E             dE          RMSdq      gap      omega  full diag
   1    -13.8730403 -0.138730E+02  0.855E-02   14.08       0.0  T
   2    -13.8730474 -0.709383E-05  0.480E-02   14.08       1.0  T
   3    -13.8730478 -0.365930E-06  0.139E-02   14.08       1.9  T
   4    -13.8730479 -0.105058E-06  0.289E-03   14.08       9.3  T
   5    -13.8730479 -0.344489E-08  0.132E-03   14.08      20.3  T
   6    -13.8730479 -0.132229E-08  0.182E-04   14.08     146.6  T
   7    -13.8730479 -0.320881E-10  0.705E-05   14.08     379.2  T
     SCC iter.                  ...        0 min,  0.004 sec
     gradient                   ...        0 min,  0.002 sec
 * total energy  :   -13.6617082 Eh     change       -0.4001463E-03 Eh
   gradient norm :     0.0083747 Eh/α   predicted    -0.3800933E-03 (  -5.01%)
   displ. norm   :     0.3594445 α      lambda       -0.4634121E-03
   maximum displ.:     0.2063025 α      in ANC's #4, #2, #3, ...

........................................................................
.............................. CYCLE   19 ..............................
........................................................................

 iter      E             dE          RMSdq      gap      omega  full diag
   1    -13.8699716 -0.138700E+02  0.109E-01   14.06       0.0  T
   2    -13.8699764 -0.483474E-05  0.644E-02   14.05       1.0  T
   3    -13.8699766 -0.179072E-06  0.101E-02   14.05       2.7  T
   4    -13.8699767 -0.111537E-06  0.217E-03   14.05      12.3  T
   5    -13.8699767 -0.178441E-08  0.997E-04   14.05      26.8  T
   6    -13.8699767 -0.562389E-09  0.132E-04   14.05     202.0  T
     SCC iter.                  ...        0 min,  0.003 sec
     gradient                   ...        0 min,  0.002 sec
 * total energy  :   -13.6619963 Eh     change       -0.2881584E-03 Eh
   gradient norm :     0.0117804 Eh/α   predicted    -0.2616462E-03 (  -9.20%)
   displ. norm   :     0.1933030 α      lambda       -0.5843149E-03
   maximum displ.:     0.1521117 α      in ANC's #3, #23, #25, ...

........................................................................
.............................. CYCLE   20 ..............................
........................................................................

 iter      E             dE          RMSdq      gap      omega  full diag
   1    -13.8743549 -0.138744E+02  0.865E-02   14.06       0.0  T
   2    -13.8743568 -0.190367E-05  0.508E-02   14.06       1.0  T
   3    -13.8743571 -0.219682E-06  0.523E-03   14.06       5.1  T
   4    -13.8743571 -0.118250E-07  0.195E-03   14.06      13.7  T
   5    -13.8743571 -0.116324E-08  0.587E-04   14.06      45.5  T
   6    -13.8743571 -0.557836E-09  0.140E-04   14.06     191.4  T
     SCC iter.                  ...        0 min,  0.003 sec
     gradient                   ...        0 min,  0.002 sec
 * total energy  :   -13.6622769 Eh     change       -0.2805427E-03 Eh
   gradient norm :     0.0166153 Eh/α   predicted    -0.3030771E-03 (   8.03%)
   displ. norm   :     0.2132132 α      lambda       -0.5481472E-03
   maximum displ.:     0.1235846 α      in ANC's #3, #23, #24, ...
 * RMSD in coord.:     0.9677291 α      energy gain  -0.1005309E-01 Eh

generating ANC from exact Hessian ...
Using Lindh-Hessian (1995)
 Shifting diagonal of input Hessian by    5.8383344729545095E-003
 Lowest  eigenvalues of input Hessian
    0.000000    0.000000    0.000000    0.000000    0.000000    0.000000
    0.010000    0.012635    0.013803    0.020516    0.024656    0.046122
    0.051479    0.057604    0.058790    0.060905    0.062050    0.066937
 Highest eigenvalues
    1.136815    1.152170    1.179360    1.211065    1.248716    1.269817


........................................................................
.............................. CYCLE   21 ..............................
........................................................................

 iter      E             dE          RMSdq      gap      omega  full diag
   1    -13.8740808 -0.138741E+02  0.729E-02   14.06       0.0  T
   2    -13.8740815 -0.693989E-06  0.437E-02   14.06       1.0  T
   3    -13.8740816 -0.729562E-07  0.304E-03   14.06       8.8  T
   4    -13.8740816 -0.238133E-07  0.124E-03   14.06      21.5  T
   5    -13.8740816 -0.116277E-08  0.387E-04   14.06      69.0  T
   6    -13.8740816 -0.128619E-09  0.111E-04   14.06     240.4  T
     SCC iter.                  ...        0 min,  0.003 sec
     gradient                   ...        0 min,  0.002 sec
 * total energy  :   -13.6626460 Eh     change       -0.3691348E-03 Eh
   gradient norm :     0.0141017 Eh/α   predicted     0.0000000E+00 (-100.00%)
   displ. norm   :     0.1531053 α      lambda       -0.7193126E-03
   maximum displ.:     0.1368290 α      in ANC's #3, #2, #1, ...

........................................................................
.............................. CYCLE   22 ..............................
........................................................................

 iter      E             dE          RMSdq      gap      omega  full diag
   1    -13.8737434 -0.138737E+02  0.766E-02   14.14       0.0  T
   2    -13.8737468 -0.332294E-05  0.445E-02   14.14       1.0  T
   3    -13.8737470 -0.231242E-06  0.764E-03   14.14       3.5  T
   4    -13.8737470 -0.233727E-07  0.210E-03   14.14      12.8  T
   5    -13.8737470 -0.174939E-08  0.364E-04   14.14      73.3  T
   6    -13.8737470 -0.624034E-10  0.140E-04   14.14     191.4  T
     SCC iter.                  ...        0 min,  0.003 sec
     gradient                   ...        0 min,  0.002 sec
 * total energy  :   -13.6631537 Eh     change       -0.5076902E-03 Eh
   gradient norm :     0.0044283 Eh/α   predicted    -0.3680858E-03 ( -27.50%)
   displ. norm   :     0.2115289 α      lambda       -0.4043846E-03
   maximum displ.:     0.2000934 α      in ANC's #3, #1, #2, ...

........................................................................
.............................. CYCLE   23 ..............................
........................................................................

 iter      E             dE          RMSdq      gap      omega  full diag
   1    -13.8725831 -0.138726E+02  0.689E-02   14.21       0.0  T
   2    -13.8725849 -0.176973E-05  0.406E-02   14.21       1.0  T
   3    -13.8725850 -0.106579E-06  0.535E-03   14.21       5.0  T
   4    -13.8725850 -0.119070E-07  0.137E-03   14.21      19.5  T
   5    -13.8725850 -0.114017E-08  0.350E-04   14.21      76.3  T
   6    -13.8725850 -0.265103E-10  0.109E-04   14.21     245.0  T
     SCC iter.                  ...        0 min,  0.003 sec
     gradient                   ...        0 min,  0.002 sec
 * total energy  :   -13.6634410 Eh     change       -0.2873280E-03 Eh
   gradient norm :     0.0054099 Eh/α   predicted    -0.2112383E-03 ( -26.48%)
   displ. norm   :     0.1411451 α      lambda       -0.2003709E-03
   maximum displ.:     0.1266267 α      in ANC's #3, #5, #1, ...

........................................................................
.............................. CYCLE   24 ..............................
........................................................................

 iter      E             dE          RMSdq      gap      omega  full diag
   1    -13.8724713 -0.138725E+02  0.403E-02   14.24       0.0  T
   2    -13.8724714 -0.907459E-07  0.243E-02   14.24       1.1  T
   3    -13.8724714 -0.154978E-07  0.876E-04   14.24      30.5  T
   4    -13.8724714 -0.120647E-08  0.443E-04   14.24      60.4  T
     SCC iter.                  ...        0 min,  0.002 sec
     gradient                   ...        0 min,  0.002 sec
 * total energy  :   -13.6636201 Eh     change       -0.1790776E-03 Eh
   gradient norm :     0.0060684 Eh/α   predicted    -0.1021823E-03 ( -42.94%)
   displ. norm   :     0.2622525 α      lambda       -0.3704473E-03
   maximum displ.:     0.2226621 α      in ANC's #3, #5, #1, ...

........................................................................
.............................. CYCLE   25 ..............................
........................................................................

 iter      E             dE          RMSdq      gap      omega  full diag
   1    -13.8724497 -0.138724E+02  0.764E-02   14.26       0.0  T
   2    -13.8724503 -0.580749E-06  0.458E-02   14.26       1.0  T
   3    -13.8724504 -0.785901E-07  0.260E-03   14.26      10.3  T
   4    -13.8724504 -0.634130E-08  0.112E-03   14.26      23.8  T
   5    -13.8724504 -0.132315E-09  0.191E-04   14.26     139.6  T
   6    -13.8724504 -0.891944E-10  0.459E-05   14.26     582.3  T
     SCC iter.                  ...        0 min,  0.003 sec
     gradient                   ...        0 min,  0.002 sec
 * total energy  :   -13.6638990 Eh     change       -0.2788998E-03 Eh
   gradient norm :     0.0056268 Eh/α   predicted    -0.1979602E-03 ( -29.02%)
   displ. norm   :     0.2632170 α      lambda       -0.2499089E-03
   maximum displ.:     0.2322656 α      in ANC's #3, #5, #1, ...

........................................................................
.............................. CYCLE   26 ..............................
........................................................................

 iter      E             dE          RMSdq      gap      omega  full diag
   1    -13.8722525 -0.138723E+02  0.738E-02   14.25       0.0  T
   2    -13.8722527 -0.233308E-06  0.444E-02   14.25       1.0  T
   3    -13.8722528 -0.488924E-07  0.165E-03   14.25      16.2  T
   4    -13.8722528 -0.685255E-08  0.820E-04   14.25      32.6  T
   5    -13.8722528 -0.932463E-10  0.244E-04   14.25     109.5  T
     SCC iter.                  ...        0 min,  0.002 sec
     gradient                   ...        0 min,  0.002 sec
 * total energy  :   -13.6640553 Eh     change       -0.1563287E-03 Eh
   gradient norm :     0.0064180 Eh/α   predicted    -0.1336099E-03 ( -14.53%)
   displ. norm   :     0.1120240 α      lambda       -0.1441729E-03
   maximum displ.:     0.0980313 α      in ANC's #3, #5, #24, ...

........................................................................
.............................. CYCLE   27 ..............................
........................................................................

 iter      E             dE          RMSdq      gap      omega  full diag
   1    -13.8746290 -0.138746E+02  0.413E-02   14.25       0.0  T
   2    -13.8746300 -0.985688E-06  0.239E-02   14.25       1.1  T
   3    -13.8746301 -0.491557E-07  0.470E-03   14.25       5.7  T
   4    -13.8746301 -0.141197E-07  0.107E-03   14.25      25.0  T
   5    -13.8746301 -0.497137E-09  0.534E-04   14.25      50.1  T
   6    -13.8746301 -0.153580E-09  0.567E-05   14.25     471.5  T
     SCC iter.                  ...        0 min,  0.004 sec
     gradient                   ...        0 min,  0.002 sec
 * total energy  :   -13.6641402 Eh     change       -0.8489923E-04 Eh
   gradient norm :     0.0019334 Eh/α   predicted    -0.7298954E-04 ( -14.03%)
   displ. norm   :     0.2180345 α      lambda       -0.5452294E-04
   maximum displ.:     0.2016928 α      in ANC's #3, #5, #1, ...

........................................................................
.............................. CYCLE   28 ..............................
........................................................................

 iter      E             dE          RMSdq      gap      omega  full diag
   1    -13.8738577 -0.138739E+02  0.648E-02   14.23       0.0  T
   2    -13.8738582 -0.521518E-06  0.386E-02   14.23       1.0  T
   3    -13.8738583 -0.467932E-07  0.300E-03   14.23       8.9  T
   4    -13.8738583 -0.271203E-07  0.104E-03   14.23      25.8  T
   5    -13.8738583 -0.709443E-09  0.323E-04   14.23      82.8  T
   6    -13.8738583 -0.633111E-10  0.849E-05   14.23     314.9  T
     SCC iter.                  ...        0 min,  0.003 sec
     gradient                   ...        0 min,  0.002 sec
 * total energy  :   -13.6641584 Eh     change       -0.1811409E-04 Eh
   gradient norm :     0.0037959 Eh/α   predicted    -0.2783685E-04 (  53.68%)
   displ. norm   :     0.0437785 α      lambda       -0.2988044E-04
   maximum displ.:     0.0376679 α      in ANC's #3, #5, #1, ...

........................................................................
.............................. CYCLE   29 ..............................
........................................................................

 iter      E             dE          RMSdq      gap      omega  full diag
   1    -13.8751088 -0.138751E+02  0.183E-02   14.25       0.0  T
   2    -13.8751091 -0.297026E-06  0.103E-02   14.25       2.6  T
   3    -13.8751091 -0.112742E-07  0.283E-03   14.25       9.5  T
   4    -13.8751091 -0.565706E-08  0.533E-04   14.25      50.1  T
   5    -13.8751091 -0.138391E-09  0.281E-04   14.25      95.0  T
     SCC iter.                  ...        0 min,  0.002 sec
     gradient                   ...        0 min,  0.002 sec
 * total energy  :   -13.6641742 Eh     change       -0.1580099E-04 Eh
   gradient norm :     0.0013912 Eh/α   predicted    -0.1496983E-04 (  -5.26%)
   displ. norm   :     0.0095632 α      lambda       -0.3379529E-05
   maximum displ.:     0.0059714 α      in ANC's #2, #1, #18, ...

........................................................................
.............................. CYCLE   30 ..............................
........................................................................

 iter      E             dE          RMSdq      gap      omega  full diag
   1    -13.8748896 -0.138749E+02  0.938E-03   14.25       0.0  T
   2    -13.8748896 -0.810073E-07  0.530E-03   14.25       5.0  T
   3    -13.8748896 -0.391642E-08  0.139E-03   14.25      19.2  T
   4    -13.8748896 -0.890756E-09  0.287E-04   14.25      93.3  T
   5    -13.8748896 -0.381579E-10  0.109E-04   14.25     245.7  T
     SCC iter.                  ...        0 min,  0.002 sec
     gradient                   ...        0 min,  0.002 sec
 * total energy  :   -13.6641746 Eh     change       -0.4748567E-06 Eh
   gradient norm :     0.0008355 Eh/α   predicted    -0.1691158E-05 ( 256.14%)
   displ. norm   :     0.0084806 α      lambda       -0.1825755E-05
   maximum displ.:     0.0047320 α      in ANC's #4, #2, #1, ...

........................................................................
.............................. CYCLE   31 ..............................
........................................................................

 iter      E             dE          RMSdq      gap      omega  full diag
   1    -13.8750150 -0.138750E+02  0.565E-03   14.26       0.0  T
   2    -13.8750150 -0.249820E-07  0.319E-03   14.26       8.4  T
   3    -13.8750150 -0.128607E-08  0.796E-04   14.26      33.6  T
   4    -13.8750150 -0.397161E-09  0.174E-04   14.26     153.7  T
     SCC iter.                  ...        0 min,  0.002 sec
     gradient                   ...        0 min,  0.002 sec
 * total energy  :   -13.6641760 Eh     change       -0.1359347E-05 Eh
   gradient norm :     0.0003089 Eh/α   predicted    -0.9120045E-06 ( -32.91%)
   displ. norm   :     0.0043003 α      lambda       -0.2059087E-06
   maximum displ.:     0.0036049 α      in ANC's #3, #4, #2, ...

........................................................................
.............................. CYCLE   32 ..............................
........................................................................

 iter      E             dE          RMSdq      gap      omega  full diag
   1    -13.8749920 -0.138750E+02  0.205E-03   14.26       0.0  T
   2    -13.8749920 -0.986166E-09  0.121E-03   14.26      22.2  T
   3    -13.8749920 -0.699565E-10  0.146E-04   14.26     183.4  T
   4    -13.8749920 -0.705853E-10  0.475E-05   14.26     563.0  T
     SCC iter.                  ...        0 min,  0.002 sec
     gradient                   ...        0 min,  0.002 sec
 * total energy  :   -13.6641762 Eh     change       -0.1787941E-06 Eh
   gradient norm :     0.0002058 Eh/α   predicted    -0.1046479E-06 ( -41.47%)
   displ. norm   :     0.0049352 α      lambda       -0.1570441E-06
   maximum displ.:     0.0029356 α      in ANC's #4, #3, #2, ...

   *** GEOMETRY OPTIMIZATION CONVERGED AFTER 32 ITERATIONS ***

------------------------------------------------------------------------
 total energy gain   :        -0.0119524 Eh       -7.5002 kcal/mol
 total RMSD          :         1.1369626 a0        0.6017 Å
 total power (kW/mol):        -0.9806549 (step) -140.7377 (real)
------------------------------------------------------------------------

 ANCopt (total)                0 d,  0 h,  0 min,  0.223 sec
 optimizer setup                ...        0 min,  0.000 sec (  0.084%)
 model hessian                  ...        0 min,  0.017 sec (  7.835%)
 ANC generation                 ...        0 min,  0.001 sec (  0.465%)
 coordinate transformation      ...        0 min,  0.000 sec (  0.129%)
 single point calculation       ...        0 min,  0.187 sec ( 83.896%)
 optimization log               ...        0 min,  0.006 sec (  2.563%)
 hessian update                 ...        0 min,  0.002 sec (  0.968%)
 rational function              ...        0 min,  0.006 sec (  2.504%)

================
 final structure:
================
14
 xtb: 6.7.1 (edcfbbe)
C           -0.50770732692514        0.85407212632239        1.58184929898471
H           -0.24685204561515        1.15212279930702        2.59389004702790
H            0.12869250601649        1.39812103251067        0.88673230177540
H           -0.29834405636905       -0.20854191854289        1.47815914880484
C           -1.97716626850809        1.13454375259055        1.28954380989767
H           -2.59826145542922        0.61502152670646        2.02302904584947
H           -2.22377401870788        0.73152701590769        0.30409094285432
C           -2.32005008498603        2.62456832483711        1.30615833763577
H           -1.66343011892259        3.15180522110929        0.61007024539204
H           -3.34593088285585        2.74965044576190        0.95083267351143
C           -2.19911504901293        3.25260760659380        2.68978804582286
H           -1.16964279558147        3.23690425881561        3.03736395139474
H           -2.53145471194909        4.28806393908325        2.66470766048591
H           -2.81385649115383        2.71298495899703        3.40718715056288

 Bond Distances (Angstroems)
 ---------------------------
C1-H2=1.0868         C1-H3=1.0882         C1-H4=1.0880         C1-C5=1.5243         H2-C1=1.0868         H3-C1=1.0882         
H4-C1=1.0880         C5-C1=1.5243         C5-H6=1.0925         C5-H7=1.0929         C5-C8=1.5291         H6-C5=1.0925         
H7-C5=1.0929         C8-C5=1.5291         C8-H9=1.0926         C8-H10=1.0929        C8-C11=1.5243        H9-C8=1.0926         
H10-C8=1.0929        C11-C8=1.5243        C11-H12=1.0867       C11-H13=1.0878       C11-H14=1.0880       H12-C11=1.0867       
H13-C11=1.0878       H14-C11=1.0880       
 C  H  Rav=1.0896 sigma=0.0026  Rmin=1.0867  Rmax=1.0929    10
 C  C  Rav=1.5259 sigma=0.0022  Rmin=1.5243  Rmax=1.5291     3

 selected bond angles (degree)
 --------------------
H3-C1-H2=108.50                H4-C1-H2=108.08                H4-C1-H3=108.35                C5-C1-H2=111.07                
C5-C1-H3=110.44                C5-C1-H4=110.30                H6-C5-C1=109.38                H7-C5-C1=108.82                
H7-C5-H6=107.56                C8-C5-C1=113.17                C8-C5-H6=109.18                C8-C5-H7=108.58                
H9-C8-C5=109.18                H10-C8-C5=108.57               H10-C8-H9=107.56               C11-C8-C5=113.18               
C11-C8-H9=109.38               C11-C8-H10=108.81              

 selected dihedral angles (degree)
 ---------------------------------
H6-C5-C1-H2=302.86            H6-C5-C1-H3=182.42            H6-C5-C1-H4= 62.67            H7-C5-C1-H2=185.61            
H7-C5-C1-H3= 65.18            H7-C5-C1-H4=305.43            C8-C5-C1-H2= 64.82            C8-C5-C1-H3=304.39            
C8-C5-C1-H4=184.64            H9-C8-C5-C1= 55.03            H9-C8-C5-H6=177.10            H9-C8-C5-H7=294.10            
H10-C8-C5-C1=172.03           H10-C8-C5-H6=294.10           H10-C8-C5-H7= 51.10           C11-C8-C5-C1=292.95           
C11-C8-C5-H6= 55.02           C11-C8-C5-H7=172.02           
           -------------------------------------------------
          |                Final Singlepoint                |
           -------------------------------------------------

          ...................................................
          :                      SETUP                      :
          :.................................................:
          :  # basis functions                  26          :
          :  # atomic orbitals                  26          :
          :  # shells                           18          :
          :  # electrons                        26          :
          :  max. iterations                   250          :
          :  Hamiltonian                  GFN2-xTB          :
          :  restarted?                      false          :
          :  GBSA solvation                  false          :
          :  PC potential                    false          :
          :  electronic temp.          300.0000000     K    :
          :  accuracy                    1.0000000          :
          :  -> integral cutoff          0.2500000E+02      :
          :  -> integral neglect         0.1000000E-07      :
          :  -> SCF convergence          0.1000000E-05 Eh   :
          :  -> wf. convergence          0.1000000E-03 e    :
          :  Broyden damping             0.4000000          :
          :  net charge                          0          :
          :  unpaired electrons                  0          :
          ...................................................

 iter      E             dE          RMSdq      gap      omega  full diag
   1    -13.8749920 -0.138750E+02  0.910E-06   14.26       0.0  T
   2    -13.8749920 -0.337508E-13  0.529E-06   14.26    5048.8  T
   3    -13.8749920 -0.888178E-14  0.973E-07   14.26   27476.7  T

   *** convergence criteria satisfied after 3 iterations ***

         #    Occupation            Energy/Eh            Energy/eV
      -------------------------------------------------------------
         1        2.0000           -0.6178101             -16.8115
       ...           ...                  ...                  ...
         7        2.0000           -0.4848972             -13.1947
         8        2.0000           -0.4663607             -12.6903
         9        2.0000           -0.4619361             -12.5699
        10        2.0000           -0.4480755             -12.1928
        11        2.0000           -0.4257857             -11.5862
        12        2.0000           -0.4234403             -11.5224
        13        2.0000           -0.4222451             -11.4899 (HOMO)
        14                          0.1016927               2.7672 (LUMO)
        15                          0.1112795               3.0281
        16                          0.1369861               3.7276
        17                          0.1487851               4.0486
        18                          0.1501939               4.0870
       ...                                ...                  ...
        26                          0.2993123               8.1447
      -------------------------------------------------------------
                  HL-Gap            0.5239378 Eh           14.2571 eV
             Fermi-level           -0.1602762 Eh           -4.3613 eV

 SCC (total)                   0 d,  0 h,  0 min,  0.005 sec
 SCC setup                      ...        0 min,  0.000 sec (  2.686%)
 Dispersion                     ...        0 min,  0.000 sec (  2.279%)
 classical contributions        ...        0 min,  0.000 sec (  1.134%)
 integral evaluation            ...        0 min,  0.001 sec ( 13.939%)
 iterations                     ...        0 min,  0.002 sec ( 31.879%)
 molecular gradient             ...        0 min,  0.002 sec ( 41.804%)
 printout                       ...        0 min,  0.000 sec (  5.843%)

         :::::::::::::::::::::::::::::::::::::::::::::::::::::
         ::                     SUMMARY                     ::
         :::::::::::::::::::::::::::::::::::::::::::::::::::::
         :: total energy             -13.664176172160 Eh    ::
         :: gradient norm              0.000206245647 Eh/a0 ::
         :: HOMO-LUMO gap             14.257072855925 eV    ::
         ::.................................................::
         :: SCC energy               -13.874984869619 Eh    ::
         :: -> isotropic ES            0.002972087144 Eh    ::
         :: -> anisotropic ES          0.004966284641 Eh    ::
         :: -> anisotropic XC          0.008995377554 Eh    ::
         :: -> dispersion             -0.006304199317 Eh    ::
         :: repulsion energy           0.210808697459 Eh    ::
         :: add. restraining           0.000000000000 Eh    ::
         :: total charge               0.000000000000 e     ::
         :::::::::::::::::::::::::::::::::::::::::::::::::::::

           -------------------------------------------------
          |                Property Printout                |
           -------------------------------------------------

    * Orbital Energies and Occupations

         #    Occupation            Energy/Eh            Energy/eV
      -------------------------------------------------------------
         1        2.0000           -0.6178101             -16.8115
         2        2.0000           -0.5960395             -16.2191
         3        2.0000           -0.5731515             -15.5962
         4        2.0000           -0.5474778             -14.8976
         5        2.0000           -0.5064326             -13.7807
         6        2.0000           -0.5059828             -13.7685
         7        2.0000           -0.4848972             -13.1947
         8        2.0000           -0.4663607             -12.6903
         9        2.0000           -0.4619361             -12.5699
        10        2.0000           -0.4480755             -12.1928
        11        2.0000           -0.4257857             -11.5862
        12        2.0000           -0.4234403             -11.5224
        13        2.0000           -0.4222451             -11.4899 (HOMO)
        14                          0.1016927               2.7672 (LUMO)
        15                          0.1112795               3.0281
        16                          0.1369861               3.7276
        17                          0.1487851               4.0486
        18                          0.1501939               4.0870
        19                          0.1578708               4.2959
        20                          0.2028872               5.5208
        21                          0.2065663               5.6210
        22                          0.2344945               6.3809
        23                          0.2484823               6.7615
        24                          0.2786271               7.5818
       ...                                ...                  ...
        26                          0.2993123               8.1447
      -------------------------------------------------------------
                  HL-Gap            0.5239378 Eh           14.2571 eV
             Fermi-level           -0.1602762 Eh           -4.3613 eV

     #   Z          covCN         q      C6AA      α(0)
     1   6 C        3.751    -0.101    22.493     6.763
     2   1 H        0.925     0.035     2.511     2.478
     3   1 H        0.925     0.033     2.550     2.497
     4   1 H        0.925     0.030     2.586     2.515
     5   6 C        3.800    -0.053    21.518     6.605
     6   1 H        0.924     0.030     2.593     2.518
     7   1 H        0.924     0.026     2.644     2.543
     8   6 C        3.800    -0.053    21.518     6.605
     9   1 H        0.924     0.030     2.593     2.518
    10   1 H        0.924     0.026     2.644     2.543
    11   6 C        3.751    -0.101    22.493     6.764
    12   1 H        0.925     0.035     2.511     2.478
    13   1 H        0.925     0.030     2.585     2.514
    14   1 H        0.925     0.033     2.550     2.497

 Mol. C6AA /au·bohr⁶  :       1208.197687
 Mol. C8AA /au·bohr⁸  :      24487.225127
 Mol. α(0) /au        :         51.836859


Wiberg/Mayer (AO) data.
largest (>0.10) Wiberg bond orders for each atom

 ---------------------------------------------------------------------------
     #   Z sym  total        # sym  WBO       # sym  WBO       # sym  WBO
 ---------------------------------------------------------------------------
     1   6 C    3.997 --     5 C    1.020     3 H    0.988     4 H    0.988
                             2 H    0.986
     2   1 H    0.999 --     1 C    0.986
     3   1 H    0.999 --     1 C    0.988
     4   1 H    0.999 --     1 C    0.988
     5   6 C    3.998 --     1 C    1.020     8 C    1.008     7 H    0.979
                             6 H    0.978
     6   1 H    0.999 --     5 C    0.978
     7   1 H    0.999 --     5 C    0.979
     8   6 C    3.998 --    11 C    1.020     5 C    1.008    10 H    0.979
                             9 H    0.978
     9   1 H    0.999 --     8 C    0.978
    10   1 H    0.999 --     8 C    0.979
    11   6 C    3.997 --     8 C    1.020    14 H    0.988    13 H    0.988
                            12 H    0.986
    12   1 H    0.999 --    11 C    0.986
    13   1 H    0.999 --    11 C    0.988
    14   1 H    0.999 --    11 C    0.988
 ---------------------------------------------------------------------------

Topologies differ in total number of bonds
Writing topology from bond orders to xtbtopo.mol

molecular dipole:
                 x           y           z       tot (Debye)
 q only:        0.011       0.002       0.012
   full:        0.008       0.002       0.009       0.032
molecular quadrupole (traceless):
                xx          xy          yy          xz          yz          zz
 q only:       -0.102       0.049      -0.019       0.071       0.103       0.121
  q+dip:       -0.071       0.409      -0.159      -0.238      -0.287       0.230
   full:       -0.080       0.210      -0.072      -0.098      -0.097       0.152

           -------------------------------------------------
          |                Geometry Summary                 |
           -------------------------------------------------

      molecular mass/u    :       58.1223511
   center of mass at/Å    :       -1.7380514       1.9692780       1.7304953
Note: The following floating-point exceptions are signalling: IEEE_UNDERFLOW_FLAG IEEE_DENORMAL
normal termination of xtb
  moments of inertia/u·Å² :        0.3769814E+02   0.1052974E+03   0.1227909E+03
rotational constants/cm⁻¹ :        0.4471741E+00   0.1600954E+00   0.1372873E+00

 * 13 selected distances

     #   Z          #   Z                                           value/Å
     1   6 C        2   1 H                                       1.0867872
     1   6 C        3   1 H                                       1.0882012
     1   6 C        4   1 H                                       1.0879952
     1   6 C        5   6 C                                       1.5242758
     5   6 C        6   1 H                                       1.0925490
     5   6 C        7   1 H                                       1.0928657
     5   6 C        8   6 C                                       1.5290582 (max)
     8   6 C        9   1 H                                       1.0925509
     8   6 C       10   1 H                                       1.0928557
     8   6 C       11   6 C                                       1.5242999
    11   6 C       12   1 H                                       1.0866779 (min)
    11   6 C       13   1 H                                       1.0877724
    11   6 C       14   1 H                                       1.0880080

 * 2 distinct bonds (by element types)

   Z      Z             #   av. dist./Å        max./Å        min./Å
   1 H    6 C          10     1.0896263     1.0928657     1.0866779
   6 C    6 C           3     1.5258780     1.5290582     1.5242758


optimized geometry written to: xtbopt.xyz


           -------------------------------------------------
          | TOTAL ENERGY              -13.664176172160 Eh   |
          | GRADIENT NORM               0.000206245647 Eh/α |
          | HOMO-LUMO GAP              14.257072855925 eV   |
           -------------------------------------------------

------------------------------------------------------------------------
 * finished run on 2026/08/11 at 11:11:59.221     
------------------------------------------------------------------------
 total:
 * wall-time:     0 d,  0 h,  0 min,  0.356 sec
 *  cpu-time:     0 d,  0 h,  0 min,  1.375 sec
 * ratio c/w:     3.866 speedup
 SCF:
 * wall-time:     0 d,  0 h,  0 min,  0.087 sec
 *  cpu-time:     0 d,  0 h,  0 min,  0.343 sec
 * ratio c/w:     3.951 speedup
 ANC optimizer:
 * wall-time:     0 d,  0 h,  0 min,  0.230 sec
 *  cpu-time:     0 d,  0 h,  0 min,  0.879 sec
 * ratio c/w:     3.828 speedup

