14
 energy: -13.664176172160 gnorm: 0.000206245647 xtb: 6.7.1 (edcfbbe)
C           -0.50770732692514        0.85407212632239        1.58184929898471
H           -0.24685204561515        1.15212279930702        2.59389004702790
H            0.12869250601649        1.39812103251067        0.88673230177540
H           -0.29834405636905       -0.20854191854289        1.47815914880484
C           -1.97716626850809        1.13454375259055        1.28954380989767
H           -2.59826145542922        0.61502152670646        2.02302904584947
H           -2.22377401870788        0.73152701590769        0.30409094285432
C           -2.32005008498603        2.62456832483711        1.30615833763577
H           -1.66343011892259        3.15180522110929        0.61007024539204
H           -3.34593088285585        2.74965044576190        0.95083267351143
C           -2.19911504901293        3.25260760659380        2.68978804582286
H           -1.16964279558147        3.23690425881561        3.03736395139474
H           -2.53145471194909        4.28806393908325        2.66470766048591
H           -2.81385649115383        2.71298495899703        3.40718715056288
